 "x_c",  "y_c",  "u_c",  "v_c",  "exx",  "eyy",  "exy",  "e1",  "e2",  "gamma",  "e_vonmises",  "sigma",  "x",  "y",  "u",  "v"
-700,715,0,0,0,0,0,0,0,0,0,-1,524,309,0,0
-693,715,0,0,0,0,0,0,0,0,0,-1,531,309,0,0
-686,715,0,0,0,0,0,0,0,0,0,-1,538,309,0,0
-679,715,0,0,0,0,0,0,0,0,0,-1,545,309,0,0
-672,715,0,0,0,0,0,0,0,0,0,-1,552,309,0,0
-665,715,0,0,0,0,0,0,0,0,0,-1,559,309,0,0
-658,715,0,0,0,0,0,0,0,0,0,-1,566,309,0,0
-651,715,0,0,0,0,0,0,0,0,0,-1,573,309,0,0
-644,715,0,0,0,0,0,0,0,0,0,-1,580,309,0,0
-637,715,0,0,0,0,0,0,0,0,0,-1,587,309,0,0
-630,715,0,0,0,0,0,0,0,0,0,-1,594,309,0,0
-623,715,0,0,0,0,0,0,0,0,0,-1,601,309,0,0
-616,715,0,0,0,0,0,0,0,0,0,-1,608,309,0,0
-609,715,0,0,0,0,0,0,0,0,0,-1,615,309,0,0
-602,715,0,0,0,0,0,0,0,0,0,-1,622,309,0,0
-595,715,0,0,0,0,0,0,0,0,0,-1,629,309,0,0
-588,715,0,0,0,0,0,0,0,0,0,-1,636,309,0,0
-581,715,0,0,0,0,0,0,0,0,0,-1,643,309,0,0
-574,715,0,0,0,0,0,0,0,0,0,-1,650,309,0,0
-567,715,0,0,0,0,0,0,0,0,0,-1,657,309,0,0
-560,715,0,0,0,0,0,0,0,0,0,-1,664,309,0,0
-553,715,0,0,0,0,0,0,0,0,0,-1,671,309,0,0
-546,715,0,0,0,0,0,0,0,0,0,-1,678,309,0,0
-539,715,0,0,0,0,0,0,0,0,0,-1,685,309,0,0
-532,715,0,0,0,0,0,0,0,0,0,-1,692,309,0,0
-525,715,0,0,0,0,0,0,0,0,0,-1,699,309,0,0
-518,715,0,0,0,0,0,0,0,0,0,-1,706,309,0,0
-511,715,0,0,0,0,0,0,0,0,0,-1,713,309,0,0
-504,715,0,0,0,0,0,0,0,0,0,-1,720,309,0,0
-497,715,0,0,0,0,0,0,0,0,0,-1,727,309,0,0
-490,715,0,0,0,0,0,0,0,0,0,-1,734,309,0,0
-483,715,0,0,0,0,0,0,0,0,0,-1,741,309,0,0
-476,715,0,0,0,0,0,0,0,0,0,-1,748,309,0,0
-469,715,0,0,0,0,0,0,0,0,0,-1,755,309,0,0
-462,715,0,0,0,0,0,0,0,0,0,-1,762,309,0,0
-455,715,0,0,0,0,0,0,0,0,0,-1,769,309,0,0
-448,715,0,0,0,0,0,0,0,0,0,-1,776,309,0,0
-441,715,0,0,0,0,0,0,0,0,0,-1,783,309,0,0
-434,715,0,0,0,0,0,0,0,0,0,-1,790,309,0,0
-427,715,0,0,0,0,0,0,0,0,0,-1,797,309,0,0
-420,715,0,0,0,0,0,0,0,0,0,-1,804,309,0,0
-413,715,0,0,0,0,0,0,0,0,0,-1,811,309,0,0
-406,715,0,0,0,0,0,0,0,0,0,-1,818,309,0,0
-399,715,0,0,0,0,0,0,0,0,0,-1,825,309,0,0
-392,715,0,0,0,0,0,0,0,0,0,-1,832,309,0,0
-385,715,0,0,0,0,0,0,0,0,0,-1,839,309,0,0
-378,715,0,0,0,0,0,0,0,0,0,-1,846,309,0,0
-371,715,0,0,0,0,0,0,0,0,0,-1,853,309,0,0
-364,715,0,0,0,0,0,0,0,0,0,-1,860,309,0,0
-357,715,0,0,0,0,0,0,0,0,0,-1,867,309,0,0
-350,715,0,0,0,0,0,0,0,0,0,-1,874,309,0,0
-343,715,0,0,0,0,0,0,0,0,0,-1,881,309,0,0
-336,715,0,0,0,0,0,0,0,0,0,-1,888,309,0,0
-329,715,0,0,0,0,0,0,0,0,0,-1,895,309,0,0
-322,715,0,0,0,0,0,0,0,0,0,-1,902,309,0,0
-315,715,0,0,0,0,0,0,0,0,0,-1,909,309,0,0
-308,715,0,0,0,0,0,0,0,0,0,-1,916,309,0,0
-301,715,0,0,0,0,0,0,0,0,0,-1,923,309,0,0
-294,715,0,0,0,0,0,0,0,0,0,-1,930,309,0,0
-287,715,0,0,0,0,0,0,0,0,0,-1,937,309,0,0
-280,715,0,0,0,0,0,0,0,0,0,-1,944,309,0,0
-273,715,0,0,0,0,0,0,0,0,0,-1,951,309,0,0
-266,715,0,0,0,0,0,0,0,0,0,-1,958,309,0,0
-259,715,0,0,0,0,0,0,0,0,0,-1,965,309,0,0
-252,715,0,0,0,0,0,0,0,0,0,-1,972,309,0,0
-245,715,0,0,0,0,0,0,0,0,0,-1,979,309,0,0
-238,715,0,0,0,0,0,0,0,0,0,-1,986,309,0,0
-231,715,0,0,0,0,0,0,0,0,0,-1,993,309,0,0
-224,715,0,0,0,0,0,0,0,0,0,-1,1000,309,0,0
-217,715,0,0,0,0,0,0,0,0,0,-1,1007,309,0,0
-210,715,0,0,0,0,0,0,0,0,0,-1,1014,309,0,0
-203,715,0,0,0,0,0,0,0,0,0,-1,1021,309,0,0
-196,715,0,0,0,0,0,0,0,0,0,-1,1028,309,0,0
-189,715,0,0,0,0,0,0,0,0,0,-1,1035,309,0,0
-182,715,0,0,0,0,0,0,0,0,0,-1,1042,309,0,0
-175,715,0,0,0,0,0,0,0,0,0,-1,1049,309,0,0
-168,715,0,0,0,0,0,0,0,0,0,-1,1056,309,0,0
-161,715,0,0,0,0,0,0,0,0,0,-1,1063,309,0,0
-154,715,0,0,0,0,0,0,0,0,0,-1,1070,309,0,0
-147,715,0,0,0,0,0,0,0,0,0,-1,1077,309,0,0
-140,715,0,0,0,0,0,0,0,0,0,-1,1084,309,0,0
-133,715,0,0,0,0,0,0,0,0,0,-1,1091,309,0,0
-126,715,0,0,0,0,0,0,0,0,0,-1,1098,309,0,0
-119,715,0,0,0,0,0,0,0,0,0,-1,1105,309,0,0
-112,715,0,0,0,0,0,0,0,0,0,-1,1112,309,0,0
-105,715,0,0,0,0,0,0,0,0,0,-1,1119,309,0,0
-98,715,0,0,0,0,0,0,0,0,0,-1,1126,309,0,0
-91,715,0,0,0,0,0,0,0,0,0,-1,1133,309,0,0
-84,715,0,0,0,0,0,0,0,0,0,-1,1140,309,0,0
-77,715,0,0,0,0,0,0,0,0,0,-1,1147,309,0,0
-70,715,0,0,0,0,0,0,0,0,0,-1,1154,309,0,0
-63,715,0,0,0,0,0,0,0,0,0,-1,1161,309,0,0
-56,715,0,0,0,0,0,0,0,0,0,-1,1168,309,0,0
-49,715,0,0,0,0,0,0,0,0,0,-1,1175,309,0,0
-42,715,0,0,0,0,0,0,0,0,0,-1,1182,309,0,0
-35,715,0,0,0,0,0,0,0,0,0,-1,1189,309,0,0
-28,715,0,0,0,0,0,0,0,0,0,-1,1196,309,0,0
-21,715,0,0,0,0,0,0,0,0,0,-1,1203,309,0,0
-14,715,0,0,0,0,0,0,0,0,0,-1,1210,309,0,0
-7,715,0,0,0,0,0,0,0,0,0,-1,1217,309,0,0
0,715,0,0,0,0,0,0,0,0,0,-1,1224,309,0,0
7,715,0,0,0,0,0,0,0,0,0,-1,1231,309,0,0
14,715,0,0,0,0,0,0,0,0,0,-1,1238,309,0,0
21,715,0,0,0,0,0,0,0,0,0,-1,1245,309,0,0
28,715,0,0,0,0,0,0,0,0,0,-1,1252,309,0,0
35,715,0,0,0,0,0,0,0,0,0,-1,1259,309,0,0
42,715,0,0,0,0,0,0,0,0,0,-1,1266,309,0,0
49,715,0,0,0,0,0,0,0,0,0,-1,1273,309,0,0
56,715,0,0,0,0,0,0,0,0,0,-1,1280,309,0,0
63,715,12.7371,-64.7405,0.0184049,0.379646,0.102627,0.406766,-0.0087149,1.31245,0.274128,0.046394,1287,309,12.7371,64.7405
70,715,11.5468,-66.2767,0,0,0,0,0,0,0,-1,1294,309,11.5467,66.2767
77,715,0,0,0,0,0,0,0,0,0,-1,1301,309,0,0
84,715,0,0,0,0,0,0,0,0,0,-1,1308,309,0,0
91,715,0,0,0,0,0,0,0,0,0,-1,1315,309,0,0
98,715,0,0,0,0,0,0,0,0,0,-1,1322,309,0,0
105,715,0,0,0,0,0,0,0,0,0,-1,1329,309,0,0
112,715,0,0,0,0,0,0,0,0,0,-1,1336,309,0,0
119,715,0,0,0,0,0,0,0,0,0,-1,1343,309,0,0
126,715,0,0,0,0,0,0,0,0,0,-1,1350,309,0,0
133,715,0,0,0,0,0,0,0,0,0,-1,1357,309,0,0
140,715,0,0,0,0,0,0,0,0,0,-1,1364,309,0,0
147,715,0,0,0,0,0,0,0,0,0,-1,1371,309,0,0
154,715,0,0,0,0,0,0,0,0,0,-1,1378,309,0,0
161,715,0,0,0,0,0,0,0,0,0,-1,1385,309,0,0
168,715,0,0,0,0,0,0,0,0,0,-1,1392,309,0,0
175,715,0,0,0,0,0,0,0,0,0,-1,1399,309,0,0
182,715,0,0,0,0,0,0,0,0,0,-1,1406,309,0,0
189,715,0,0,0,0,0,0,0,0,0,-1,1413,309,0,0
196,715,0,0,0,0,0,0,0,0,0,-1,1420,309,0,0
203,715,0,0,0,0,0,0,0,0,0,-1,1427,309,0,0
210,715,0,0,0,0,0,0,0,0,0,-1,1434,309,0,0
217,715,0,0,0,0,0,0,0,0,0,-1,1441,309,0,0
224,715,0,0,0,0,0,0,0,0,0,-1,1448,309,0,0
231,715,0,0,0,0,0,0,0,0,0,-1,1455,309,0,0
238,715,0,0,0,0,0,0,0,0,0,-1,1462,309,0,0
245,715,0,0,0,0,0,0,0,0,0,-1,1469,309,0,0
252,715,0,0,0,0,0,0,0,0,0,-1,1476,309,0,0
259,715,0,0,0,0,0,0,0,0,0,-1,1483,309,0,0
266,715,0,0,0,0,0,0,0,0,0,-1,1490,309,0,0
273,715,0,0,0,0,0,0,0,0,0,-1,1497,309,0,0
280,715,0,0,0,0,0,0,0,0,0,-1,1504,309,0,0
287,715,0,0,0,0,0,0,0,0,0,-1,1511,309,0,0
294,715,0,0,0,0,0,0,0,0,0,-1,1518,309,0,0
301,715,0,0,0,0,0,0,0,0,0,-1,1525,309,0,0
308,715,0,0,0,0,0,0,0,0,0,-1,1532,309,0,0
315,715,0,0,0,0,0,0,0,0,0,-1,1539,309,0,0
322,715,0,0,0,0,0,0,0,0,0,-1,1546,309,0,0
329,715,0,0,0,0,0,0,0,0,0,-1,1553,309,0,0
336,715,0,0,0,0,0,0,0,0,0,-1,1560,309,0,0
343,715,0,0,0,0,0,0,0,0,0,-1,1567,309,0,0
350,715,0,0,0,0,0,0,0,0,0,-1,1574,309,0,0
357,715,0,0,0,0,0,0,0,0,0,-1,1581,309,0,0
364,715,0,0,0,0,0,0,0,0,0,-1,1588,309,0,0
371,715,0,0,0,0,0,0,0,0,0,-1,1595,309,0,0
378,715,0,0,0,0,0,0,0,0,0,-1,1602,309,0,0
385,715,0,0,0,0,0,0,0,0,0,-1,1609,309,0,0
392,715,0,0,0,0,0,0,0,0,0,-1,1616,309,0,0
399,715,0,0,0,0,0,0,0,0,0,-1,1623,309,0,0
406,715,0,0,0,0,0,0,0,0,0,-1,1630,309,0,0
413,715,0,0,0,0,0,0,0,0,0,-1,1637,309,0,0
420,715,0,0,0,0,0,0,0,0,0,-1,1644,309,0,0
427,715,0,0,0,0,0,0,0,0,0,-1,1651,309,0,0
434,715,0,0,0,0,0,0,0,0,0,-1,1658,309,0,0
441,715,0,0,0,0,0,0,0,0,0,-1,1665,309,0,0
448,715,0,0,0,0,0,0,0,0,0,-1,1672,309,0,0
455,715,0,0,0,0,0,0,0,0,0,-1,1679,309,0,0
462,715,0,0,0,0,0,0,0,0,0,-1,1686,309,0,0
469,715,0,0,0,0,0,0,0,0,0,-1,1693,309,0,0
476,715,0,0,0,0,0,0,0,0,0,-1,1700,309,0,0
483,715,0,0,0,0,0,0,0,0,0,-1,1707,309,0,0
490,715,0,0,0,0,0,0,0,0,0,-1,1714,309,0,0
497,715,0,0,0,0,0,0,0,0,0,-1,1721,309,0,0
504,715,0,0,0,0,0,0,0,0,0,-1,1728,309,0,0
511,715,0,0,0,0,0,0,0,0,0,-1,1735,309,0,0
518,715,0,0,0,0,0,0,0,0,0,-1,1742,309,0,0
525,715,0,0,0,0,0,0,0,0,0,-1,1749,309,0,0
532,715,0,0,0,0,0,0,0,0,0,-1,1756,309,0,0
539,715,0,0,0,0,0,0,0,0,0,-1,1763,309,0,0
546,715,0,0,0,0,0,0,0,0,0,-1,1770,309,0,0
553,715,0,0,0,0,0,0,0,0,0,-1,1777,309,0,0
560,715,0,0,0,0,0,0,0,0,0,-1,1784,309,0,0
567,715,0,0,0,0,0,0,0,0,0,-1,1791,309,0,0
574,715,0,0,0,0,0,0,0,0,0,-1,1798,309,0,0
581,715,0,0,0,0,0,0,0,0,0,-1,1805,309,0,0
588,715,0,0,0,0,0,0,0,0,0,-1,1812,309,0,0
595,715,0,0,0,0,0,0,0,0,0,-1,1819,309,0,0
602,715,0,0,0,0,0,0,0,0,0,-1,1826,309,0,0
609,715,0,0,0,0,0,0,0,0,0,-1,1833,309,0,0
616,715,0,0,0,0,0,0,0,0,0,-1,1840,309,0,0
623,715,0,0,0,0,0,0,0,0,0,-1,1847,309,0,0
630,715,0,0,0,0,0,0,0,0,0,-1,1854,309,0,0
637,715,0,0,0,0,0,0,0,0,0,-1,1861,309,0,0
644,715,0,0,0,0,0,0,0,0,0,-1,1868,309,0,0
651,715,0,0,0,0,0,0,0,0,0,-1,1875,309,0,0
658,715,0,0,0,0,0,0,0,0,0,-1,1882,309,0,0
665,715,0,0,0,0,0,0,0,0,0,-1,1889,309,0,0
672,715,0,0,0,0,0,0,0,0,0,-1,1896,309,0,0
679,715,0,0,0,0,0,0,0,0,0,-1,1903,309,0,0
686,715,0,0,0,0,0,0,0,0,0,-1,1910,309,0,0
693,715,0,0,0,0,0,0,0,0,0,-1,1917,309,0,0
700,715,0,0,0,0,0,0,0,0,0,-1,1924,309,0,0
707,715,0,0,0,0,0,0,0,0,0,-1,1931,309,0,0
714,715,0,0,0,0,0,0,0,0,0,-1,1938,309,0,0
721,715,0,0,0,0,0,0,0,0,0,-1,1945,309,0,0
728,715,0,0,0,0,0,0,0,0,0,-1,1952,309,0,0
735,715,0,0,0,0,0,0,0,0,0,-1,1959,309,0,0
742,715,0,0,0,0,0,0,0,0,0,-1,1966,309,0,0
749,715,0,0,0,0,0,0,0,0,0,-1,1973,309,0,0
756,715,0,0,0,0,0,0,0,0,0,-1,1980,309,0,0
763,715,0,0,0,0,0,0,0,0,0,-1,1987,309,0,0
770,715,0,0,0,0,0,0,0,0,0,-1,1994,309,0,0
777,715,0,0,0,0,0,0,0,0,0,-1,2001,309,0,0
784,715,0,0,0,0,0,0,0,0,0,-1,2008,309,0,0
791,715,0,0,0,0,0,0,0,0,0,-1,2015,309,0,0
798,715,0,0,0,0,0,0,0,0,0,-1,2022,309,0,0
805,715,0,0,0,0,0,0,0,0,0,-1,2029,309,0,0
812,715,0,0,0,0,0,0,0,0,0,-1,2036,309,0,0
-700,708,0,0,0,0,0,0,0,0,0,-1,524,316,0,0
-693,708,0,0,0,0,0,0,0,0,0,-1,531,316,0,0
-686,708,0,0,0,0,0,0,0,0,0,-1,538,316,0,0
-679,708,0,0,0,0,0,0,0,0,0,-1,545,316,0,0
-672,708,0,0,0,0,0,0,0,0,0,-1,552,316,0,0
-665,708,0,0,0,0,0,0,0,0,0,-1,559,316,0,0
-658,708,0,0,0,0,0,0,0,0,0,-1,566,316,0,0
-651,708,0,0,0,0,0,0,0,0,0,-1,573,316,0,0
-644,708,0,0,0,0,0,0,0,0,0,-1,580,316,0,0
-637,708,0,0,0,0,0,0,0,0,0,-1,587,316,0,0
-630,708,0,0,0,0,0,0,0,0,0,-1,594,316,0,0
-623,708,0,0,0,0,0,0,0,0,0,-1,601,316,0,0
-616,708,0,0,0,0,0,0,0,0,0,-1,608,316,0,0
-609,708,0,0,0,0,0,0,0,0,0,-1,615,316,0,0
-602,708,0,0,0,0,0,0,0,0,0,-1,622,316,0,0
-595,708,0,0,0,0,0,0,0,0,0,-1,629,316,0,0
-588,708,0,0,0,0,0,0,0,0,0,-1,636,316,0,0
-581,708,0,0,0,0,0,0,0,0,0,-1,643,316,0,0
-574,708,0,0,0,0,0,0,0,0,0,-1,650,316,0,0
-567,708,0,0,0,0,0,0,0,0,0,-1,657,316,0,0
-560,708,0,0,0,0,0,0,0,0,0,-1,664,316,0,0
-553,708,0,0,0,0,0,0,0,0,0,-1,671,316,0,0
-546,708,0,0,0,0,0,0,0,0,0,-1,678,316,0,0
-539,708,0,0,0,0,0,0,0,0,0,-1,685,316,0,0
-532,708,0,0,0,0,0,0,0,0,0,-1,692,316,0,0
-525,708,0,0,0,0,0,0,0,0,0,-1,699,316,0,0
-518,708,0,0,0,0,0,0,0,0,0,-1,706,316,0,0
-511,708,0,0,0,0,0,0,0,0,0,-1,713,316,0,0
-504,708,0,0,0,0,0,0,0,0,0,-1,720,316,0,0
-497,708,0,0,0,0,0,0,0,0,0,-1,727,316,0,0
-490,708,0,0,0,0,0,0,0,0,0,-1,734,316,0,0
-483,708,0,0,0,0,0,0,0,0,0,-1,741,316,0,0
-476,708,0,0,0,0,0,0,0,0,0,-1,748,316,0,0
-469,708,0,0,0,0,0,0,0,0,0,-1,755,316,0,0
-462,708,0,0,0,0,0,0,0,0,0,-1,762,316,0,0
-455,708,0,0,0,0,0,0,0,0,0,-1,769,316,0,0
-448,708,0,0,0,0,0,0,0,0,0,-1,776,316,0,0
-441,708,0,0,0,0,0,0,0,0,0,-1,783,316,0,0
-434,708,0,0,0,0,0,0,0,0,0,-1,790,316,0,0
-427,708,0,0,0,0,0,0,0,0,0,-1,797,316,0,0
-420,708,0,0,0,0,0,0,0,0,0,-1,804,316,0,0
-413,708,0,0,0,0,0,0,0,0,0,-1,811,316,0,0
-406,708,0,0,0,0,0,0,0,0,0,-1,818,316,0,0
-399,708,0,0,0,0,0,0,0,0,0,-1,825,316,0,0
-392,708,0,0,0,0,0,0,0,0,0,-1,832,316,0,0
-385,708,0,0,0,0,0,0,0,0,0,-1,839,316,0,0
-378,708,0,0,0,0,0,0,0,0,0,-1,846,316,0,0
-371,708,0,0,0,0,0,0,0,0,0,-1,853,316,0,0
-364,708,0,0,0,0,0,0,0,0,0,-1,860,316,0,0
-357,708,0,0,0,0,0,0,0,0,0,-1,867,316,0,0
-350,708,0,0,0,0,0,0,0,0,0,-1,874,316,0,0
-343,708,0,0,0,0,0,0,0,0,0,-1,881,316,0,0
-336,708,0,0,0,0,0,0,0,0,0,-1,888,316,0,0
-329,708,0,0,0,0,0,0,0,0,0,-1,895,316,0,0
-322,708,0,0,0,0,0,0,0,0,0,-1,902,316,0,0
-315,708,0,0,0,0,0,0,0,0,0,-1,909,316,0,0
-308,708,0,0,0,0,0,0,0,0,0,-1,916,316,0,0
-301,708,0,0,0,0,0,0,0,0,0,-1,923,316,0,0
-294,708,0,0,0,0,0,0,0,0,0,-1,930,316,0,0
-287,708,0,0,0,0,0,0,0,0,0,-1,937,316,0,0
-280,708,0,0,0,0,0,0,0,0,0,-1,944,316,0,0
-273,708,0,0,0,0,0,0,0,0,0,-1,951,316,0,0
-266,708,0,0,0,0,0,0,0,0,0,-1,958,316,0,0
-259,708,0,0,0,0,0,0,0,0,0,-1,965,316,0,0
-252,708,0,0,0,0,0,0,0,0,0,-1,972,316,0,0
-245,708,0,0,0,0,0,0,0,0,0,-1,979,316,0,0
-238,708,0,0,0,0,0,0,0,0,0,-1,986,316,0,0
-231,708,0,0,0,0,0,0,0,0,0,-1,993,316,0,0
-224,708,0,0,0,0,0,0,0,0,0,-1,1000,316,0,0
-217,708,0,0,0,0,0,0,0,0,0,-1,1007,316,0,0
-210,708,0,0,0,0,0,0,0,0,0,-1,1014,316,0,0
-203,708,0,0,0,0,0,0,0,0,0,-1,1021,316,0,0
-196,708,0,0,0,0,0,0,0,0,0,-1,1028,316,0,0
-189,708,0,0,0,0,0,0,0,0,0,-1,1035,316,0,0
-182,708,0,0,0,0,0,0,0,0,0,-1,1042,316,0,0
-175,708,0,0,0,0,0,0,0,0,0,-1,1049,316,0,0
-168,708,0,0,0,0,0,0,0,0,0,-1,1056,316,0,0
-161,708,0,0,0,0,0,0,0,0,0,-1,1063,316,0,0
-154,708,0,0,0,0,0,0,0,0,0,-1,1070,316,0,0
-147,708,0,0,0,0,0,0,0,0,0,-1,1077,316,0,0
-140,708,0,0,0,0,0,0,0,0,0,-1,1084,316,0,0
-133,708,0,0,0,0,0,0,0,0,0,-1,1091,316,0,0
-126,708,0,0,0,0,0,0,0,0,0,-1,1098,316,0,0
-119,708,0,0,0,0,0,0,0,0,0,-1,1105,316,0,0
-112,708,0,0,0,0,0,0,0,0,0,-1,1112,316,0,0
-105,708,0,0,0,0,0,0,0,0,0,-1,1119,316,0,0
-98,708,0,0,0,0,0,0,0,0,0,-1,1126,316,0,0
-91,708,0,0,0,0,0,0,0,0,0,-1,1133,316,0,0
-84,708,0,0,0,0,0,0,0,0,0,-1,1140,316,0,0
-77,708,0,0,0,0,0,0,0,0,0,-1,1147,316,0,0
-70,708,0,0,0,0,0,0,0,0,0,-1,1154,316,0,0
-63,708,0,0,0,0,0,0,0,0,0,-1,1161,316,0,0
-56,708,0,0,0,0,0,0,0,0,0,-1,1168,316,0,0
-49,708,0,0,0,0,0,0,0,0,0,-1,1175,316,0,0
-42,708,0,0,0,0,0,0,0,0,0,-1,1182,316,0,0
-35,708,-2.71204,-6.31558,0,0,0,0,0,0,0,-1,1189,316,-2.712,6.3156
-28,708,-2.92371,-5.53253,0,0,0,0,0,0,0,-1,1196,316,-2.92375,5.53254
-21,708,-0.417969,-24.5911,0,0,0,0,0,0,0,-1,1203,316,-0.418022,24.5911
-14,708,13.4393,-61.4606,0,0,0,0,0,0,0,-1,1210,316,13.4393,61.4606
-7,708,13.4617,-61.8854,0.0402253,0.280813,0.00520374,0.280925,0.0401128,1.54918,0.175448,0.0491275,1217,316,13.4616,61.8854
0,708,13.5642,-62.3403,0.0537017,0.318975,0.0335052,0.323141,0.0495353,1.44708,0.200961,0.0489543,1224,316,13.5642,62.3403
7,708,13.5286,-63.2392,0.0622527,0.337585,0.0578087,0.34923,0.0506077,1.37202,0.217919,0.0472573,1231,316,13.5285,63.2392
14,708,13.3333,-64.0471,0,0,0,0,0,0,0,-1,1238,316,13.3333,64.0472
21,708,15.8759,-66.3831,0,0,0,0,0,0,0,-1,1245,316,15.8759,66.3831
28,708,15.9131,-67.5747,0,0,0,0,0,0,0,-1,1252,316,15.9131,67.5747
35,708,15.9718,-68.7213,0,0,0,0,0,0,0,-1,1259,316,15.9718,68.7212
42,708,14.3473,-70.2429,0.0501685,0.367263,0.11154,0.402568,0.014864,1.26426,0.263564,0.0423164,1266,316,14.3472,70.2429
49,708,14.6516,-62.2628,0.0383325,0.35419,0.104449,0.385605,0.00691721,1.27863,0.254796,0.0456322,1273,316,14.6516,62.2628
56,708,13.2637,-63.753,0.0210447,0.332508,0.0871433,0.355231,-0.00167902,1.31571,0.237383,0.0473011,1280,316,13.2636,63.753
63,708,11.9521,-65.4866,0.00220809,0.306487,0.0646622,0.319658,-0.0109631,1.36985,0.216852,0.0467585,1287,316,11.9522,65.4866
70,708,10.5277,-67.4827,0,0,0,0,0,0,0,-1,1294,316,10.5277,67.4827
77,708,9.30273,-68.8757,0,0,0,0,0,0,0,-1,1301,316,9.3027,68.8757
84,708,8.14453,-70.4941,0,0,0,0,0,0,0,-1,1308,316,8.14451,70.4941
91,708,7.01123,-71.545,0,0,0,0,0,0,0,-1,1315,316,7.01126,71.5451
98,708,6.32605,-72.9114,0,0,0,0,0,0,0,-1,1322,316,6.32608,72.9114
105,708,5.84802,-73.8115,-0.108265,0.145308,-0.12434,0.196103,-0.15906,-1.18297,0.205425,0.0455559,1329,316,5.84803,73.8115
112,708,4.92822,-74.6235,-0.108139,0.163789,-0.129029,0.215267,-0.159617,-1.19118,0.217233,0.0421302,1336,316,4.92823,74.6235
119,708,3.88135,-75.5059,-0.106064,0.18761,-0.127664,0.235348,-0.153801,-1.21296,0.226313,0.0418497,1343,316,3.88138,75.5059
126,708,2.7738,-76.3813,0,0,0,0,0,0,0,-1,1350,316,2.77383,76.3813
133,708,2.40759,-79.4926,0,0,0,0,0,0,0,-1,1357,316,2.40762,79.4926
140,708,1.76367,-80.192,0,0,0,0,0,0,0,-1,1364,316,1.76363,80.192
147,708,10.6436,-66.2709,0,0,0,0,0,0,0,-1,1371,316,10.6436,66.2709
154,708,0,0,0,0,0,0,0,0,0,-1,1378,316,0,0
161,708,0,0,0,0,0,0,0,0,0,-1,1385,316,0,0
168,708,0,0,0,0,0,0,0,0,0,-1,1392,316,0,0
175,708,0,0,0,0,0,0,0,0,0,-1,1399,316,0,0
182,708,0,0,0,0,0,0,0,0,0,-1,1406,316,0,0
189,708,0,0,0,0,0,0,0,0,0,-1,1413,316,0,0
196,708,0,0,0,0,0,0,0,0,0,-1,1420,316,0,0
203,708,0,0,0,0,0,0,0,0,0,-1,1427,316,0,0
210,708,0,0,0,0,0,0,0,0,0,-1,1434,316,0,0
217,708,0,0,0,0,0,0,0,0,0,-1,1441,316,0,0
224,708,0,0,0,0,0,0,0,0,0,-1,1448,316,0,0
231,708,0,0,0,0,0,0,0,0,0,-1,1455,316,0,0
238,708,0,0,0,0,0,0,0,0,0,-1,1462,316,0,0
245,708,0,0,0,0,0,0,0,0,0,-1,1469,316,0,0
252,708,0,0,0,0,0,0,0,0,0,-1,1476,316,0,0
259,708,0,0,0,0,0,0,0,0,0,-1,1483,316,0,0
266,708,0,0,0,0,0,0,0,0,0,-1,1490,316,0,0
273,708,0,0,0,0,0,0,0,0,0,-1,1497,316,0,0
280,708,0,0,0,0,0,0,0,0,0,-1,1504,316,0,0
287,708,0,0,0,0,0,0,0,0,0,-1,1511,316,0,0
294,708,0,0,0,0,0,0,0,0,0,-1,1518,316,0,0
301,708,0,0,0,0,0,0,0,0,0,-1,1525,316,0,0
308,708,0,0,0,0,0,0,0,0,0,-1,1532,316,0,0
315,708,0,0,0,0,0,0,0,0,0,-1,1539,316,0,0
322,708,0,0,0,0,0,0,0,0,0,-1,1546,316,0,0
329,708,0,0,0,0,0,0,0,0,0,-1,1553,316,0,0
336,708,0,0,0,0,0,0,0,0,0,-1,1560,316,0,0
343,708,0,0,0,0,0,0,0,0,0,-1,1567,316,0,0
350,708,0,0,0,0,0,0,0,0,0,-1,1574,316,0,0
357,708,0,0,0,0,0,0,0,0,0,-1,1581,316,0,0
364,708,0,0,0,0,0,0,0,0,0,-1,1588,316,0,0
371,708,0,0,0,0,0,0,0,0,0,-1,1595,316,0,0
378,708,0,0,0,0,0,0,0,0,0,-1,1602,316,0,0
385,708,0,0,0,0,0,0,0,0,0,-1,1609,316,0,0
392,708,0,0,0,0,0,0,0,0,0,-1,1616,316,0,0
399,708,0,0,0,0,0,0,0,0,0,-1,1623,316,0,0
406,708,0,0,0,0,0,0,0,0,0,-1,1630,316,0,0
413,708,0,0,0,0,0,0,0,0,0,-1,1637,316,0,0
420,708,0,0,0,0,0,0,0,0,0,-1,1644,316,0,0
427,708,0,0,0,0,0,0,0,0,0,-1,1651,316,0,0
434,708,0,0,0,0,0,0,0,0,0,-1,1658,316,0,0
441,708,0,0,0,0,0,0,0,0,0,-1,1665,316,0,0
448,708,0,0,0,0,0,0,0,0,0,-1,1672,316,0,0
455,708,0,0,0,0,0,0,0,0,0,-1,1679,316,0,0
462,708,0,0,0,0,0,0,0,0,0,-1,1686,316,0,0
469,708,0,0,0,0,0,0,0,0,0,-1,1693,316,0,0
476,708,0,0,0,0,0,0,0,0,0,-1,1700,316,0,0
483,708,0,0,0,0,0,0,0,0,0,-1,1707,316,0,0
490,708,0,0,0,0,0,0,0,0,0,-1,1714,316,0,0
497,708,0,0,0,0,0,0,0,0,0,-1,1721,316,0,0
504,708,0,0,0,0,0,0,0,0,0,-1,1728,316,0,0
511,708,0,0,0,0,0,0,0,0,0,-1,1735,316,0,0
518,708,0,0,0,0,0,0,0,0,0,-1,1742,316,0,0
525,708,0,0,0,0,0,0,0,0,0,-1,1749,316,0,0
532,708,0,0,0,0,0,0,0,0,0,-1,1756,316,0,0
539,708,0,0,0,0,0,0,0,0,0,-1,1763,316,0,0
546,708,0,0,0,0,0,0,0,0,0,-1,1770,316,0,0
553,708,0,0,0,0,0,0,0,0,0,-1,1777,316,0,0
560,708,0,0,0,0,0,0,0,0,0,-1,1784,316,0,0
567,708,0,0,0,0,0,0,0,0,0,-1,1791,316,0,0
574,708,0,0,0,0,0,0,0,0,0,-1,1798,316,0,0
581,708,0,0,0,0,0,0,0,0,0,-1,1805,316,0,0
588,708,0,0,0,0,0,0,0,0,0,-1,1812,316,0,0
595,708,0,0,0,0,0,0,0,0,0,-1,1819,316,0,0
602,708,0,0,0,0,0,0,0,0,0,-1,1826,316,0,0
609,708,0,0,0,0,0,0,0,0,0,-1,1833,316,0,0
616,708,0,0,0,0,0,0,0,0,0,-1,1840,316,0,0
623,708,0,0,0,0,0,0,0,0,0,-1,1847,316,0,0
630,708,0,0,0,0,0,0,0,0,0,-1,1854,316,0,0
637,708,0,0,0,0,0,0,0,0,0,-1,1861,316,0,0
644,708,0,0,0,0,0,0,0,0,0,-1,1868,316,0,0
651,708,0,0,0,0,0,0,0,0,0,-1,1875,316,0,0
658,708,0,0,0,0,0,0,0,0,0,-1,1882,316,0,0
665,708,0,0,0,0,0,0,0,0,0,-1,1889,316,0,0
672,708,0,0,0,0,0,0,0,0,0,-1,1896,316,0,0
679,708,0,0,0,0,0,0,0,0,0,-1,1903,316,0,0
686,708,0,0,0,0,0,0,0,0,0,-1,1910,316,0,0
693,708,0,0,0,0,0,0,0,0,0,-1,1917,316,0,0
700,708,0,0,0,0,0,0,0,0,0,-1,1924,316,0,0
707,708,0,0,0,0,0,0,0,0,0,-1,1931,316,0,0
714,708,0,0,0,0,0,0,0,0,0,-1,1938,316,0,0
721,708,0,0,0,0,0,0,0,0,0,-1,1945,316,0,0
728,708,0,0,0,0,0,0,0,0,0,-1,1952,316,0,0
735,708,0,0,0,0,0,0,0,0,0,-1,1959,316,0,0
742,708,0,0,0,0,0,0,0,0,0,-1,1966,316,0,0
749,708,0,0,0,0,0,0,0,0,0,-1,1973,316,0,0
756,708,0,0,0,0,0,0,0,0,0,-1,1980,316,0,0
763,708,0,0,0,0,0,0,0,0,0,-1,1987,316,0,0
770,708,0,0,0,0,0,0,0,0,0,-1,1994,316,0,0
777,708,0,0,0,0,0,0,0,0,0,-1,2001,316,0,0
784,708,0,0,0,0,0,0,0,0,0,-1,2008,316,0,0
791,708,0,0,0,0,0,0,0,0,0,-1,2015,316,0,0
798,708,0,0,0,0,0,0,0,0,0,-1,2022,316,0,0
805,708,0,0,0,0,0,0,0,0,0,-1,2029,316,0,0
812,708,0,0,0,0,0,0,0,0,0,-1,2036,316,0,0
-700,701,0,0,0,0,0,0,0,0,0,-1,524,323,0,0
-693,701,0,0,0,0,0,0,0,0,0,-1,531,323,0,0
-686,701,0,0,0,0,0,0,0,0,0,-1,538,323,0,0
-679,701,0,0,0,0,0,0,0,0,0,-1,545,323,0,0
-672,701,0,0,0,0,0,0,0,0,0,-1,552,323,0,0
-665,701,0,0,0,0,0,0,0,0,0,-1,559,323,0,0
-658,701,0,0,0,0,0,0,0,0,0,-1,566,323,0,0
-651,701,0,0,0,0,0,0,0,0,0,-1,573,323,0,0
-644,701,0,0,0,0,0,0,0,0,0,-1,580,323,0,0
-637,701,0,0,0,0,0,0,0,0,0,-1,587,323,0,0
-630,701,0,0,0,0,0,0,0,0,0,-1,594,323,0,0
-623,701,0,0,0,0,0,0,0,0,0,-1,601,323,0,0
-616,701,0,0,0,0,0,0,0,0,0,-1,608,323,0,0
-609,701,0,0,0,0,0,0,0,0,0,-1,615,323,0,0
-602,701,0,0,0,0,0,0,0,0,0,-1,622,323,0,0
-595,701,0,0,0,0,0,0,0,0,0,-1,629,323,0,0
-588,701,0,0,0,0,0,0,0,0,0,-1,636,323,0,0
-581,701,0,0,0,0,0,0,0,0,0,-1,643,323,0,0
-574,701,0,0,0,0,0,0,0,0,0,-1,650,323,0,0
-567,701,0,0,0,0,0,0,0,0,0,-1,657,323,0,0
-560,701,0,0,0,0,0,0,0,0,0,-1,664,323,0,0
-553,701,0,0,0,0,0,0,0,0,0,-1,671,323,0,0
-546,701,0,0,0,0,0,0,0,0,0,-1,678,323,0,0
-539,701,0,0,0,0,0,0,0,0,0,-1,685,323,0,0
-532,701,0,0,0,0,0,0,0,0,0,-1,692,323,0,0
-525,701,0,0,0,0,0,0,0,0,0,-1,699,323,0,0
-518,701,0,0,0,0,0,0,0,0,0,-1,706,323,0,0
-511,701,0,0,0,0,0,0,0,0,0,-1,713,323,0,0
-504,701,0,0,0,0,0,0,0,0,0,-1,720,323,0,0
-497,701,0,0,0,0,0,0,0,0,0,-1,727,323,0,0
-490,701,0,0,0,0,0,0,0,0,0,-1,734,323,0,0
-483,701,0,0,0,0,0,0,0,0,0,-1,741,323,0,0
-476,701,0,0,0,0,0,0,0,0,0,-1,748,323,0,0
-469,701,0,0,0,0,0,0,0,0,0,-1,755,323,0,0
-462,701,0,0,0,0,0,0,0,0,0,-1,762,323,0,0
-455,701,0,0,0,0,0,0,0,0,0,-1,769,323,0,0
-448,701,0,0,0,0,0,0,0,0,0,-1,776,323,0,0
-441,701,0,0,0,0,0,0,0,0,0,-1,783,323,0,0
-434,701,0,0,0,0,0,0,0,0,0,-1,790,323,0,0
-427,701,0,0,0,0,0,0,0,0,0,-1,797,323,0,0
-420,701,0,0,0,0,0,0,0,0,0,-1,804,323,0,0
-413,701,0,0,0,0,0,0,0,0,0,-1,811,323,0,0
-406,701,0,0,0,0,0,0,0,0,0,-1,818,323,0,0
-399,701,0,0,0,0,0,0,0,0,0,-1,825,323,0,0
-392,701,0,0,0,0,0,0,0,0,0,-1,832,323,0,0
-385,701,0,0,0,0,0,0,0,0,0,-1,839,323,0,0
-378,701,0,0,0,0,0,0,0,0,0,-1,846,323,0,0
-371,701,0,0,0,0,0,0,0,0,0,-1,853,323,0,0
-364,701,0,0,0,0,0,0,0,0,0,-1,860,323,0,0
-357,701,0,0,0,0,0,0,0,0,0,-1,867,323,0,0
-350,701,0,0,0,0,0,0,0,0,0,-1,874,323,0,0
-343,701,0,0,0,0,0,0,0,0,0,-1,881,323,0,0
-336,701,0,0,0,0,0,0,0,0,0,-1,888,323,0,0
-329,701,0,0,0,0,0,0,0,0,0,-1,895,323,0,0
-322,701,0,0,0,0,0,0,0,0,0,-1,902,323,0,0
-315,701,0,0,0,0,0,0,0,0,0,-1,909,323,0,0
-308,701,0,0,0,0,0,0,0,0,0,-1,916,323,0,0
-301,701,0,0,0,0,0,0,0,0,0,-1,923,323,0,0
-294,701,0,0,0,0,0,0,0,0,0,-1,930,323,0,0
-287,701,0,0,0,0,0,0,0,0,0,-1,937,323,0,0
-280,701,0,0,0,0,0,0,0,0,0,-1,944,323,0,0
-273,701,0,0,0,0,0,0,0,0,0,-1,951,323,0,0
-266,701,0,0,0,0,0,0,0,0,0,-1,958,323,0,0
-259,701,0,0,0,0,0,0,0,0,0,-1,965,323,0,0
-252,701,0,0,0,0,0,0,0,0,0,-1,972,323,0,0
-245,701,0,0,0,0,0,0,0,0,0,-1,979,323,0,0
-238,701,0,0,0,0,0,0,0,0,0,-1,986,323,0,0
-231,701,0,0,0,0,0,0,0,0,0,-1,993,323,0,0
-224,701,0,0,0,0,0,0,0,0,0,-1,1000,323,0,0
-217,701,0,0,0,0,0,0,0,0,0,-1,1007,323,0,0
-210,701,0,0,0,0,0,0,0,0,0,-1,1014,323,0,0
-203,701,0,0,0,0,0,0,0,0,0,-1,1021,323,0,0
-196,701,0,0,0,0,0,0,0,0,0,-1,1028,323,0,0
-189,701,0,0,0,0,0,0,0,0,0,-1,1035,323,0,0
-182,701,0,0,0,0,0,0,0,0,0,-1,1042,323,0,0
-175,701,0,0,0,0,0,0,0,0,0,-1,1049,323,0,0
-168,701,0,0,0,0,0,0,0,0,0,-1,1056,323,0,0
-161,701,0,0,0,0,0,0,0,0,0,-1,1063,323,0,0
-154,701,0,0,0,0,0,0,0,0,0,-1,1070,323,0,0
-147,701,0,0,0,0,0,0,0,0,0,-1,1077,323,0,0
-140,701,0,0,0,0,0,0,0,0,0,-1,1084,323,0,0
-133,701,0,0,0,0,0,0,0,0,0,-1,1091,323,0,0
-126,701,0,0,0,0,0,0,0,0,0,-1,1098,323,0,0
-119,701,0,0,0,0,0,0,0,0,0,-1,1105,323,0,0
-112,701,0,0,0,0,0,0,0,0,0,-1,1112,323,0,0
-105,701,0,0,0,0,0,0,0,0,0,-1,1119,323,0,0
-98,701,0,0,0,0,0,0,0,0,0,-1,1126,323,0,0
-91,701,0,0,0,0,0,0,0,0,0,-1,1133,323,0,0
-84,701,0,0,0,0,0,0,0,0,0,-1,1140,323,0,0
-77,701,0,0,0,0,0,0,0,0,0,-1,1147,323,0,0
-70,701,-12.7566,-30.413,0,0,0,0,0,0,0,-1,1154,323,-12.7566,30.413
-63,701,-18.3169,-21.2322,0,0,0,0,0,0,0,-1,1161,323,-18.3169,21.2322
-56,701,-0.420166,-0.101776,0,0,0,0,0,0,0,-1,1168,323,-0.420119,0.101777
-49,701,-1.09021,-0.155762,0,0,0,0,0,0,0,-1,1175,323,-1.09024,0.155768
-42,701,-0.210327,-0.299133,0,0,0,0,0,0,0,-1,1182,323,-0.210379,0.29914
-35,701,-2.9635,-7.98676,0,0,0,0,0,0,0,-1,1189,323,-2.9635,7.98676
-28,701,-6.64417,-5.4917,0,0,0,0,0,0,0,-1,1196,323,-6.64411,5.4917
-21,701,13.5945,-63.1906,0,0,0,0,0,0,0,-1,1203,323,13.5944,63.1906
-14,701,13.4686,-63.3825,0,0,0,0,0,0,0,-1,1210,323,13.4686,63.3825
-7,701,13.1836,-63.5676,0.0377837,0.244421,0.00555699,0.24457,0.0376344,1.54393,0.152062,0.0466169,1217,323,13.1836,63.5676
0,701,12.8326,-63.9753,0.0452022,0.27107,0.0252615,0.273861,0.0424114,1.46077,0.170207,0.0489235,1224,323,12.8327,63.9753
7,701,12.6357,-64.7942,0.0496998,0.283992,0.0429,0.2916,0.0420917,1.39528,0.181999,0.0454536,1231,323,12.6357,64.7942
14,701,12.756,-65.8326,0,0,0,0,0,0,0,-1,1238,323,12.756,65.8326
21,701,14.4951,-67.3722,0,0,0,0,0,0,0,-1,1245,323,14.4951,67.3722
28,701,14.5404,-68.4179,0,0,0,0,0,0,0,-1,1252,323,14.5404,68.4179
35,701,14.5857,-69.4636,0,0,0,0,0,0,0,-1,1259,323,14.5857,69.4636
42,701,13.7876,-70.5706,0.033792,0.303161,0.0838279,0.327117,0.00983535,1.29243,0.214875,0.0422935,1266,323,13.7876,70.5706
49,701,13.5645,-71.3021,0.0231866,0.290491,0.076817,0.310994,0.00268383,1.30997,0.206441,0.0438081,1273,323,13.5645,71.3021
56,701,12.6425,-64.3908,0.00857057,0.271468,0.0608739,0.284879,-0.00484064,1.35395,0.191553,0.0453485,1280,323,12.6425,64.3909
63,701,11.5549,-66.1694,-0.00687495,0.249139,0.0410601,0.255563,-0.0132991,1.4156,0.174977,0.0466366,1287,323,11.555,66.1694
70,701,10.5353,-67.641,-0.024013,0.225807,0.0153015,0.226741,-0.0249467,1.50985,0.160125,0.0467961,1294,323,10.5352,67.641
77,701,9.32263,-69.0122,0,0,0,0,0,0,0,-1,1301,323,9.32257,69.0122
84,701,8.12256,-70.4608,-0.0561364,0.1753,-0.040256,0.182102,-0.0629386,-1.4034,0.146945,0.0438562,1308,323,8.1226,70.4608
91,701,7.12097,-71.964,-0.0690346,0.155545,-0.0653099,0.173156,-0.0866462,-1.3074,0.152744,0.0451731,1315,323,7.12098,71.964
98,701,6.39404,-73.3662,-0.0839321,0.144815,-0.0904621,0.176265,-0.115383,-1.2362,0.169602,0.0489501,1322,323,6.39402,73.3662
105,701,5.48071,-74.5077,-0.0912474,0.122669,-0.110292,0.169348,-0.137927,-1.17042,0.177714,0.0474232,1329,323,5.48075,74.5077
112,701,4.49988,-75.5848,-0.0916407,0.135507,-0.114111,0.182931,-0.139065,-1.17692,0.186479,0.0418609,1336,323,4.49988,75.5848
119,701,4.01233,-78.1686,-0.0902738,0.151295,-0.113254,0.196086,-0.135065,-1.19418,0.192269,0.0424925,1343,323,4.01238,78.1686
126,701,3.3717,-78.8088,0,0,0,0,0,0,0,-1,1350,323,3.37171,78.8088
133,701,2.74841,-79.4852,0,0,0,0,0,0,0,-1,1357,323,2.7484,79.4852
140,701,2.0874,-80.1454,0,0,0,0,0,0,0,-1,1364,323,2.08735,80.1454
147,701,6.93433,-64.6678,0,0,0,0,0,0,0,-1,1371,323,6.93429,64.6678
154,701,9.1189,-64.9315,0,0,0,0,0,0,0,-1,1378,323,9.11892,64.9314
161,701,-4.83057,-59.3711,0,0,0,0,0,0,0,-1,1385,323,-4.83061,59.3711
168,701,30.7272,1.76184,0,0,0,0,0,0,0,-1,1392,323,30.7272,-1.76184
175,701,31.5035,2.25711,0,0,0,0,0,0,0,-1,1399,323,31.5036,-2.25712
182,701,8.80652,5.42807,0,0,0,0,0,0,0,-1,1406,323,8.8065,-5.42808
189,701,8.58081,4.24493,0,0,0,0,0,0,0,-1,1413,323,8.58082,-4.24494
196,701,0,0,0,0,0,0,0,0,0,-1,1420,323,0,0
203,701,0,0,0,0,0,0,0,0,0,-1,1427,323,0,0
210,701,0,0,0,0,0,0,0,0,0,-1,1434,323,0,0
217,701,0,0,0,0,0,0,0,0,0,-1,1441,323,0,0
224,701,0,0,0,0,0,0,0,0,0,-1,1448,323,0,0
231,701,0,0,0,0,0,0,0,0,0,-1,1455,323,0,0
238,701,0,0,0,0,0,0,0,0,0,-1,1462,323,0,0
245,701,0,0,0,0,0,0,0,0,0,-1,1469,323,0,0
252,701,0,0,0,0,0,0,0,0,0,-1,1476,323,0,0
259,701,0,0,0,0,0,0,0,0,0,-1,1483,323,0,0
266,701,0,0,0,0,0,0,0,0,0,-1,1490,323,0,0
273,701,0,0,0,0,0,0,0,0,0,-1,1497,323,0,0
280,701,0,0,0,0,0,0,0,0,0,-1,1504,323,0,0
287,701,0,0,0,0,0,0,0,0,0,-1,1511,323,0,0
294,701,0,0,0,0,0,0,0,0,0,-1,1518,323,0,0
301,701,0,0,0,0,0,0,0,0,0,-1,1525,323,0,0
308,701,0,0,0,0,0,0,0,0,0,-1,1532,323,0,0
315,701,0,0,0,0,0,0,0,0,0,-1,1539,323,0,0
322,701,0,0,0,0,0,0,0,0,0,-1,1546,323,0,0
329,701,0,0,0,0,0,0,0,0,0,-1,1553,323,0,0
336,701,0,0,0,0,0,0,0,0,0,-1,1560,323,0,0
343,701,0,0,0,0,0,0,0,0,0,-1,1567,323,0,0
350,701,0,0,0,0,0,0,0,0,0,-1,1574,323,0,0
357,701,0,0,0,0,0,0,0,0,0,-1,1581,323,0,0
364,701,0,0,0,0,0,0,0,0,0,-1,1588,323,0,0
371,701,0,0,0,0,0,0,0,0,0,-1,1595,323,0,0
378,701,0,0,0,0,0,0,0,0,0,-1,1602,323,0,0
385,701,0,0,0,0,0,0,0,0,0,-1,1609,323,0,0
392,701,0,0,0,0,0,0,0,0,0,-1,1616,323,0,0
399,701,0,0,0,0,0,0,0,0,0,-1,1623,323,0,0
406,701,0,0,0,0,0,0,0,0,0,-1,1630,323,0,0
413,701,0,0,0,0,0,0,0,0,0,-1,1637,323,0,0
420,701,0,0,0,0,0,0,0,0,0,-1,1644,323,0,0
427,701,0,0,0,0,0,0,0,0,0,-1,1651,323,0,0
434,701,0,0,0,0,0,0,0,0,0,-1,1658,323,0,0
441,701,0,0,0,0,0,0,0,0,0,-1,1665,323,0,0
448,701,0,0,0,0,0,0,0,0,0,-1,1672,323,0,0
455,701,0,0,0,0,0,0,0,0,0,-1,1679,323,0,0
462,701,0,0,0,0,0,0,0,0,0,-1,1686,323,0,0
469,701,0,0,0,0,0,0,0,0,0,-1,1693,323,0,0
476,701,0,0,0,0,0,0,0,0,0,-1,1700,323,0,0
483,701,0,0,0,0,0,0,0,0,0,-1,1707,323,0,0
490,701,0,0,0,0,0,0,0,0,0,-1,1714,323,0,0
497,701,0,0,0,0,0,0,0,0,0,-1,1721,323,0,0
504,701,0,0,0,0,0,0,0,0,0,-1,1728,323,0,0
511,701,0,0,0,0,0,0,0,0,0,-1,1735,323,0,0
518,701,0,0,0,0,0,0,0,0,0,-1,1742,323,0,0
525,701,0,0,0,0,0,0,0,0,0,-1,1749,323,0,0
532,701,0,0,0,0,0,0,0,0,0,-1,1756,323,0,0
539,701,0,0,0,0,0,0,0,0,0,-1,1763,323,0,0
546,701,0,0,0,0,0,0,0,0,0,-1,1770,323,0,0
553,701,0,0,0,0,0,0,0,0,0,-1,1777,323,0,0
560,701,0,0,0,0,0,0,0,0,0,-1,1784,323,0,0
567,701,0,0,0,0,0,0,0,0,0,-1,1791,323,0,0
574,701,0,0,0,0,0,0,0,0,0,-1,1798,323,0,0
581,701,0,0,0,0,0,0,0,0,0,-1,1805,323,0,0
588,701,0,0,0,0,0,0,0,0,0,-1,1812,323,0,0
595,701,0,0,0,0,0,0,0,0,0,-1,1819,323,0,0
602,701,0,0,0,0,0,0,0,0,0,-1,1826,323,0,0
609,701,0,0,0,0,0,0,0,0,0,-1,1833,323,0,0
616,701,0,0,0,0,0,0,0,0,0,-1,1840,323,0,0
623,701,0,0,0,0,0,0,0,0,0,-1,1847,323,0,0
630,701,0,0,0,0,0,0,0,0,0,-1,1854,323,0,0
637,701,0,0,0,0,0,0,0,0,0,-1,1861,323,0,0
644,701,0,0,0,0,0,0,0,0,0,-1,1868,323,0,0
651,701,0,0,0,0,0,0,0,0,0,-1,1875,323,0,0
658,701,0,0,0,0,0,0,0,0,0,-1,1882,323,0,0
665,701,0,0,0,0,0,0,0,0,0,-1,1889,323,0,0
672,701,0,0,0,0,0,0,0,0,0,-1,1896,323,0,0
679,701,0,0,0,0,0,0,0,0,0,-1,1903,323,0,0
686,701,0,0,0,0,0,0,0,0,0,-1,1910,323,0,0
693,701,0,0,0,0,0,0,0,0,0,-1,1917,323,0,0
700,701,0,0,0,0,0,0,0,0,0,-1,1924,323,0,0
707,701,0,0,0,0,0,0,0,0,0,-1,1931,323,0,0
714,701,0,0,0,0,0,0,0,0,0,-1,1938,323,0,0
721,701,0,0,0,0,0,0,0,0,0,-1,1945,323,0,0
728,701,0,0,0,0,0,0,0,0,0,-1,1952,323,0,0
735,701,0,0,0,0,0,0,0,0,0,-1,1959,323,0,0
742,701,0,0,0,0,0,0,0,0,0,-1,1966,323,0,0
749,701,0,0,0,0,0,0,0,0,0,-1,1973,323,0,0
756,701,0,0,0,0,0,0,0,0,0,-1,1980,323,0,0
763,701,0,0,0,0,0,0,0,0,0,-1,1987,323,0,0
770,701,0,0,0,0,0,0,0,0,0,-1,1994,323,0,0
777,701,0,0,0,0,0,0,0,0,0,-1,2001,323,0,0
784,701,0,0,0,0,0,0,0,0,0,-1,2008,323,0,0
791,701,0,0,0,0,0,0,0,0,0,-1,2015,323,0,0
798,701,0,0,0,0,0,0,0,0,0,-1,2022,323,0,0
805,701,0,0,0,0,0,0,0,0,0,-1,2029,323,0,0
812,701,0,0,0,0,0,0,0,0,0,-1,2036,323,0,0
-700,694,0,0,0,0,0,0,0,0,0,-1,524,330,0,0
-693,694,0,0,0,0,0,0,0,0,0,-1,531,330,0,0
-686,694,0,0,0,0,0,0,0,0,0,-1,538,330,0,0
-679,694,0,0,0,0,0,0,0,0,0,-1,545,330,0,0
-672,694,0,0,0,0,0,0,0,0,0,-1,552,330,0,0
-665,694,0,0,0,0,0,0,0,0,0,-1,559,330,0,0
-658,694,0,0,0,0,0,0,0,0,0,-1,566,330,0,0
-651,694,0,0,0,0,0,0,0,0,0,-1,573,330,0,0
-644,694,0,0,0,0,0,0,0,0,0,-1,580,330,0,0
-637,694,0,0,0,0,0,0,0,0,0,-1,587,330,0,0
-630,694,0,0,0,0,0,0,0,0,0,-1,594,330,0,0
-623,694,0,0,0,0,0,0,0,0,0,-1,601,330,0,0
-616,694,0,0,0,0,0,0,0,0,0,-1,608,330,0,0
-609,694,0,0,0,0,0,0,0,0,0,-1,615,330,0,0
-602,694,0,0,0,0,0,0,0,0,0,-1,622,330,0,0
-595,694,0,0,0,0,0,0,0,0,0,-1,629,330,0,0
-588,694,0,0,0,0,0,0,0,0,0,-1,636,330,0,0
-581,694,0,0,0,0,0,0,0,0,0,-1,643,330,0,0
-574,694,0,0,0,0,0,0,0,0,0,-1,650,330,0,0
-567,694,0,0,0,0,0,0,0,0,0,-1,657,330,0,0
-560,694,0,0,0,0,0,0,0,0,0,-1,664,330,0,0
-553,694,0,0,0,0,0,0,0,0,0,-1,671,330,0,0
-546,694,0,0,0,0,0,0,0,0,0,-1,678,330,0,0
-539,694,0,0,0,0,0,0,0,0,0,-1,685,330,0,0
-532,694,0,0,0,0,0,0,0,0,0,-1,692,330,0,0
-525,694,0,0,0,0,0,0,0,0,0,-1,699,330,0,0
-518,694,0,0,0,0,0,0,0,0,0,-1,706,330,0,0
-511,694,0,0,0,0,0,0,0,0,0,-1,713,330,0,0
-504,694,0,0,0,0,0,0,0,0,0,-1,720,330,0,0
-497,694,0,0,0,0,0,0,0,0,0,-1,727,330,0,0
-490,694,0,0,0,0,0,0,0,0,0,-1,734,330,0,0
-483,694,0,0,0,0,0,0,0,0,0,-1,741,330,0,0
-476,694,0,0,0,0,0,0,0,0,0,-1,748,330,0,0
-469,694,0,0,0,0,0,0,0,0,0,-1,755,330,0,0
-462,694,0,0,0,0,0,0,0,0,0,-1,762,330,0,0
-455,694,0,0,0,0,0,0,0,0,0,-1,769,330,0,0
-448,694,0,0,0,0,0,0,0,0,0,-1,776,330,0,0
-441,694,0,0,0,0,0,0,0,0,0,-1,783,330,0,0
-434,694,0,0,0,0,0,0,0,0,0,-1,790,330,0,0
-427,694,0,0,0,0,0,0,0,0,0,-1,797,330,0,0
-420,694,0,0,0,0,0,0,0,0,0,-1,804,330,0,0
-413,694,0,0,0,0,0,0,0,0,0,-1,811,330,0,0
-406,694,0,0,0,0,0,0,0,0,0,-1,818,330,0,0
-399,694,0,0,0,0,0,0,0,0,0,-1,825,330,0,0
-392,694,0,0,0,0,0,0,0,0,0,-1,832,330,0,0
-385,694,0,0,0,0,0,0,0,0,0,-1,839,330,0,0
-378,694,0,0,0,0,0,0,0,0,0,-1,846,330,0,0
-371,694,0,0,0,0,0,0,0,0,0,-1,853,330,0,0
-364,694,0,0,0,0,0,0,0,0,0,-1,860,330,0,0
-357,694,0,0,0,0,0,0,0,0,0,-1,867,330,0,0
-350,694,0,0,0,0,0,0,0,0,0,-1,874,330,0,0
-343,694,0,0,0,0,0,0,0,0,0,-1,881,330,0,0
-336,694,0,0,0,0,0,0,0,0,0,-1,888,330,0,0
-329,694,0,0,0,0,0,0,0,0,0,-1,895,330,0,0
-322,694,0,0,0,0,0,0,0,0,0,-1,902,330,0,0
-315,694,0,0,0,0,0,0,0,0,0,-1,909,330,0,0
-308,694,0,0,0,0,0,0,0,0,0,-1,916,330,0,0
-301,694,0,0,0,0,0,0,0,0,0,-1,923,330,0,0
-294,694,0,0,0,0,0,0,0,0,0,-1,930,330,0,0
-287,694,0,0,0,0,0,0,0,0,0,-1,937,330,0,0
-280,694,0,0,0,0,0,0,0,0,0,-1,944,330,0,0
-273,694,0,0,0,0,0,0,0,0,0,-1,951,330,0,0
-266,694,0,0,0,0,0,0,0,0,0,-1,958,330,0,0
-259,694,0,0,0,0,0,0,0,0,0,-1,965,330,0,0
-252,694,0,0,0,0,0,0,0,0,0,-1,972,330,0,0
-245,694,0,0,0,0,0,0,0,0,0,-1,979,330,0,0
-238,694,0,0,0,0,0,0,0,0,0,-1,986,330,0,0
-231,694,0,0,0,0,0,0,0,0,0,-1,993,330,0,0
-224,694,0,0,0,0,0,0,0,0,0,-1,1000,330,0,0
-217,694,0,0,0,0,0,0,0,0,0,-1,1007,330,0,0
-210,694,0,0,0,0,0,0,0,0,0,-1,1014,330,0,0
-203,694,0,0,0,0,0,0,0,0,0,-1,1021,330,0,0
-196,694,0,0,0,0,0,0,0,0,0,-1,1028,330,0,0
-189,694,0,0,0,0,0,0,0,0,0,-1,1035,330,0,0
-182,694,0,0,0,0,0,0,0,0,0,-1,1042,330,0,0
-175,694,0,0,0,0,0,0,0,0,0,-1,1049,330,0,0
-168,694,0,0,0,0,0,0,0,0,0,-1,1056,330,0,0
-161,694,0,0,0,0,0,0,0,0,0,-1,1063,330,0,0
-154,694,0,0,0,0,0,0,0,0,0,-1,1070,330,0,0
-147,694,0,0,0,0,0,0,0,0,0,-1,1077,330,0,0
-140,694,0,0,0,0,0,0,0,0,0,-1,1084,330,0,0
-133,694,0,0,0,0,0,0,0,0,0,-1,1091,330,0,0
-126,694,0,0,0,0,0,0,0,0,0,-1,1098,330,0,0
-119,694,0,0,0,0,0,0,0,0,0,-1,1105,330,0,0
-112,694,0,0,0,0,0,0,0,0,0,-1,1112,330,0,0
-105,694,2.5188,-19.3963,0,0,0,0,0,0,0,-1,1119,330,2.51882,19.3963
-98,694,1.34875,-10.1051,0,0,0,0,0,0,0,-1,1126,330,1.34874,10.1051
-91,694,6.62366,-46.8039,0,0,0,0,0,0,0,-1,1133,330,6.62363,46.8039
-84,694,0.0577393,-40.8823,0,0,0,0,0,0,0,-1,1140,330,0.0577026,40.8823
-77,694,-5.51379,-31.2714,0,0,0,0,0,0,0,-1,1147,330,-5.51383,31.2714
-70,694,-11.9945,-25.5143,0,0,0,0,0,0,0,-1,1154,330,-11.9945,25.5143
-63,694,-18.4752,-19.7572,0,0,0,0,0,0,0,-1,1161,330,-18.4752,19.7572
-56,694,-6.50623,-0.649139,0,0,0,0,0,0,0,-1,1168,330,-6.5062,0.649126
-49,694,-1.11426,0.0341797,0,0,0,0,0,0,0,-1,1175,330,-1.11424,-0.0341846
-42,694,-0.346313,-0.709595,0,0,0,0,0,0,0,-1,1182,330,-0.346298,0.709581
-35,694,-0.459106,-1.24713,0,0,0,0,0,0,0,-1,1189,330,-0.459142,1.24714
-28,694,-6.48413,-3.95972,0,0,0,0,0,0,0,-1,1196,330,-6.48414,3.9597
-21,694,12.2906,-68.6226,0,0,0,0,0,0,0,-1,1203,330,12.2906,68.6225
-14,694,9.12598,-67.7661,0,0,0,0,0,0,0,-1,1210,330,9.12597,67.7661
-7,694,11.9432,-64.905,0,0,0,0,0,0,0,-1,1217,330,11.9432,64.905
0,694,11.936,-65.6529,0.0367962,0.227841,0.0200267,0.229918,0.0347194,1.46747,0.143116,0.0467771,1224,330,11.936,65.6529
7,694,11.9592,-66.4052,0.0386637,0.236329,0.0324687,0.241526,0.033467,1.41209,0.151102,0.0449785,1231,330,11.9593,66.4052
14,694,11.9751,-67.1937,0.0367567,0.241132,0.0409626,0.249036,0.0288523,1.38017,0.157291,0.0471667,1238,330,11.9751,67.1937
21,694,11.9692,-67.9667,0,0,0,0,0,0,0,-1,1245,330,11.9693,67.9667
28,694,13.1384,-69.2492,0.0344218,0.254157,0.061092,0.27,0.0185789,1.31706,0.174138,0.0442665,1252,330,13.1385,69.2492
35,694,13.163,-70.3193,0.0291632,0.253465,0.0637912,0.270338,0.0122903,1.31222,0.176271,0.0442811,1259,330,13.163,70.3193
42,694,13.0496,-71.0848,0.0215016,0.247515,0.0621302,0.263468,0.00554831,1.31945,0.173826,0.0455667,1266,330,13.0496,71.0848
49,694,12.7639,-71.7166,0.0124423,0.236259,0.055891,0.24944,-0.000738405,1.3392,0.16654,0.0453612,1273,330,12.7639,71.7166
56,694,7.39331,-71.4704,0,0,0,0,0,0,0,-1,1280,330,7.39327,71.4704
63,694,9.01074,-67.7228,0,0,0,0,0,0,0,-1,1287,330,9.01076,67.7228
70,694,8.95178,-67.9916,0,0,0,0,0,0,0,-1,1294,330,8.95173,67.9916
77,694,8.67139,-69.3443,0,0,0,0,0,0,0,-1,1301,330,8.67144,69.3443
84,694,8.02075,-70.8611,-0.0499,0.143769,-0.0392787,0.151432,-0.0575631,-1.37812,0.124654,0.0442353,1308,330,8.02074,70.8611
91,694,7.29175,-72.3444,-0.0597929,0.128411,-0.0590691,0.145414,-0.076796,-1.29052,0.130316,0.0453826,1315,330,7.29172,72.3444
98,694,6.54211,-73.7424,-0.070727,0.120265,-0.0782964,0.148259,-0.0987212,-1.22742,0.143547,0.0486634,1322,330,6.54212,73.7424
105,694,5.81982,-75.324,-0.0764653,0.103001,-0.0939689,0.143199,-0.116664,-1.16657,0.150292,0.0468808,1329,330,5.81985,75.324
112,694,4.98193,-76.8912,-0.077109,0.111881,-0.0972431,0.152979,-0.118207,-1.17093,0.156998,0.0452328,1336,330,4.98196,76.8912
119,694,4.16931,-78.1612,-0.0760757,0.122337,-0.096797,0.161736,-0.115475,-1.18424,0.160789,0.0447718,1343,330,4.16937,78.1612
126,694,3.48169,-79.5319,0,0,0,0,0,0,0,-1,1350,330,3.48169,79.5319
133,694,3.12549,-79.4799,0,0,0,0,0,0,0,-1,1357,330,3.12546,79.4799
140,694,14.1412,-45.9782,0,0,0,0,0,0,0,-1,1364,330,14.1412,45.9782
147,694,6.31567,-66.0357,0,0,0,0,0,0,0,-1,1371,330,6.31572,66.0357
154,694,8.43506,-65.1838,0,0,0,0,0,0,0,-1,1378,330,8.43501,65.1838
161,694,0.0187988,-38.6779,0,0,0,0,0,0,0,-1,1385,330,0.0187579,38.6779
168,694,30.451,0.196686,0,0,0,0,0,0,0,-1,1392,330,30.4511,-0.196674
175,694,31.0701,0.869873,0,0,0,0,0,0,0,-1,1399,330,31.07,-0.869874
182,694,8.29028,5.75238,0,0,0,0,0,0,0,-1,1406,330,8.29034,-5.75237
189,694,7.9801,4.46118,0,0,0,0,0,0,0,-1,1413,330,7.9801,-4.46118
196,694,7.39331,3.32632,0,0,0,0,0,0,0,-1,1420,330,7.39329,-3.32633
203,694,7.04492,2.20529,0,0,0,0,0,0,0,-1,1427,330,7.04496,-2.20529
210,694,6.44714,0.646912,0,0,0,0,0,0,0,-1,1434,330,6.44717,-0.646903
217,694,7.12061,-0.644958,0,0,0,0,0,0,0,-1,1441,330,7.12059,0.644961
224,694,6.74011,-1.70544,0,0,0,0,0,0,0,-1,1448,330,6.74013,1.70546
231,694,0,0,0,0,0,0,0,0,0,-1,1455,330,0,0
238,694,0,0,0,0,0,0,0,0,0,-1,1462,330,0,0
245,694,0,0,0,0,0,0,0,0,0,-1,1469,330,0,0
252,694,0,0,0,0,0,0,0,0,0,-1,1476,330,0,0
259,694,0,0,0,0,0,0,0,0,0,-1,1483,330,0,0
266,694,0,0,0,0,0,0,0,0,0,-1,1490,330,0,0
273,694,0,0,0,0,0,0,0,0,0,-1,1497,330,0,0
280,694,0,0,0,0,0,0,0,0,0,-1,1504,330,0,0
287,694,0,0,0,0,0,0,0,0,0,-1,1511,330,0,0
294,694,0,0,0,0,0,0,0,0,0,-1,1518,330,0,0
301,694,0,0,0,0,0,0,0,0,0,-1,1525,330,0,0
308,694,0,0,0,0,0,0,0,0,0,-1,1532,330,0,0
315,694,0,0,0,0,0,0,0,0,0,-1,1539,330,0,0
322,694,0,0,0,0,0,0,0,0,0,-1,1546,330,0,0
329,694,0,0,0,0,0,0,0,0,0,-1,1553,330,0,0
336,694,0,0,0,0,0,0,0,0,0,-1,1560,330,0,0
343,694,0,0,0,0,0,0,0,0,0,-1,1567,330,0,0
350,694,0,0,0,0,0,0,0,0,0,-1,1574,330,0,0
357,694,0,0,0,0,0,0,0,0,0,-1,1581,330,0,0
364,694,0,0,0,0,0,0,0,0,0,-1,1588,330,0,0
371,694,0,0,0,0,0,0,0,0,0,-1,1595,330,0,0
378,694,0,0,0,0,0,0,0,0,0,-1,1602,330,0,0
385,694,0,0,0,0,0,0,0,0,0,-1,1609,330,0,0
392,694,0,0,0,0,0,0,0,0,0,-1,1616,330,0,0
399,694,0,0,0,0,0,0,0,0,0,-1,1623,330,0,0
406,694,0,0,0,0,0,0,0,0,0,-1,1630,330,0,0
413,694,0,0,0,0,0,0,0,0,0,-1,1637,330,0,0
420,694,0,0,0,0,0,0,0,0,0,-1,1644,330,0,0
427,694,0,0,0,0,0,0,0,0,0,-1,1651,330,0,0
434,694,0,0,0,0,0,0,0,0,0,-1,1658,330,0,0
441,694,0,0,0,0,0,0,0,0,0,-1,1665,330,0,0
448,694,0,0,0,0,0,0,0,0,0,-1,1672,330,0,0
455,694,0,0,0,0,0,0,0,0,0,-1,1679,330,0,0
462,694,0,0,0,0,0,0,0,0,0,-1,1686,330,0,0
469,694,0,0,0,0,0,0,0,0,0,-1,1693,330,0,0
476,694,0,0,0,0,0,0,0,0,0,-1,1700,330,0,0
483,694,0,0,0,0,0,0,0,0,0,-1,1707,330,0,0
490,694,0,0,0,0,0,0,0,0,0,-1,1714,330,0,0
497,694,0,0,0,0,0,0,0,0,0,-1,1721,330,0,0
504,694,0,0,0,0,0,0,0,0,0,-1,1728,330,0,0
511,694,0,0,0,0,0,0,0,0,0,-1,1735,330,0,0
518,694,0,0,0,0,0,0,0,0,0,-1,1742,330,0,0
525,694,0,0,0,0,0,0,0,0,0,-1,1749,330,0,0
532,694,0,0,0,0,0,0,0,0,0,-1,1756,330,0,0
539,694,0,0,0,0,0,0,0,0,0,-1,1763,330,0,0
546,694,0,0,0,0,0,0,0,0,0,-1,1770,330,0,0
553,694,0,0,0,0,0,0,0,0,0,-1,1777,330,0,0
560,694,0,0,0,0,0,0,0,0,0,-1,1784,330,0,0
567,694,0,0,0,0,0,0,0,0,0,-1,1791,330,0,0
574,694,0,0,0,0,0,0,0,0,0,-1,1798,330,0,0
581,694,0,0,0,0,0,0,0,0,0,-1,1805,330,0,0
588,694,0,0,0,0,0,0,0,0,0,-1,1812,330,0,0
595,694,0,0,0,0,0,0,0,0,0,-1,1819,330,0,0
602,694,0,0,0,0,0,0,0,0,0,-1,1826,330,0,0
609,694,0,0,0,0,0,0,0,0,0,-1,1833,330,0,0
616,694,0,0,0,0,0,0,0,0,0,-1,1840,330,0,0
623,694,0,0,0,0,0,0,0,0,0,-1,1847,330,0,0
630,694,0,0,0,0,0,0,0,0,0,-1,1854,330,0,0
637,694,0,0,0,0,0,0,0,0,0,-1,1861,330,0,0
644,694,0,0,0,0,0,0,0,0,0,-1,1868,330,0,0
651,694,0,0,0,0,0,0,0,0,0,-1,1875,330,0,0
658,694,0,0,0,0,0,0,0,0,0,-1,1882,330,0,0
665,694,0,0,0,0,0,0,0,0,0,-1,1889,330,0,0
672,694,0,0,0,0,0,0,0,0,0,-1,1896,330,0,0
679,694,0,0,0,0,0,0,0,0,0,-1,1903,330,0,0
686,694,0,0,0,0,0,0,0,0,0,-1,1910,330,0,0
693,694,0,0,0,0,0,0,0,0,0,-1,1917,330,0,0
700,694,0,0,0,0,0,0,0,0,0,-1,1924,330,0,0
707,694,0,0,0,0,0,0,0,0,0,-1,1931,330,0,0
714,694,0,0,0,0,0,0,0,0,0,-1,1938,330,0,0
721,694,0,0,0,0,0,0,0,0,0,-1,1945,330,0,0
728,694,0,0,0,0,0,0,0,0,0,-1,1952,330,0,0
735,694,0,0,0,0,0,0,0,0,0,-1,1959,330,0,0
742,694,0,0,0,0,0,0,0,0,0,-1,1966,330,0,0
749,694,0,0,0,0,0,0,0,0,0,-1,1973,330,0,0
756,694,0,0,0,0,0,0,0,0,0,-1,1980,330,0,0
763,694,0,0,0,0,0,0,0,0,0,-1,1987,330,0,0
770,694,0,0,0,0,0,0,0,0,0,-1,1994,330,0,0
777,694,0,0,0,0,0,0,0,0,0,-1,2001,330,0,0
784,694,0,0,0,0,0,0,0,0,0,-1,2008,330,0,0
791,694,0,0,0,0,0,0,0,0,0,-1,2015,330,0,0
798,694,0,0,0,0,0,0,0,0,0,-1,2022,330,0,0
805,694,0,0,0,0,0,0,0,0,0,-1,2029,330,0,0
812,694,0,0,0,0,0,0,0,0,0,-1,2036,330,0,0
-700,687,0,0,0,0,0,0,0,0,0,-1,524,337,0,0
-693,687,0,0,0,0,0,0,0,0,0,-1,531,337,0,0
-686,687,0,0,0,0,0,0,0,0,0,-1,538,337,0,0
-679,687,0,0,0,0,0,0,0,0,0,-1,545,337,0,0
-672,687,0,0,0,0,0,0,0,0,0,-1,552,337,0,0
-665,687,0,0,0,0,0,0,0,0,0,-1,559,337,0,0
-658,687,0,0,0,0,0,0,0,0,0,-1,566,337,0,0
-651,687,0,0,0,0,0,0,0,0,0,-1,573,337,0,0
-644,687,0,0,0,0,0,0,0,0,0,-1,580,337,0,0
-637,687,0,0,0,0,0,0,0,0,0,-1,587,337,0,0
-630,687,0,0,0,0,0,0,0,0,0,-1,594,337,0,0
-623,687,0,0,0,0,0,0,0,0,0,-1,601,337,0,0
-616,687,0,0,0,0,0,0,0,0,0,-1,608,337,0,0
-609,687,0,0,0,0,0,0,0,0,0,-1,615,337,0,0
-602,687,0,0,0,0,0,0,0,0,0,-1,622,337,0,0
-595,687,0,0,0,0,0,0,0,0,0,-1,629,337,0,0
-588,687,0,0,0,0,0,0,0,0,0,-1,636,337,0,0
-581,687,0,0,0,0,0,0,0,0,0,-1,643,337,0,0
-574,687,0,0,0,0,0,0,0,0,0,-1,650,337,0,0
-567,687,0,0,0,0,0,0,0,0,0,-1,657,337,0,0
-560,687,0,0,0,0,0,0,0,0,0,-1,664,337,0,0
-553,687,0,0,0,0,0,0,0,0,0,-1,671,337,0,0
-546,687,0,0,0,0,0,0,0,0,0,-1,678,337,0,0
-539,687,0,0,0,0,0,0,0,0,0,-1,685,337,0,0
-532,687,0,0,0,0,0,0,0,0,0,-1,692,337,0,0
-525,687,0,0,0,0,0,0,0,0,0,-1,699,337,0,0
-518,687,0,0,0,0,0,0,0,0,0,-1,706,337,0,0
-511,687,0,0,0,0,0,0,0,0,0,-1,713,337,0,0
-504,687,0,0,0,0,0,0,0,0,0,-1,720,337,0,0
-497,687,0,0,0,0,0,0,0,0,0,-1,727,337,0,0
-490,687,0,0,0,0,0,0,0,0,0,-1,734,337,0,0
-483,687,0,0,0,0,0,0,0,0,0,-1,741,337,0,0
-476,687,0,0,0,0,0,0,0,0,0,-1,748,337,0,0
-469,687,0,0,0,0,0,0,0,0,0,-1,755,337,0,0
-462,687,0,0,0,0,0,0,0,0,0,-1,762,337,0,0
-455,687,0,0,0,0,0,0,0,0,0,-1,769,337,0,0
-448,687,0,0,0,0,0,0,0,0,0,-1,776,337,0,0
-441,687,0,0,0,0,0,0,0,0,0,-1,783,337,0,0
-434,687,0,0,0,0,0,0,0,0,0,-1,790,337,0,0
-427,687,0,0,0,0,0,0,0,0,0,-1,797,337,0,0
-420,687,0,0,0,0,0,0,0,0,0,-1,804,337,0,0
-413,687,0,0,0,0,0,0,0,0,0,-1,811,337,0,0
-406,687,0,0,0,0,0,0,0,0,0,-1,818,337,0,0
-399,687,0,0,0,0,0,0,0,0,0,-1,825,337,0,0
-392,687,0,0,0,0,0,0,0,0,0,-1,832,337,0,0
-385,687,0,0,0,0,0,0,0,0,0,-1,839,337,0,0
-378,687,0,0,0,0,0,0,0,0,0,-1,846,337,0,0
-371,687,0,0,0,0,0,0,0,0,0,-1,853,337,0,0
-364,687,0,0,0,0,0,0,0,0,0,-1,860,337,0,0
-357,687,0,0,0,0,0,0,0,0,0,-1,867,337,0,0
-350,687,0,0,0,0,0,0,0,0,0,-1,874,337,0,0
-343,687,0,0,0,0,0,0,0,0,0,-1,881,337,0,0
-336,687,0,0,0,0,0,0,0,0,0,-1,888,337,0,0
-329,687,0,0,0,0,0,0,0,0,0,-1,895,337,0,0
-322,687,0,0,0,0,0,0,0,0,0,-1,902,337,0,0
-315,687,0,0,0,0,0,0,0,0,0,-1,909,337,0,0
-308,687,0,0,0,0,0,0,0,0,0,-1,916,337,0,0
-301,687,0,0,0,0,0,0,0,0,0,-1,923,337,0,0
-294,687,0,0,0,0,0,0,0,0,0,-1,930,337,0,0
-287,687,0,0,0,0,0,0,0,0,0,-1,937,337,0,0
-280,687,0,0,0,0,0,0,0,0,0,-1,944,337,0,0
-273,687,0,0,0,0,0,0,0,0,0,-1,951,337,0,0
-266,687,0,0,0,0,0,0,0,0,0,-1,958,337,0,0
-259,687,0,0,0,0,0,0,0,0,0,-1,965,337,0,0
-252,687,0,0,0,0,0,0,0,0,0,-1,972,337,0,0
-245,687,0,0,0,0,0,0,0,0,0,-1,979,337,0,0
-238,687,0,0,0,0,0,0,0,0,0,-1,986,337,0,0
-231,687,0,0,0,0,0,0,0,0,0,-1,993,337,0,0
-224,687,0,0,0,0,0,0,0,0,0,-1,1000,337,0,0
-217,687,0,0,0,0,0,0,0,0,0,-1,1007,337,0,0
-210,687,0,0,0,0,0,0,0,0,0,-1,1014,337,0,0
-203,687,0,0,0,0,0,0,0,0,0,-1,1021,337,0,0
-196,687,0,0,0,0,0,0,0,0,0,-1,1028,337,0,0
-189,687,0,0,0,0,0,0,0,0,0,-1,1035,337,0,0
-182,687,0,0,0,0,0,0,0,0,0,-1,1042,337,0,0
-175,687,0,0,0,0,0,0,0,0,0,-1,1049,337,0,0
-168,687,0,0,0,0,0,0,0,0,0,-1,1056,337,0,0
-161,687,0,0,0,0,0,0,0,0,0,-1,1063,337,0,0
-154,687,0,0,0,0,0,0,0,0,0,-1,1070,337,0,0
-147,687,0,0,0,0,0,0,0,0,0,-1,1077,337,0,0
-140,687,0,0,0,0,0,0,0,0,0,-1,1084,337,0,0
-133,687,7.93958,-37.548,0,0,0,0,0,0,0,-1,1091,337,7.93957,37.548
-126,687,0.688477,-38.7298,0,0,0,0,0,0,0,-1,1098,337,0.688509,38.7298
-119,687,7.70825,-33.9236,0,0,0,0,0,0,0,-1,1105,337,7.70826,33.9236
-112,687,7.99866,-32.2983,0,0,0,0,0,0,0,-1,1112,337,7.99866,32.2983
-105,687,1.3208,-29.8313,0,0,0,0,0,0,0,-1,1119,337,1.3208,29.8313
-98,687,13.7111,-47.5645,0,0,0,0,0,0,0,-1,1126,337,13.711,47.5645
-91,687,7.22083,-41.1667,0,0,0,0,0,0,0,-1,1133,337,7.22079,41.1666
-84,687,0.745117,-35.0345,0,0,0,0,0,0,0,-1,1140,337,0.745155,35.0345
-77,687,-5.74353,-28.9553,0,0,0,0,0,0,0,-1,1147,337,-5.74357,28.9553
-70,687,-11.6842,-19.8473,0,0,0,0,0,0,0,-1,1154,337,-11.6842,19.8473
-63,687,-17.6757,-14.8966,0,0,0,0,0,0,0,-1,1161,337,-17.6756,14.8966
-56,687,-18.104,7.81931,0,0,0,0,0,0,0,-1,1168,337,-18.104,-7.81931
-49,687,-15.6449,-9.94391,0,0,0,0,0,0,0,-1,1175,337,-15.6449,9.94392
-42,687,-4.2019,-0.405609,0,0,0,0,0,0,0,-1,1182,337,-4.20192,0.405614
-35,687,-4.42273,-0.688171,0,0,0,0,0,0,0,-1,1189,337,-4.42276,0.688178
-28,687,-1.14038,-1.39072,0,0,0,0,0,0,0,-1,1196,337,-1.14035,1.3907
-21,687,8.86768,-68.0803,0,0,0,0,0,0,0,-1,1203,337,8.86767,68.0803
-14,687,9.20459,-68.5595,0.0244218,0.173467,-0.000504813,0.173469,0.0244201,-1.56741,0.108426,0.0474623,1210,337,9.20458,68.5595
-7,687,9.5332,-69.0319,0.0268212,0.172903,0.00521365,0.173089,0.0266353,1.53517,0.107618,0.0460816,1217,337,9.53324,69.0319
0,687,11.0734,-67.0132,0.0285224,0.188087,0.015805,0.189638,0.0269719,1.47301,0.118463,0.0486728,1224,337,11.0734,67.0132
7,687,11.153,-67.8763,0,0,0,0,0,0,0,-1,1231,337,11.153,67.8763
14,687,11.1398,-68.5824,0.0266427,0.19688,0.0304962,0.202178,0.0213445,1.39878,0.128264,0.0466362,1238,337,11.1398,68.5824
21,687,11.548,-69.4449,0.0249849,0.201133,0.0377363,0.208877,0.0172411,1.3684,0.133875,0.0452203,1245,337,11.548,69.4449
28,687,11.7545,-70.2471,0.0232551,0.205499,0.0447882,0.215912,0.0128428,1.34238,0.139857,0.0451313,1252,337,11.7545,70.2471
35,687,11.8365,-71.5001,0.0186604,0.204338,0.0464245,0.215298,0.00769995,1.33895,0.141035,0.047086,1259,337,11.8366,71.5001
42,687,11.8079,-72.7825,0,0,0,0,0,0,0,-1,1266,337,11.8079,72.7825
49,687,7.97437,-71.5819,0.00490364,0.189816,0.0398715,0.198047,-0.00332722,1.36722,0.133154,0.0486012,1273,337,7.97433,71.5819
56,687,7.73035,-71.838,0,0,0,0,0,0,0,-1,1280,337,7.73034,71.838
63,687,8.69409,-69.1945,0,0,0,0,0,0,0,-1,1287,337,8.69408,69.1945
70,687,8.61414,-69.503,0,0,0,0,0,0,0,-1,1294,337,8.61409,69.503
77,687,8.78528,-70.4152,0,0,0,0,0,0,0,-1,1301,337,8.78524,70.4152
84,687,8.20862,-71.1762,-0.0430754,0.117621,-0.0351736,0.124982,-0.0504371,-1.36448,0.104282,0.0465192,1308,337,8.20856,71.1762
91,687,7.59814,-72.1084,-0.0505669,0.105869,-0.0504334,0.120719,-0.0654165,-1.28445,0.109035,0.0423024,1315,337,7.59815,72.1084
98,687,6.95349,-72.8985,-0.0586526,0.0996947,-0.0650138,0.122967,-0.0819253,-1.22704,0.119083,0.0452459,1322,337,6.95344,72.8985
105,687,6.28003,-75.9411,-0.0632029,0.0857233,-0.0775146,0.118746,-0.0962259,-1.16806,0.124341,0.0443348,1329,337,6.27998,75.9411
112,687,5.09778,-77.5358,0,0,0,0,0,0,0,-1,1336,337,5.09781,77.5358
119,687,4.36707,-78.3326,0,0,0,0,0,0,0,-1,1343,337,4.36708,78.3326
126,687,3.64124,-79.6815,0,0,0,0,0,0,0,-1,1350,337,3.64121,79.6815
133,687,14.1561,-48.1475,0,0,0,0,0,0,0,-1,1357,337,14.1561,48.1475
140,687,14.8959,-45.517,0,0,0,0,0,0,0,-1,1364,337,14.8959,45.517
147,687,6.54407,-67.0774,0,0,0,0,0,0,0,-1,1371,337,6.54405,67.0774
154,687,6.44836,-66.5266,0,0,0,0,0,0,0,-1,1378,337,6.4484,66.5266
161,687,29.3895,-1.90628,0,0,0,0,0,0,0,-1,1385,337,29.3895,1.90628
168,687,29.8564,-1.19434,0,0,0,0,0,0,0,-1,1392,337,29.8564,1.19434
175,687,30.3419,-0.453583,0,0,0,0,0,0,0,-1,1399,337,30.3419,0.45357
182,687,6.67249,0.289917,0,0,0,0,0,0,0,-1,1406,337,6.67247,-0.289916
189,687,7.76062,4.53635,0,0,0,0,0,0,0,-1,1413,337,7.76064,-4.53636
196,687,6.99048,3.2966,0,0,0,0,0,0,0,-1,1420,337,6.99046,-3.2966
203,687,6.36499,2.1445,0,0,0,0,0,0,0,-1,1427,337,6.36499,-2.14451
210,687,6.68066,0.674652,0,0,0,0,0,0,0,-1,1434,337,6.68062,-0.674655
217,687,5.99683,-0.630493,0,0,0,0,0,0,0,-1,1441,337,5.99684,0.630497
224,687,5.52917,0.524902,0,0,0,0,0,0,0,-1,1448,337,5.5292,-0.524915
231,687,5.85583,-1.73651,0,0,0,0,0,0,0,-1,1455,337,5.85577,1.73651
238,687,5.96582,-2.96774,0,0,0,0,0,0,0,-1,1462,337,5.96577,2.96773
245,687,1.28259,2.32211,0,0,0,0,0,0,0,-1,1469,337,1.28258,-2.32211
252,687,1.97278,3.88422,0,0,0,0,0,0,0,-1,1476,337,1.97281,-3.88421
259,687,0,0,0,0,0,0,0,0,0,-1,1483,337,0,0
266,687,0,0,0,0,0,0,0,0,0,-1,1490,337,0,0
273,687,0,0,0,0,0,0,0,0,0,-1,1497,337,0,0
280,687,0,0,0,0,0,0,0,0,0,-1,1504,337,0,0
287,687,0,0,0,0,0,0,0,0,0,-1,1511,337,0,0
294,687,0,0,0,0,0,0,0,0,0,-1,1518,337,0,0
301,687,0,0,0,0,0,0,0,0,0,-1,1525,337,0,0
308,687,0,0,0,0,0,0,0,0,0,-1,1532,337,0,0
315,687,0,0,0,0,0,0,0,0,0,-1,1539,337,0,0
322,687,0,0,0,0,0,0,0,0,0,-1,1546,337,0,0
329,687,0,0,0,0,0,0,0,0,0,-1,1553,337,0,0
336,687,0,0,0,0,0,0,0,0,0,-1,1560,337,0,0
343,687,0,0,0,0,0,0,0,0,0,-1,1567,337,0,0
350,687,0,0,0,0,0,0,0,0,0,-1,1574,337,0,0
357,687,0,0,0,0,0,0,0,0,0,-1,1581,337,0,0
364,687,0,0,0,0,0,0,0,0,0,-1,1588,337,0,0
371,687,0,0,0,0,0,0,0,0,0,-1,1595,337,0,0
378,687,0,0,0,0,0,0,0,0,0,-1,1602,337,0,0
385,687,0,0,0,0,0,0,0,0,0,-1,1609,337,0,0
392,687,0,0,0,0,0,0,0,0,0,-1,1616,337,0,0
399,687,0,0,0,0,0,0,0,0,0,-1,1623,337,0,0
406,687,0,0,0,0,0,0,0,0,0,-1,1630,337,0,0
413,687,0,0,0,0,0,0,0,0,0,-1,1637,337,0,0
420,687,0,0,0,0,0,0,0,0,0,-1,1644,337,0,0
427,687,0,0,0,0,0,0,0,0,0,-1,1651,337,0,0
434,687,0,0,0,0,0,0,0,0,0,-1,1658,337,0,0
441,687,0,0,0,0,0,0,0,0,0,-1,1665,337,0,0
448,687,0,0,0,0,0,0,0,0,0,-1,1672,337,0,0
455,687,0,0,0,0,0,0,0,0,0,-1,1679,337,0,0
462,687,0,0,0,0,0,0,0,0,0,-1,1686,337,0,0
469,687,0,0,0,0,0,0,0,0,0,-1,1693,337,0,0
476,687,0,0,0,0,0,0,0,0,0,-1,1700,337,0,0
483,687,0,0,0,0,0,0,0,0,0,-1,1707,337,0,0
490,687,0,0,0,0,0,0,0,0,0,-1,1714,337,0,0
497,687,0,0,0,0,0,0,0,0,0,-1,1721,337,0,0
504,687,0,0,0,0,0,0,0,0,0,-1,1728,337,0,0
511,687,0,0,0,0,0,0,0,0,0,-1,1735,337,0,0
518,687,0,0,0,0,0,0,0,0,0,-1,1742,337,0,0
525,687,0,0,0,0,0,0,0,0,0,-1,1749,337,0,0
532,687,0,0,0,0,0,0,0,0,0,-1,1756,337,0,0
539,687,0,0,0,0,0,0,0,0,0,-1,1763,337,0,0
546,687,0,0,0,0,0,0,0,0,0,-1,1770,337,0,0
553,687,0,0,0,0,0,0,0,0,0,-1,1777,337,0,0
560,687,0,0,0,0,0,0,0,0,0,-1,1784,337,0,0
567,687,0,0,0,0,0,0,0,0,0,-1,1791,337,0,0
574,687,0,0,0,0,0,0,0,0,0,-1,1798,337,0,0
581,687,0,0,0,0,0,0,0,0,0,-1,1805,337,0,0
588,687,0,0,0,0,0,0,0,0,0,-1,1812,337,0,0
595,687,0,0,0,0,0,0,0,0,0,-1,1819,337,0,0
602,687,0,0,0,0,0,0,0,0,0,-1,1826,337,0,0
609,687,0,0,0,0,0,0,0,0,0,-1,1833,337,0,0
616,687,0,0,0,0,0,0,0,0,0,-1,1840,337,0,0
623,687,0,0,0,0,0,0,0,0,0,-1,1847,337,0,0
630,687,0,0,0,0,0,0,0,0,0,-1,1854,337,0,0
637,687,0,0,0,0,0,0,0,0,0,-1,1861,337,0,0
644,687,0,0,0,0,0,0,0,0,0,-1,1868,337,0,0
651,687,0,0,0,0,0,0,0,0,0,-1,1875,337,0,0
658,687,0,0,0,0,0,0,0,0,0,-1,1882,337,0,0
665,687,0,0,0,0,0,0,0,0,0,-1,1889,337,0,0
672,687,0,0,0,0,0,0,0,0,0,-1,1896,337,0,0
679,687,0,0,0,0,0,0,0,0,0,-1,1903,337,0,0
686,687,0,0,0,0,0,0,0,0,0,-1,1910,337,0,0
693,687,0,0,0,0,0,0,0,0,0,-1,1917,337,0,0
700,687,0,0,0,0,0,0,0,0,0,-1,1924,337,0,0
707,687,0,0,0,0,0,0,0,0,0,-1,1931,337,0,0
714,687,0,0,0,0,0,0,0,0,0,-1,1938,337,0,0
721,687,0,0,0,0,0,0,0,0,0,-1,1945,337,0,0
728,687,0,0,0,0,0,0,0,0,0,-1,1952,337,0,0
735,687,0,0,0,0,0,0,0,0,0,-1,1959,337,0,0
742,687,0,0,0,0,0,0,0,0,0,-1,1966,337,0,0
749,687,0,0,0,0,0,0,0,0,0,-1,1973,337,0,0
756,687,0,0,0,0,0,0,0,0,0,-1,1980,337,0,0
763,687,0,0,0,0,0,0,0,0,0,-1,1987,337,0,0
770,687,0,0,0,0,0,0,0,0,0,-1,1994,337,0,0
777,687,0,0,0,0,0,0,0,0,0,-1,2001,337,0,0
784,687,0,0,0,0,0,0,0,0,0,-1,2008,337,0,0
791,687,0,0,0,0,0,0,0,0,0,-1,2015,337,0,0
798,687,0,0,0,0,0,0,0,0,0,-1,2022,337,0,0
805,687,0,0,0,0,0,0,0,0,0,-1,2029,337,0,0
812,687,0,0,0,0,0,0,0,0,0,-1,2036,337,0,0
-700,680,0,0,0,0,0,0,0,0,0,-1,524,344,0,0
-693,680,0,0,0,0,0,0,0,0,0,-1,531,344,0,0
-686,680,0,0,0,0,0,0,0,0,0,-1,538,344,0,0
-679,680,0,0,0,0,0,0,0,0,0,-1,545,344,0,0
-672,680,0,0,0,0,0,0,0,0,0,-1,552,344,0,0
-665,680,0,0,0,0,0,0,0,0,0,-1,559,344,0,0
-658,680,0,0,0,0,0,0,0,0,0,-1,566,344,0,0
-651,680,0,0,0,0,0,0,0,0,0,-1,573,344,0,0
-644,680,0,0,0,0,0,0,0,0,0,-1,580,344,0,0
-637,680,0,0,0,0,0,0,0,0,0,-1,587,344,0,0
-630,680,0,0,0,0,0,0,0,0,0,-1,594,344,0,0
-623,680,0,0,0,0,0,0,0,0,0,-1,601,344,0,0
-616,680,0,0,0,0,0,0,0,0,0,-1,608,344,0,0
-609,680,0,0,0,0,0,0,0,0,0,-1,615,344,0,0
-602,680,0,0,0,0,0,0,0,0,0,-1,622,344,0,0
-595,680,0,0,0,0,0,0,0,0,0,-1,629,344,0,0
-588,680,0,0,0,0,0,0,0,0,0,-1,636,344,0,0
-581,680,0,0,0,0,0,0,0,0,0,-1,643,344,0,0
-574,680,0,0,0,0,0,0,0,0,0,-1,650,344,0,0
-567,680,0,0,0,0,0,0,0,0,0,-1,657,344,0,0
-560,680,0,0,0,0,0,0,0,0,0,-1,664,344,0,0
-553,680,0,0,0,0,0,0,0,0,0,-1,671,344,0,0
-546,680,0,0,0,0,0,0,0,0,0,-1,678,344,0,0
-539,680,0,0,0,0,0,0,0,0,0,-1,685,344,0,0
-532,680,0,0,0,0,0,0,0,0,0,-1,692,344,0,0
-525,680,0,0,0,0,0,0,0,0,0,-1,699,344,0,0
-518,680,0,0,0,0,0,0,0,0,0,-1,706,344,0,0
-511,680,0,0,0,0,0,0,0,0,0,-1,713,344,0,0
-504,680,0,0,0,0,0,0,0,0,0,-1,720,344,0,0
-497,680,0,0,0,0,0,0,0,0,0,-1,727,344,0,0
-490,680,0,0,0,0,0,0,0,0,0,-1,734,344,0,0
-483,680,0,0,0,0,0,0,0,0,0,-1,741,344,0,0
-476,680,0,0,0,0,0,0,0,0,0,-1,748,344,0,0
-469,680,0,0,0,0,0,0,0,0,0,-1,755,344,0,0
-462,680,0,0,0,0,0,0,0,0,0,-1,762,344,0,0
-455,680,0,0,0,0,0,0,0,0,0,-1,769,344,0,0
-448,680,0,0,0,0,0,0,0,0,0,-1,776,344,0,0
-441,680,0,0,0,0,0,0,0,0,0,-1,783,344,0,0
-434,680,0,0,0,0,0,0,0,0,0,-1,790,344,0,0
-427,680,0,0,0,0,0,0,0,0,0,-1,797,344,0,0
-420,680,0,0,0,0,0,0,0,0,0,-1,804,344,0,0
-413,680,0,0,0,0,0,0,0,0,0,-1,811,344,0,0
-406,680,0,0,0,0,0,0,0,0,0,-1,818,344,0,0
-399,680,0,0,0,0,0,0,0,0,0,-1,825,344,0,0
-392,680,0,0,0,0,0,0,0,0,0,-1,832,344,0,0
-385,680,0,0,0,0,0,0,0,0,0,-1,839,344,0,0
-378,680,0,0,0,0,0,0,0,0,0,-1,846,344,0,0
-371,680,0,0,0,0,0,0,0,0,0,-1,853,344,0,0
-364,680,0,0,0,0,0,0,0,0,0,-1,860,344,0,0
-357,680,0,0,0,0,0,0,0,0,0,-1,867,344,0,0
-350,680,0,0,0,0,0,0,0,0,0,-1,874,344,0,0
-343,680,0,0,0,0,0,0,0,0,0,-1,881,344,0,0
-336,680,0,0,0,0,0,0,0,0,0,-1,888,344,0,0
-329,680,0,0,0,0,0,0,0,0,0,-1,895,344,0,0
-322,680,0,0,0,0,0,0,0,0,0,-1,902,344,0,0
-315,680,0,0,0,0,0,0,0,0,0,-1,909,344,0,0
-308,680,0,0,0,0,0,0,0,0,0,-1,916,344,0,0
-301,680,0,0,0,0,0,0,0,0,0,-1,923,344,0,0
-294,680,0,0,0,0,0,0,0,0,0,-1,930,344,0,0
-287,680,0,0,0,0,0,0,0,0,0,-1,937,344,0,0
-280,680,0,0,0,0,0,0,0,0,0,-1,944,344,0,0
-273,680,0,0,0,0,0,0,0,0,0,-1,951,344,0,0
-266,680,0,0,0,0,0,0,0,0,0,-1,958,344,0,0
-259,680,0,0,0,0,0,0,0,0,0,-1,965,344,0,0
-252,680,0,0,0,0,0,0,0,0,0,-1,972,344,0,0
-245,680,0,0,0,0,0,0,0,0,0,-1,979,344,0,0
-238,680,0,0,0,0,0,0,0,0,0,-1,986,344,0,0
-231,680,0,0,0,0,0,0,0,0,0,-1,993,344,0,0
-224,680,0,0,0,0,0,0,0,0,0,-1,1000,344,0,0
-217,680,0,0,0,0,0,0,0,0,0,-1,1007,344,0,0
-210,680,0,0,0,0,0,0,0,0,0,-1,1014,344,0,0
-203,680,0,0,0,0,0,0,0,0,0,-1,1021,344,0,0
-196,680,0,0,0,0,0,0,0,0,0,-1,1028,344,0,0
-189,680,0,0,0,0,0,0,0,0,0,-1,1035,344,0,0
-182,680,0,0,0,0,0,0,0,0,0,-1,1042,344,0,0
-175,680,0,0,0,0,0,0,0,0,0,-1,1049,344,0,0
-168,680,0,0,0,0,0,0,0,0,0,-1,1056,344,0,0
-161,680,0,0,0,0,0,0,0,0,0,-1,1063,344,0,0
-154,680,2.25244,-29.1442,0,0,0,0,0,0,0,-1,1070,344,2.25241,29.1442
-147,680,9.29614,-33.0369,0,0,0,0,0,0,0,-1,1077,344,9.29612,33.0369
-140,680,6.98022,-36.6899,0,0,0,0,0,0,0,-1,1084,344,6.98023,36.6899
-133,680,1.85693,-39.7233,0,0,0,0,0,0,0,-1,1091,344,1.85699,39.7233
-126,680,2.30017,-38.3751,0,0,0,0,0,0,0,-1,1098,344,2.30011,38.3751
-119,680,2.74329,-37.0269,0,0,0,0,0,0,0,-1,1105,344,2.74323,37.0269
-112,680,7.7467,-32.4407,0,0,0,0,0,0,0,-1,1112,344,7.74668,32.4407
-105,680,20.6371,-48.461,0,0,0,0,0,0,0,-1,1119,344,20.6371,48.461
-98,680,14.2684,-41.9997,0,0,0,0,0,0,0,-1,1126,344,14.2685,41.9997
-91,680,7.89648,-35.5147,0,0,0,0,0,0,0,-1,1133,344,7.8965,35.5147
-84,680,1.47168,-29.471,0,0,0,0,0,0,0,-1,1140,344,1.47163,29.471
-77,680,-4.95337,-23.3355,0,0,0,0,0,0,0,-1,1147,344,-4.9534,23.3356
-70,680,-11.5099,-17.4337,0,0,0,0,0,0,0,-1,1154,344,-11.5098,17.4338
-63,680,-17.2391,-1.43134,0,0,0,0,0,0,0,-1,1161,344,-17.2392,1.43133
-56,680,-6.96912,-8.83356,0,0,0,0,0,0,0,-1,1168,344,-6.96907,8.83354
-49,680,-6.7677,-2.24063,0,0,0,0,0,0,0,-1,1175,344,-6.76772,2.24063
-42,680,-1.02368,0.618805,0,0,0,0,0,0,0,-1,1182,344,-1.0237,-0.618797
-35,680,-0.947876,-0.942719,0,0,0,0,0,0,0,-1,1189,344,-0.947842,0.942731
-28,680,-1.46118,-1.10574,0,0,0,0,0,0,0,-1,1196,344,-1.4612,1.10575
-21,680,9.09448,-68.9041,0,0,0,0,0,0,0,-1,1203,344,9.09447,68.9042
-14,680,9.36536,-69.3614,0.0187611,0.140685,6.91308e-05,0.140685,0.0187611,1.57023,0.0882037,0.0425778,1210,344,9.36541,69.3614
-7,680,9.63562,-69.8558,0.02018,0.140164,0.00428385,0.140316,0.0200273,1.53515,0.0876347,0.0453827,1217,344,9.63568,69.8558
0,680,9.94373,-70.3541,0,0,0,0,0,0,0,-1,1224,344,9.94376,70.3541
7,680,10.2515,-69.2511,0,0,0,0,0,0,0,-1,1231,344,10.2515,69.2511
14,680,10.3057,-70.0367,0.0181578,0.157504,0.0221019,0.160925,0.0147362,1.4172,0.102724,0.0435579,1238,344,10.3056,70.0367
21,680,10.2051,-70.5857,0.0163478,0.160286,0.0270452,0.165199,0.0114338,1.39106,0.106526,0.0488083,1245,344,10.2051,70.5857
28,680,10.4786,-71.0152,0,0,0,0,0,0,0,-1,1252,344,10.4786,71.0152
35,680,10.3154,-72.6328,0,0,0,0,0,0,0,-1,1259,344,10.3154,72.6328
42,680,8.98047,-71.5521,0.00578266,0.157672,0.0317795,0.164053,-0.000598446,1.37264,0.109569,0.0434759,1266,344,8.98043,71.5521
49,680,8.41089,-71.9379,-0.000136285,0.150067,0.0276752,0.155004,-0.00507321,1.39426,0.105068,0.0426857,1273,344,8.41093,71.9379
56,680,8.5437,-71.1483,0,0,0,0,0,0,0,-1,1280,344,8.54364,71.1484
63,680,8.58423,-71.0193,-0.0146057,0.129108,0.00844366,0.129603,-0.0151001,1.51231,0.0918498,0.0406029,1287,344,8.58425,71.0193
70,680,8.62061,-70.9926,-0.0220975,0.117873,-0.00360779,0.117966,-0.0221904,-1.54504,0.0869894,0.0411591,1294,344,8.62065,70.9926
77,680,8.92114,-71.096,0,0,0,0,0,0,0,-1,1301,344,8.9211,71.096
84,680,8.29626,-71.7364,0,0,0,0,0,0,0,-1,1308,344,8.29629,71.7364
91,680,7.65356,-72.0914,0,0,0,0,0,0,0,-1,1315,344,7.65353,72.0914
98,680,7.07373,-72.8081,0,0,0,0,0,0,0,-1,1322,344,7.07368,72.8081
105,680,6.7655,-76.6917,0,0,0,0,0,0,0,-1,1329,344,6.76545,76.6917
112,680,13.1261,-55.0254,0,0,0,0,0,0,0,-1,1336,344,13.1262,55.0254
119,680,4.5603,-78.5397,0,0,0,0,0,0,0,-1,1343,344,4.56025,78.5397
126,680,13.9554,-50.9144,0,0,0,0,0,0,0,-1,1350,344,13.9554,50.9144
133,680,14.0074,-47.7681,0,0,0,0,0,0,0,-1,1357,344,14.0074,47.7681
140,680,7.30212,-68.8007,0,0,0,0,0,0,0,-1,1364,344,7.30214,68.8007
147,680,6.55286,-67.9535,0,0,0,0,0,0,0,-1,1371,344,6.55287,67.9535
154,680,6.55884,-68.1115,0,0,0,0,0,0,0,-1,1378,344,6.55887,68.1115
161,680,5.30676,-60.3476,0,0,0,0,0,0,0,-1,1385,344,5.30681,60.3476
168,680,29.4142,-2.51651,0,0,0,0,0,0,0,-1,1392,344,29.4142,2.51652
175,680,6.66541,0.942078,0,0,0,0,0,0,0,-1,1399,344,6.66538,-0.942088
182,680,6.52917,0.532379,0,0,0,0,0,0,0,-1,1406,344,6.52922,-0.532385
189,680,7.55884,4.77695,0,0,0,0,0,0,0,-1,1413,344,7.55886,-4.77694
196,680,6.55627,3.35254,0,0,0,0,0,0,0,-1,1420,344,6.55622,-3.35255
203,680,5.7334,1.90753,0,0,0,0,0,0,0,-1,1427,344,5.73341,-1.90754
210,680,5.27515,0.493622,0,0,0,0,0,0,0,-1,1434,344,5.27514,-0.493632
217,680,6.56384,-0.374176,0,0,0,0,0,0,0,-1,1441,344,6.56379,0.374176
224,680,3.9491,-0.640228,0,0,0,0,0,0,0,-1,1448,344,3.94908,0.64024
231,680,4.24866,-1.96881,0,0,0,0,0,0,0,-1,1455,344,4.2486,1.96882
238,680,4.29333,-3.23984,0,0,0,0,0,0,0,-1,1462,344,4.29332,3.23984
245,680,2.44397,0.985382,0,0,0,0,0,0,0,-1,1469,344,2.44402,-0.985394
252,680,3.07349,2.18951,0,0,0,0,0,0,0,-1,1476,344,3.0735,-2.18952
259,680,2.82971,1.30682,0,0,0,0,0,0,0,-1,1483,344,2.82972,-1.30684
266,680,2.67554,1.44067,0,0,0,0,0,0,0,-1,1490,344,2.67551,-1.44066
273,680,2.46411,1.54666,0,0,0,0,0,0,0,-1,1497,344,2.46407,-1.54666
280,680,0,0,0,0,0,0,0,0,0,-1,1504,344,0,0
287,680,0,0,0,0,0,0,0,0,0,-1,1511,344,0,0
294,680,0,0,0,0,0,0,0,0,0,-1,1518,344,0,0
301,680,0,0,0,0,0,0,0,0,0,-1,1525,344,0,0
308,680,0,0,0,0,0,0,0,0,0,-1,1532,344,0,0
315,680,0,0,0,0,0,0,0,0,0,-1,1539,344,0,0
322,680,0,0,0,0,0,0,0,0,0,-1,1546,344,0,0
329,680,0,0,0,0,0,0,0,0,0,-1,1553,344,0,0
336,680,0,0,0,0,0,0,0,0,0,-1,1560,344,0,0
343,680,0,0,0,0,0,0,0,0,0,-1,1567,344,0,0
350,680,0,0,0,0,0,0,0,0,0,-1,1574,344,0,0
357,680,0,0,0,0,0,0,0,0,0,-1,1581,344,0,0
364,680,0,0,0,0,0,0,0,0,0,-1,1588,344,0,0
371,680,0,0,0,0,0,0,0,0,0,-1,1595,344,0,0
378,680,0,0,0,0,0,0,0,0,0,-1,1602,344,0,0
385,680,0,0,0,0,0,0,0,0,0,-1,1609,344,0,0
392,680,0,0,0,0,0,0,0,0,0,-1,1616,344,0,0
399,680,0,0,0,0,0,0,0,0,0,-1,1623,344,0,0
406,680,0,0,0,0,0,0,0,0,0,-1,1630,344,0,0
413,680,0,0,0,0,0,0,0,0,0,-1,1637,344,0,0
420,680,0,0,0,0,0,0,0,0,0,-1,1644,344,0,0
427,680,0,0,0,0,0,0,0,0,0,-1,1651,344,0,0
434,680,0,0,0,0,0,0,0,0,0,-1,1658,344,0,0
441,680,0,0,0,0,0,0,0,0,0,-1,1665,344,0,0
448,680,0,0,0,0,0,0,0,0,0,-1,1672,344,0,0
455,680,0,0,0,0,0,0,0,0,0,-1,1679,344,0,0
462,680,0,0,0,0,0,0,0,0,0,-1,1686,344,0,0
469,680,0,0,0,0,0,0,0,0,0,-1,1693,344,0,0
476,680,0,0,0,0,0,0,0,0,0,-1,1700,344,0,0
483,680,0,0,0,0,0,0,0,0,0,-1,1707,344,0,0
490,680,0,0,0,0,0,0,0,0,0,-1,1714,344,0,0
497,680,0,0,0,0,0,0,0,0,0,-1,1721,344,0,0
504,680,0,0,0,0,0,0,0,0,0,-1,1728,344,0,0
511,680,0,0,0,0,0,0,0,0,0,-1,1735,344,0,0
518,680,0,0,0,0,0,0,0,0,0,-1,1742,344,0,0
525,680,0,0,0,0,0,0,0,0,0,-1,1749,344,0,0
532,680,0,0,0,0,0,0,0,0,0,-1,1756,344,0,0
539,680,0,0,0,0,0,0,0,0,0,-1,1763,344,0,0
546,680,0,0,0,0,0,0,0,0,0,-1,1770,344,0,0
553,680,0,0,0,0,0,0,0,0,0,-1,1777,344,0,0
560,680,0,0,0,0,0,0,0,0,0,-1,1784,344,0,0
567,680,0,0,0,0,0,0,0,0,0,-1,1791,344,0,0
574,680,0,0,0,0,0,0,0,0,0,-1,1798,344,0,0
581,680,0,0,0,0,0,0,0,0,0,-1,1805,344,0,0
588,680,0,0,0,0,0,0,0,0,0,-1,1812,344,0,0
595,680,0,0,0,0,0,0,0,0,0,-1,1819,344,0,0
602,680,0,0,0,0,0,0,0,0,0,-1,1826,344,0,0
609,680,0,0,0,0,0,0,0,0,0,-1,1833,344,0,0
616,680,0,0,0,0,0,0,0,0,0,-1,1840,344,0,0
623,680,0,0,0,0,0,0,0,0,0,-1,1847,344,0,0
630,680,0,0,0,0,0,0,0,0,0,-1,1854,344,0,0
637,680,0,0,0,0,0,0,0,0,0,-1,1861,344,0,0
644,680,0,0,0,0,0,0,0,0,0,-1,1868,344,0,0
651,680,0,0,0,0,0,0,0,0,0,-1,1875,344,0,0
658,680,0,0,0,0,0,0,0,0,0,-1,1882,344,0,0
665,680,0,0,0,0,0,0,0,0,0,-1,1889,344,0,0
672,680,0,0,0,0,0,0,0,0,0,-1,1896,344,0,0
679,680,0,0,0,0,0,0,0,0,0,-1,1903,344,0,0
686,680,0,0,0,0,0,0,0,0,0,-1,1910,344,0,0
693,680,0,0,0,0,0,0,0,0,0,-1,1917,344,0,0
700,680,0,0,0,0,0,0,0,0,0,-1,1924,344,0,0
707,680,0,0,0,0,0,0,0,0,0,-1,1931,344,0,0
714,680,0,0,0,0,0,0,0,0,0,-1,1938,344,0,0
721,680,0,0,0,0,0,0,0,0,0,-1,1945,344,0,0
728,680,0,0,0,0,0,0,0,0,0,-1,1952,344,0,0
735,680,0,0,0,0,0,0,0,0,0,-1,1959,344,0,0
742,680,0,0,0,0,0,0,0,0,0,-1,1966,344,0,0
749,680,0,0,0,0,0,0,0,0,0,-1,1973,344,0,0
756,680,0,0,0,0,0,0,0,0,0,-1,1980,344,0,0
763,680,0,0,0,0,0,0,0,0,0,-1,1987,344,0,0
770,680,0,0,0,0,0,0,0,0,0,-1,1994,344,0,0
777,680,0,0,0,0,0,0,0,0,0,-1,2001,344,0,0
784,680,0,0,0,0,0,0,0,0,0,-1,2008,344,0,0
791,680,0,0,0,0,0,0,0,0,0,-1,2015,344,0,0
798,680,0,0,0,0,0,0,0,0,0,-1,2022,344,0,0
805,680,0,0,0,0,0,0,0,0,0,-1,2029,344,0,0
812,680,0,0,0,0,0,0,0,0,0,-1,2036,344,0,0
-700,673,0,0,0,0,0,0,0,0,0,-1,524,351,0,0
-693,673,0,0,0,0,0,0,0,0,0,-1,531,351,0,0
-686,673,0,0,0,0,0,0,0,0,0,-1,538,351,0,0
-679,673,0,0,0,0,0,0,0,0,0,-1,545,351,0,0
-672,673,0,0,0,0,0,0,0,0,0,-1,552,351,0,0
-665,673,0,0,0,0,0,0,0,0,0,-1,559,351,0,0
-658,673,0,0,0,0,0,0,0,0,0,-1,566,351,0,0
-651,673,0,0,0,0,0,0,0,0,0,-1,573,351,0,0
-644,673,0,0,0,0,0,0,0,0,0,-1,580,351,0,0
-637,673,0,0,0,0,0,0,0,0,0,-1,587,351,0,0
-630,673,0,0,0,0,0,0,0,0,0,-1,594,351,0,0
-623,673,0,0,0,0,0,0,0,0,0,-1,601,351,0,0
-616,673,0,0,0,0,0,0,0,0,0,-1,608,351,0,0
-609,673,0,0,0,0,0,0,0,0,0,-1,615,351,0,0
-602,673,0,0,0,0,0,0,0,0,0,-1,622,351,0,0
-595,673,0,0,0,0,0,0,0,0,0,-1,629,351,0,0
-588,673,0,0,0,0,0,0,0,0,0,-1,636,351,0,0
-581,673,0,0,0,0,0,0,0,0,0,-1,643,351,0,0
-574,673,0,0,0,0,0,0,0,0,0,-1,650,351,0,0
-567,673,0,0,0,0,0,0,0,0,0,-1,657,351,0,0
-560,673,0,0,0,0,0,0,0,0,0,-1,664,351,0,0
-553,673,0,0,0,0,0,0,0,0,0,-1,671,351,0,0
-546,673,0,0,0,0,0,0,0,0,0,-1,678,351,0,0
-539,673,0,0,0,0,0,0,0,0,0,-1,685,351,0,0
-532,673,0,0,0,0,0,0,0,0,0,-1,692,351,0,0
-525,673,0,0,0,0,0,0,0,0,0,-1,699,351,0,0
-518,673,0,0,0,0,0,0,0,0,0,-1,706,351,0,0
-511,673,0,0,0,0,0,0,0,0,0,-1,713,351,0,0
-504,673,0,0,0,0,0,0,0,0,0,-1,720,351,0,0
-497,673,0,0,0,0,0,0,0,0,0,-1,727,351,0,0
-490,673,0,0,0,0,0,0,0,0,0,-1,734,351,0,0
-483,673,0,0,0,0,0,0,0,0,0,-1,741,351,0,0
-476,673,0,0,0,0,0,0,0,0,0,-1,748,351,0,0
-469,673,0,0,0,0,0,0,0,0,0,-1,755,351,0,0
-462,673,0,0,0,0,0,0,0,0,0,-1,762,351,0,0
-455,673,0,0,0,0,0,0,0,0,0,-1,769,351,0,0
-448,673,0,0,0,0,0,0,0,0,0,-1,776,351,0,0
-441,673,0,0,0,0,0,0,0,0,0,-1,783,351,0,0
-434,673,0,0,0,0,0,0,0,0,0,-1,790,351,0,0
-427,673,0,0,0,0,0,0,0,0,0,-1,797,351,0,0
-420,673,0,0,0,0,0,0,0,0,0,-1,804,351,0,0
-413,673,0,0,0,0,0,0,0,0,0,-1,811,351,0,0
-406,673,0,0,0,0,0,0,0,0,0,-1,818,351,0,0
-399,673,0,0,0,0,0,0,0,0,0,-1,825,351,0,0
-392,673,0,0,0,0,0,0,0,0,0,-1,832,351,0,0
-385,673,0,0,0,0,0,0,0,0,0,-1,839,351,0,0
-378,673,0,0,0,0,0,0,0,0,0,-1,846,351,0,0
-371,673,0,0,0,0,0,0,0,0,0,-1,853,351,0,0
-364,673,0,0,0,0,0,0,0,0,0,-1,860,351,0,0
-357,673,0,0,0,0,0,0,0,0,0,-1,867,351,0,0
-350,673,0,0,0,0,0,0,0,0,0,-1,874,351,0,0
-343,673,0,0,0,0,0,0,0,0,0,-1,881,351,0,0
-336,673,0,0,0,0,0,0,0,0,0,-1,888,351,0,0
-329,673,0,0,0,0,0,0,0,0,0,-1,895,351,0,0
-322,673,0,0,0,0,0,0,0,0,0,-1,902,351,0,0
-315,673,0,0,0,0,0,0,0,0,0,-1,909,351,0,0
-308,673,0,0,0,0,0,0,0,0,0,-1,916,351,0,0
-301,673,0,0,0,0,0,0,0,0,0,-1,923,351,0,0
-294,673,0,0,0,0,0,0,0,0,0,-1,930,351,0,0
-287,673,0,0,0,0,0,0,0,0,0,-1,937,351,0,0
-280,673,0,0,0,0,0,0,0,0,0,-1,944,351,0,0
-273,673,0,0,0,0,0,0,0,0,0,-1,951,351,0,0
-266,673,0,0,0,0,0,0,0,0,0,-1,958,351,0,0
-259,673,0,0,0,0,0,0,0,0,0,-1,965,351,0,0
-252,673,0,0,0,0,0,0,0,0,0,-1,972,351,0,0
-245,673,0,0,0,0,0,0,0,0,0,-1,979,351,0,0
-238,673,0,0,0,0,0,0,0,0,0,-1,986,351,0,0
-231,673,0,0,0,0,0,0,0,0,0,-1,993,351,0,0
-224,673,0,0,0,0,0,0,0,0,0,-1,1000,351,0,0
-217,673,0,0,0,0,0,0,0,0,0,-1,1007,351,0,0
-210,673,0,0,0,0,0,0,0,0,0,-1,1014,351,0,0
-203,673,0,0,0,0,0,0,0,0,0,-1,1021,351,0,0
-196,673,0,0,0,0,0,0,0,0,0,-1,1028,351,0,0
-189,673,0,0,0,0,0,0,0,0,0,-1,1035,351,0,0
-182,673,0,0,0,0,0,0,0,0,0,-1,1042,351,0,0
-175,673,7.10449,-31.8279,0,0,0,0,0,0,0,-1,1049,351,7.10448,31.8279
-168,673,7.33081,-32.7122,0,0,0,0,0,0,0,-1,1056,351,7.33085,32.7122
-161,673,7.8938,-33.5352,0,0,0,0,0,0,0,-1,1063,351,7.89385,33.5352
-154,673,8.80566,-35.3518,0,0,0,0,0,0,0,-1,1070,351,8.80563,35.3518
-147,673,2.89221,-37.7351,0,0,0,0,0,0,0,-1,1077,351,2.89224,37.7351
-140,673,3.35046,-37.7151,0,0,0,0,0,0,0,-1,1084,351,3.35046,37.715
-133,673,3.35339,-39.0288,0,0,0,0,0,0,0,-1,1091,351,3.35342,39.0288
-126,673,3.7533,-38.0453,0,0,0,0,0,0,0,-1,1098,351,3.7533,38.0453
-119,673,4.1532,-37.0618,0,0,0,0,0,0,0,-1,1105,351,4.15318,37.0618
-112,673,7.27234,-32.5801,0,0,0,0,0,0,0,-1,1112,351,7.27231,32.5801
-105,673,21.1144,-43.3143,0,0,0,0,0,0,0,-1,1119,351,21.1143,43.3143
-98,673,14.8014,-36.7519,0,0,0,0,0,0,0,-1,1126,351,14.8014,36.7519
-91,673,8.54944,-29.9639,0,0,0,0,0,0,0,-1,1133,351,8.54949,29.9639
-84,673,2.17102,-24.3204,0,0,0,0,0,0,0,-1,1140,351,2.17107,24.3204
-77,673,-4.25378,-18.8346,0,0,0,0,0,0,0,-1,1147,351,-4.25381,18.8346
-70,673,-10.7933,-13.6681,0,0,0,0,0,0,0,-1,1154,351,-10.7934,13.6681
-63,673,-17.3896,-8.24469,0,0,0,0,0,0,0,-1,1161,351,-17.3896,8.2447
-56,673,-18.0282,2.79053,0,0,0,0,0,0,0,-1,1168,351,-18.0283,-2.79052
-49,673,-0.926758,-0.115448,0,0,0,0,0,0,0,-1,1175,351,-0.926732,0.115444
-42,673,-1.15015,0.289917,0,0,0,0,0,0,0,-1,1182,351,-1.15017,-0.289932
-35,673,-0.919556,-1.00711,0,0,0,0,0,0,0,-1,1189,351,-0.919514,1.00711
-28,673,5.28918,-39.2331,0,0,0,0,0,0,0,-1,1196,351,5.28924,39.2331
-21,673,10.3319,-70.0951,0,0,0,0,0,0,0,-1,1203,351,10.3319,70.095
-14,673,9.4812,-70.1477,0,0,0,0,0,0,0,-1,1210,351,9.48117,70.1477
-7,673,9.69189,-70.5858,0,0,0,0,0,0,0,-1,1217,351,9.69193,70.5859
0,673,9.67566,-71.3701,0,0,0,0,0,0,0,-1,1224,351,9.67569,71.3701
7,673,9.50464,-71.389,0,0,0,0,0,0,0,-1,1231,351,9.50463,71.389
14,673,9.76099,-71.2448,0.011392,0.122974,0.0154288,0.125068,0.00929794,1.43589,0.0804588,0.0487313,1238,351,9.76104,71.2448
21,673,9.43274,-71.7407,0.00975102,0.124844,0.0187025,0.127807,0.00678816,1.41368,0.0830346,0.03674,1245,351,9.43274,71.7407
28,673,9.41199,-71.9643,0.00817699,0.12653,0.0219125,0.130457,0.00425028,1.39348,0.0855897,0.0347849,1252,351,9.41203,71.9643
35,673,9.31274,-72.0278,0,0,0,0,0,0,0,-1,1259,351,9.3128,72.0278
42,673,8.953,-72.079,0.00139381,0.122182,0.0216292,0.125938,-0.00236245,1.39884,0.0847572,0.0446878,1266,351,8.95298,72.079
49,673,8.67773,-72.2609,-0.00313629,0.116317,0.0185443,0.119129,-0.00594895,1.42027,0.081475,0.0281503,1273,351,8.67774,72.2609
56,673,8.68262,-72.3051,-0.00862551,0.108847,0.0116765,0.109996,-0.00977489,1.47268,0.0767966,0.0206427,1280,351,8.6826,72.3051
63,673,8.72986,-72.0369,-0.0137127,0.100849,0.00423214,0.101005,-0.0138688,1.53392,0.0724035,0.0241522,1287,351,8.72981,72.0369
70,673,8.65796,-71.9736,-0.0191227,0.0924739,-0.00456072,0.09266,-0.0193087,-1.53002,0.0691145,0.0364552,1294,351,8.65796,71.9736
77,673,8.68091,-71.8729,-0.02431,0.0838293,-0.0140048,0.0856136,-0.0260943,-1.44407,0.0674772,0.0424259,1301,351,8.68089,71.8729
84,673,8.39429,-72.1495,-0.0292814,0.0760828,-0.0234736,0.0810758,-0.0342744,-1.36121,0.0684003,0.0471973,1308,351,8.39434,72.1495
91,673,8.18079,-72.4758,0,0,0,0,0,0,0,-1,1315,351,8.18084,72.4758
98,673,7.87073,-72.4541,0,0,0,0,0,0,0,-1,1322,351,7.87075,72.4541
105,673,7.50452,-72.1153,0,0,0,0,0,0,0,-1,1329,351,7.50456,72.1153
112,673,13.9349,-55.0808,0,0,0,0,0,0,0,-1,1336,351,13.935,55.0808
119,673,14.3943,-53.0535,0,0,0,0,0,0,0,-1,1343,351,14.3943,53.0535
126,673,14.855,-51.075,0,0,0,0,0,0,0,-1,1350,351,14.855,51.0751
133,673,13.9481,-47.7769,0,0,0,0,0,0,0,-1,1357,351,13.9482,47.7769
140,673,6.94092,-70.6981,0,0,0,0,0,0,0,-1,1364,351,6.94092,70.6981
147,673,6.7063,-70.1999,0,0,0,0,0,0,0,-1,1371,351,6.70632,70.1999
154,673,6.80383,-69.081,0,0,0,0,0,0,0,-1,1378,351,6.80389,69.081
161,673,6.57654,-68.4184,0,0,0,0,0,0,0,-1,1385,351,6.57657,68.4184
168,673,6.87061,1.83954,0,0,0,0,0,0,0,-1,1392,351,6.87063,-1.83953
175,673,6.6228,1.1459,0,0,0,0,0,0,0,-1,1399,351,6.62276,-1.14591
182,673,6.37244,0.796112,0,0,0,0,0,0,0,-1,1406,351,6.3724,-0.796102
189,673,6.12097,0.265472,0,0,0,0,0,0,0,-1,1413,351,6.121,-0.265482
196,673,6.02173,3.12717,0,0,0,0,0,0,0,-1,1420,351,6.02176,-3.12717
203,673,5.04456,1.6351,0,0,0,0,0,0,0,-1,1427,351,5.04455,-1.63509
210,673,4.79224,0.447479,0,0,0,0,0,0,0,-1,1434,351,4.79229,-0.447469
217,673,2.01648,0.972687,0,0,0,0,0,0,0,-1,1441,351,2.01644,-0.972691
224,673,2.3689,-1.80539,0,0,0,0,0,0,0,-1,1448,351,2.36896,1.80539
231,673,2.65857,-2.18497,0,0,0,0,0,0,0,-1,1455,351,2.65852,2.18496
238,673,3.77844,-2.06088,0,0,0,0,0,0,0,-1,1462,351,3.77839,2.06088
245,673,3.5376,-0.190399,0,0,0,0,0,0,0,-1,1469,351,3.53759,0.1904
252,673,3.80518,0.55603,0,0,0,0,0,0,0,-1,1476,351,3.80519,-0.556022
259,673,3.88562,1.29617,0,0,0,0,0,0,0,-1,1483,351,3.88562,-1.29618
266,673,4.22424,2.04834,0,0,0,0,0,0,0,-1,1490,351,4.22429,-2.04834
273,673,6.07886,0.385895,0,0,0,0,0,0,0,-1,1497,351,6.0789,-0.385906
280,673,6.97534,-0.0820007,0,0,0,0,0,0,0,-1,1504,351,6.97536,0.0820122
287,673,7.66968,-0.348541,0,0,0,0,0,0,0,-1,1511,351,7.66969,0.348534
294,673,8.20996,0.28537,0,0,0,0,0,0,0,-1,1518,351,8.20993,-0.28536
301,673,0,0,0,0,0,0,0,0,0,-1,1525,351,0,0
308,673,0,0,0,0,0,0,0,0,0,-1,1532,351,0,0
315,673,0,0,0,0,0,0,0,0,0,-1,1539,351,0,0
322,673,0,0,0,0,0,0,0,0,0,-1,1546,351,0,0
329,673,0,0,0,0,0,0,0,0,0,-1,1553,351,0,0
336,673,0,0,0,0,0,0,0,0,0,-1,1560,351,0,0
343,673,0,0,0,0,0,0,0,0,0,-1,1567,351,0,0
350,673,0,0,0,0,0,0,0,0,0,-1,1574,351,0,0
357,673,0,0,0,0,0,0,0,0,0,-1,1581,351,0,0
364,673,0,0,0,0,0,0,0,0,0,-1,1588,351,0,0
371,673,0,0,0,0,0,0,0,0,0,-1,1595,351,0,0
378,673,0,0,0,0,0,0,0,0,0,-1,1602,351,0,0
385,673,0,0,0,0,0,0,0,0,0,-1,1609,351,0,0
392,673,0,0,0,0,0,0,0,0,0,-1,1616,351,0,0
399,673,0,0,0,0,0,0,0,0,0,-1,1623,351,0,0
406,673,0,0,0,0,0,0,0,0,0,-1,1630,351,0,0
413,673,0,0,0,0,0,0,0,0,0,-1,1637,351,0,0
420,673,0,0,0,0,0,0,0,0,0,-1,1644,351,0,0
427,673,0,0,0,0,0,0,0,0,0,-1,1651,351,0,0
434,673,0,0,0,0,0,0,0,0,0,-1,1658,351,0,0
441,673,0,0,0,0,0,0,0,0,0,-1,1665,351,0,0
448,673,0,0,0,0,0,0,0,0,0,-1,1672,351,0,0
455,673,0,0,0,0,0,0,0,0,0,-1,1679,351,0,0
462,673,0,0,0,0,0,0,0,0,0,-1,1686,351,0,0
469,673,0,0,0,0,0,0,0,0,0,-1,1693,351,0,0
476,673,0,0,0,0,0,0,0,0,0,-1,1700,351,0,0
483,673,0,0,0,0,0,0,0,0,0,-1,1707,351,0,0
490,673,0,0,0,0,0,0,0,0,0,-1,1714,351,0,0
497,673,0,0,0,0,0,0,0,0,0,-1,1721,351,0,0
504,673,0,0,0,0,0,0,0,0,0,-1,1728,351,0,0
511,673,0,0,0,0,0,0,0,0,0,-1,1735,351,0,0
518,673,0,0,0,0,0,0,0,0,0,-1,1742,351,0,0
525,673,0,0,0,0,0,0,0,0,0,-1,1749,351,0,0
532,673,0,0,0,0,0,0,0,0,0,-1,1756,351,0,0
539,673,0,0,0,0,0,0,0,0,0,-1,1763,351,0,0
546,673,0,0,0,0,0,0,0,0,0,-1,1770,351,0,0
553,673,0,0,0,0,0,0,0,0,0,-1,1777,351,0,0
560,673,0,0,0,0,0,0,0,0,0,-1,1784,351,0,0
567,673,0,0,0,0,0,0,0,0,0,-1,1791,351,0,0
574,673,0,0,0,0,0,0,0,0,0,-1,1798,351,0,0
581,673,0,0,0,0,0,0,0,0,0,-1,1805,351,0,0
588,673,0,0,0,0,0,0,0,0,0,-1,1812,351,0,0
595,673,0,0,0,0,0,0,0,0,0,-1,1819,351,0,0
602,673,0,0,0,0,0,0,0,0,0,-1,1826,351,0,0
609,673,0,0,0,0,0,0,0,0,0,-1,1833,351,0,0
616,673,0,0,0,0,0,0,0,0,0,-1,1840,351,0,0
623,673,0,0,0,0,0,0,0,0,0,-1,1847,351,0,0
630,673,0,0,0,0,0,0,0,0,0,-1,1854,351,0,0
637,673,0,0,0,0,0,0,0,0,0,-1,1861,351,0,0
644,673,0,0,0,0,0,0,0,0,0,-1,1868,351,0,0
651,673,0,0,0,0,0,0,0,0,0,-1,1875,351,0,0
658,673,0,0,0,0,0,0,0,0,0,-1,1882,351,0,0
665,673,0,0,0,0,0,0,0,0,0,-1,1889,351,0,0
672,673,0,0,0,0,0,0,0,0,0,-1,1896,351,0,0
679,673,0,0,0,0,0,0,0,0,0,-1,1903,351,0,0
686,673,0,0,0,0,0,0,0,0,0,-1,1910,351,0,0
693,673,0,0,0,0,0,0,0,0,0,-1,1917,351,0,0
700,673,0,0,0,0,0,0,0,0,0,-1,1924,351,0,0
707,673,0,0,0,0,0,0,0,0,0,-1,1931,351,0,0
714,673,0,0,0,0,0,0,0,0,0,-1,1938,351,0,0
721,673,0,0,0,0,0,0,0,0,0,-1,1945,351,0,0
728,673,0,0,0,0,0,0,0,0,0,-1,1952,351,0,0
735,673,0,0,0,0,0,0,0,0,0,-1,1959,351,0,0
742,673,0,0,0,0,0,0,0,0,0,-1,1966,351,0,0
749,673,0,0,0,0,0,0,0,0,0,-1,1973,351,0,0
756,673,0,0,0,0,0,0,0,0,0,-1,1980,351,0,0
763,673,0,0,0,0,0,0,0,0,0,-1,1987,351,0,0
770,673,0,0,0,0,0,0,0,0,0,-1,1994,351,0,0
777,673,0,0,0,0,0,0,0,0,0,-1,2001,351,0,0
784,673,0,0,0,0,0,0,0,0,0,-1,2008,351,0,0
791,673,0,0,0,0,0,0,0,0,0,-1,2015,351,0,0
798,673,0,0,0,0,0,0,0,0,0,-1,2022,351,0,0
805,673,0,0,0,0,0,0,0,0,0,-1,2029,351,0,0
812,673,0,0,0,0,0,0,0,0,0,-1,2036,351,0,0
-700,666,0,0,0,0,0,0,0,0,0,-1,524,358,0,0
-693,666,0,0,0,0,0,0,0,0,0,-1,531,358,0,0
-686,666,0,0,0,0,0,0,0,0,0,-1,538,358,0,0
-679,666,0,0,0,0,0,0,0,0,0,-1,545,358,0,0
-672,666,0,0,0,0,0,0,0,0,0,-1,552,358,0,0
-665,666,0,0,0,0,0,0,0,0,0,-1,559,358,0,0
-658,666,0,0,0,0,0,0,0,0,0,-1,566,358,0,0
-651,666,0,0,0,0,0,0,0,0,0,-1,573,358,0,0
-644,666,0,0,0,0,0,0,0,0,0,-1,580,358,0,0
-637,666,0,0,0,0,0,0,0,0,0,-1,587,358,0,0
-630,666,0,0,0,0,0,0,0,0,0,-1,594,358,0,0
-623,666,0,0,0,0,0,0,0,0,0,-1,601,358,0,0
-616,666,0,0,0,0,0,0,0,0,0,-1,608,358,0,0
-609,666,0,0,0,0,0,0,0,0,0,-1,615,358,0,0
-602,666,0,0,0,0,0,0,0,0,0,-1,622,358,0,0
-595,666,0,0,0,0,0,0,0,0,0,-1,629,358,0,0
-588,666,0,0,0,0,0,0,0,0,0,-1,636,358,0,0
-581,666,0,0,0,0,0,0,0,0,0,-1,643,358,0,0
-574,666,0,0,0,0,0,0,0,0,0,-1,650,358,0,0
-567,666,0,0,0,0,0,0,0,0,0,-1,657,358,0,0
-560,666,0,0,0,0,0,0,0,0,0,-1,664,358,0,0
-553,666,0,0,0,0,0,0,0,0,0,-1,671,358,0,0
-546,666,0,0,0,0,0,0,0,0,0,-1,678,358,0,0
-539,666,0,0,0,0,0,0,0,0,0,-1,685,358,0,0
-532,666,0,0,0,0,0,0,0,0,0,-1,692,358,0,0
-525,666,0,0,0,0,0,0,0,0,0,-1,699,358,0,0
-518,666,0,0,0,0,0,0,0,0,0,-1,706,358,0,0
-511,666,0,0,0,0,0,0,0,0,0,-1,713,358,0,0
-504,666,0,0,0,0,0,0,0,0,0,-1,720,358,0,0
-497,666,0,0,0,0,0,0,0,0,0,-1,727,358,0,0
-490,666,0,0,0,0,0,0,0,0,0,-1,734,358,0,0
-483,666,0,0,0,0,0,0,0,0,0,-1,741,358,0,0
-476,666,0,0,0,0,0,0,0,0,0,-1,748,358,0,0
-469,666,0,0,0,0,0,0,0,0,0,-1,755,358,0,0
-462,666,0,0,0,0,0,0,0,0,0,-1,762,358,0,0
-455,666,0,0,0,0,0,0,0,0,0,-1,769,358,0,0
-448,666,0,0,0,0,0,0,0,0,0,-1,776,358,0,0
-441,666,0,0,0,0,0,0,0,0,0,-1,783,358,0,0
-434,666,0,0,0,0,0,0,0,0,0,-1,790,358,0,0
-427,666,0,0,0,0,0,0,0,0,0,-1,797,358,0,0
-420,666,0,0,0,0,0,0,0,0,0,-1,804,358,0,0
-413,666,0,0,0,0,0,0,0,0,0,-1,811,358,0,0
-406,666,0,0,0,0,0,0,0,0,0,-1,818,358,0,0
-399,666,0,0,0,0,0,0,0,0,0,-1,825,358,0,0
-392,666,0,0,0,0,0,0,0,0,0,-1,832,358,0,0
-385,666,0,0,0,0,0,0,0,0,0,-1,839,358,0,0
-378,666,0,0,0,0,0,0,0,0,0,-1,846,358,0,0
-371,666,0,0,0,0,0,0,0,0,0,-1,853,358,0,0
-364,666,0,0,0,0,0,0,0,0,0,-1,860,358,0,0
-357,666,0,0,0,0,0,0,0,0,0,-1,867,358,0,0
-350,666,0,0,0,0,0,0,0,0,0,-1,874,358,0,0
-343,666,0,0,0,0,0,0,0,0,0,-1,881,358,0,0
-336,666,0,0,0,0,0,0,0,0,0,-1,888,358,0,0
-329,666,0,0,0,0,0,0,0,0,0,-1,895,358,0,0
-322,666,0,0,0,0,0,0,0,0,0,-1,902,358,0,0
-315,666,0,0,0,0,0,0,0,0,0,-1,909,358,0,0
-308,666,0,0,0,0,0,0,0,0,0,-1,916,358,0,0
-301,666,0,0,0,0,0,0,0,0,0,-1,923,358,0,0
-294,666,0,0,0,0,0,0,0,0,0,-1,930,358,0,0
-287,666,0,0,0,0,0,0,0,0,0,-1,937,358,0,0
-280,666,0,0,0,0,0,0,0,0,0,-1,944,358,0,0
-273,666,0,0,0,0,0,0,0,0,0,-1,951,358,0,0
-266,666,0,0,0,0,0,0,0,0,0,-1,958,358,0,0
-259,666,0,0,0,0,0,0,0,0,0,-1,965,358,0,0
-252,666,0,0,0,0,0,0,0,0,0,-1,972,358,0,0
-245,666,0,0,0,0,0,0,0,0,0,-1,979,358,0,0
-238,666,0,0,0,0,0,0,0,0,0,-1,986,358,0,0
-231,666,0,0,0,0,0,0,0,0,0,-1,993,358,0,0
-224,666,0,0,0,0,0,0,0,0,0,-1,1000,358,0,0
-217,666,0,0,0,0,0,0,0,0,0,-1,1007,358,0,0
-210,666,0,0,0,0,0,0,0,0,0,-1,1014,358,0,0
-203,666,0,0,0,0,0,0,0,0,0,-1,1021,358,0,0
-196,666,4.03418,-28.8724,0,0,0,0,0,0,0,-1,1028,358,4.03422,28.8724
-189,666,5.00366,-29.597,0,0,0,0,0,0,0,-1,1035,358,5.00363,29.597
-182,666,6.83252,-30.9843,0,0,0,0,0,0,0,-1,1042,358,6.83247,30.9844
-175,666,7.01611,-31.8763,0,0,0,0,0,0,0,-1,1049,358,7.01617,31.8762
-168,666,7.21545,-32.7414,0,0,0,0,0,0,0,-1,1056,358,7.2154,32.7414
-161,666,7.69116,-33.6269,0,0,0,0,0,0,0,-1,1063,358,7.69121,33.6269
-154,666,3.79041,-37.9204,0,0,0,0,0,0,0,-1,1070,358,3.79034,37.9204
-147,666,4.17908,-37.7466,0,0,0,0,0,0,0,-1,1077,358,4.17912,37.7466
-140,666,4.54309,-37.735,0,0,0,0,0,0,0,-1,1084,358,4.54304,37.735
-133,666,4.65723,-39.0643,0,0,0,0,0,0,0,-1,1091,358,4.65727,39.0643
-126,666,5.02368,-38.0699,0,0,0,0,0,0,0,-1,1098,358,5.02363,38.0698
-119,666,5.39001,-37.0754,0,0,0,0,0,0,0,-1,1105,358,5.38999,37.0754
-112,666,6.77014,-32.8165,0,0,0,0,0,0,0,-1,1112,358,6.77013,32.8165
-105,666,6.30908,-29.0855,0,0,0,0,0,0,0,-1,1119,358,6.30905,29.0855
-98,666,15.4427,-31.5168,0,0,0,0,0,0,0,-1,1126,358,15.4428,31.5168
-91,666,9.5127,-25.1347,0,0,0,0,0,0,0,-1,1133,358,9.51269,25.1347
-84,666,2.91589,-19.4071,0,0,0,0,0,0,0,-1,1140,358,2.91592,19.4071
-77,666,-3.48083,-14.0782,0,0,0,0,0,0,0,-1,1147,358,-3.48081,14.0782
-70,666,-9.99438,-8.90146,0,0,0,0,0,0,0,-1,1154,358,-9.99433,8.90146
-63,666,-11.7778,-0.975189,0,0,0,0,0,0,0,-1,1161,358,-11.7778,0.97519
-56,666,0.424683,-2.04132,0,0,0,0,0,0,0,-1,1168,358,0.424665,2.04132
-49,666,0.754395,-2.23169,0,0,0,0,0,0,0,-1,1175,358,0.754383,2.23169
-42,666,1.34473,-3.53897,0,0,0,0,0,0,0,-1,1182,358,1.34476,3.53896
-35,666,9.92053,-70.4256,0,0,0,0,0,0,0,-1,1189,358,9.92052,70.4256
-28,666,10.0483,-70.5828,0,0,0,0,0,0,0,-1,1196,358,10.0483,70.5828
-21,666,9.95996,-70.6237,0.00804083,0.0809757,-0.000709191,0.0809826,0.00803393,-1.56107,0.0515196,0.0454568,1203,358,9.95994,70.6238
-14,666,9.70654,-70.9536,0.00796478,0.0834425,4.73826e-05,0.0834425,0.00796475,1.57017,0.0531726,0.0439836,1210,358,9.70648,70.9536
-7,666,9.5531,-71.3248,0.00846825,0.0839718,0.00205374,0.0840276,0.00841242,1.54362,0.0534354,0.0283884,1217,358,9.55313,71.3248
0,666,9.51172,-71.6891,0.00832952,0.0902065,0.00590354,0.09063,0.00790605,1.49919,0.0579647,0.0183841,1224,358,9.51169,71.689
7,666,9.39355,-71.8206,0.00782604,0.0919978,0.00846498,0.0928407,0.00698318,1.47155,0.0597024,0.0246833,1231,358,9.39352,71.8206
14,666,9.28906,-71.9213,0.00642621,0.0933181,0.0102543,0.0945119,0.00523246,1.4549,0.0613382,0.022536,1238,358,9.28907,71.9213
21,666,9.18848,-72.2583,0.005126,0.0946423,0.0123626,0.0963183,0.00345006,1.43605,0.0630936,0.0180207,1245,358,9.18852,72.2583
28,666,9.11194,-72.4839,0.00387684,0.095655,0.0144125,0.0978651,0.00166676,1.41864,0.0646949,0.0240073,1252,358,9.11193,72.4839
35,666,9.08337,-72.5002,0.00170487,0.0947279,0.0146135,0.0969696,-0.000536826,1.41858,0.0648261,0.0220635,1259,358,9.08339,72.5002
42,666,8.88159,-72.6111,-0.0011034,0.0923333,0.0141067,0.0944166,-0.00318673,1.42417,0.0640331,0.0191649,1266,358,8.88158,72.6111
49,666,8.72705,-72.7065,-0.00443334,0.0879929,0.0119028,0.0895011,-0.0059416,1.44475,0.0617433,0.019182,1273,358,8.72701,72.7065
56,666,8.71375,-72.7791,-0.00835595,0.0826297,0.00693838,0.0831558,-0.00888202,1.49512,0.0586226,0.0198319,1280,358,8.71371,72.7791
63,666,8.58386,-72.9818,0,0,0,0,0,0,0,-1,1287,358,8.58382,72.9818
70,666,8.46301,-73.0469,0,0,0,0,0,0,0,-1,1294,358,8.46305,73.0469
77,666,8.5022,-72.66,-0.0192367,0.0648161,-0.0109571,0.066221,-0.0206416,-1.44328,0.052401,0.0224006,1301,358,8.50215,72.66
84,666,8.41846,-72.6515,-0.0227598,0.0593044,-0.0175947,0.0629177,-0.026373,-1.36825,0.0529717,0.0303735,1308,358,8.4184,72.6515
91,666,8.22156,-72.7256,-0.0256452,0.0544536,-0.0233894,0.0607833,-0.0319748,-1.30651,0.054408,0.0267962,1315,358,8.22153,72.7255
98,666,8.0094,-72.6133,-0.0285511,0.0515579,-0.0287923,0.0608325,-0.0378257,-1.25917,0.0574742,0.023839,1322,358,8.00939,72.6133
105,666,7.82068,-72.3623,-0.0304105,0.0449023,-0.0340145,0.0579903,-0.0434985,-1.20348,0.0587933,0.0313301,1329,358,7.82073,72.3623
112,666,7.729,-72.1461,0,0,0,0,0,0,0,-1,1336,358,7.72898,72.146
119,666,7.71118,-71.9323,0,0,0,0,0,0,0,-1,1343,358,7.71121,71.9323
126,666,7.62146,-71.5884,0,0,0,0,0,0,0,-1,1350,358,7.62147,71.5884
133,666,7.43298,-71.3901,0,0,0,0,0,0,0,-1,1357,358,7.43302,71.3901
140,666,7.26599,-71.042,-0.0266624,0.0509193,-0.0253045,0.0584431,-0.0341863,-1.28179,0.0540874,0.046867,1364,358,7.26597,71.042
147,666,7.11487,-70.6758,-0.0245361,0.052889,-0.0201385,0.0578138,-0.029461,-1.33096,0.0512668,0.0349464,1371,358,7.11486,70.6758
154,666,7.04761,-69.998,-0.0223527,0.0547008,-0.0138258,0.0571065,-0.0247584,-1.39852,0.0484791,0.0298218,1378,358,7.04765,69.998
161,666,6.99927,-69.5485,-0.0194842,0.0526933,-0.00526626,0.0530756,-0.0198664,-1.49835,0.0435436,0.0392512,1385,358,6.99922,69.5485
168,666,6.93372,-69.5609,0,0,0,0,0,0,0,-1,1392,358,6.93368,69.5609
175,666,6.98669,-69.2263,0,0,0,0,0,0,0,-1,1399,358,6.98672,69.2263
182,666,2.60876,-5.17068,0,0,0,0,0,0,0,-1,1406,358,2.6088,5.17068
189,666,2.46973,-5.49979,0,0,0,0,0,0,0,-1,1413,358,2.46975,5.49979
196,666,2.32458,-5.23651,0,0,0,0,0,0,0,-1,1420,358,2.32461,5.23653
203,666,2.28064,-3.88004,0,0,0,0,0,0,0,-1,1427,358,2.28059,3.88003
210,666,3.02576,-5.83548,0,0,0,0,0,0,0,-1,1434,358,3.02581,5.83547
217,666,2.30444,-5.36011,0,0,0,0,0,0,0,-1,1441,358,2.30447,5.3601
224,666,1.82324,-6.03101,0,0,0,0,0,0,0,-1,1448,358,1.82322,6.031
231,666,2.29797,-10.1093,0,0,0,0,0,0,0,-1,1455,358,2.29801,10.1093
238,666,2.52429,-6.10568,0,0,0,0,0,0,0,-1,1462,358,2.52423,6.10567
245,666,4.53345,-1.38205,0,0,0,0,0,0,0,-1,1469,358,4.53349,1.38204
252,666,4.77405,-0.246979,0,0,0,0,0,0,0,-1,1476,358,4.77405,0.246993
259,666,4.83655,1.14087,0,0,0,0,0,0,0,-1,1483,358,4.83652,-1.14087
266,666,6.14148,0.749512,0,0,0,0,0,0,0,-1,1490,358,6.14144,-0.749519
273,666,3.17737,-33.7881,0,0,0,0,0,0,0,-1,1497,358,3.17735,33.7881
280,666,3.37268,-35.2123,0,0,0,0,0,0,0,-1,1504,358,3.37266,35.2123
287,666,-7.06934,-20.3464,0,0,0,0,0,0,0,-1,1511,358,-7.06933,20.3464
294,666,-2.11157,-23.2753,0,0,0,0,0,0,0,-1,1518,358,-2.11162,23.2753
301,666,-3.16162,-22.2271,0,0,0,0,0,0,0,-1,1525,358,-3.16161,22.2271
308,666,-4.24951,-20.9112,0,0,0,0,0,0,0,-1,1532,358,-4.24948,20.9112
315,666,-5.64954,-19.5784,0,0,0,0,0,0,0,-1,1539,358,-5.64959,19.5784
322,666,0,0,0,0,0,0,0,0,0,-1,1546,358,0,0
329,666,0,0,0,0,0,0,0,0,0,-1,1553,358,0,0
336,666,0,0,0,0,0,0,0,0,0,-1,1560,358,0,0
343,666,0,0,0,0,0,0,0,0,0,-1,1567,358,0,0
350,666,0,0,0,0,0,0,0,0,0,-1,1574,358,0,0
357,666,0,0,0,0,0,0,0,0,0,-1,1581,358,0,0
364,666,0,0,0,0,0,0,0,0,0,-1,1588,358,0,0
371,666,0,0,0,0,0,0,0,0,0,-1,1595,358,0,0
378,666,0,0,0,0,0,0,0,0,0,-1,1602,358,0,0
385,666,0,0,0,0,0,0,0,0,0,-1,1609,358,0,0
392,666,0,0,0,0,0,0,0,0,0,-1,1616,358,0,0
399,666,0,0,0,0,0,0,0,0,0,-1,1623,358,0,0
406,666,0,0,0,0,0,0,0,0,0,-1,1630,358,0,0
413,666,0,0,0,0,0,0,0,0,0,-1,1637,358,0,0
420,666,0,0,0,0,0,0,0,0,0,-1,1644,358,0,0
427,666,0,0,0,0,0,0,0,0,0,-1,1651,358,0,0
434,666,0,0,0,0,0,0,0,0,0,-1,1658,358,0,0
441,666,0,0,0,0,0,0,0,0,0,-1,1665,358,0,0
448,666,0,0,0,0,0,0,0,0,0,-1,1672,358,0,0
455,666,0,0,0,0,0,0,0,0,0,-1,1679,358,0,0
462,666,0,0,0,0,0,0,0,0,0,-1,1686,358,0,0
469,666,0,0,0,0,0,0,0,0,0,-1,1693,358,0,0
476,666,0,0,0,0,0,0,0,0,0,-1,1700,358,0,0
483,666,0,0,0,0,0,0,0,0,0,-1,1707,358,0,0
490,666,0,0,0,0,0,0,0,0,0,-1,1714,358,0,0
497,666,0,0,0,0,0,0,0,0,0,-1,1721,358,0,0
504,666,0,0,0,0,0,0,0,0,0,-1,1728,358,0,0
511,666,0,0,0,0,0,0,0,0,0,-1,1735,358,0,0
518,666,0,0,0,0,0,0,0,0,0,-1,1742,358,0,0
525,666,0,0,0,0,0,0,0,0,0,-1,1749,358,0,0
532,666,0,0,0,0,0,0,0,0,0,-1,1756,358,0,0
539,666,0,0,0,0,0,0,0,0,0,-1,1763,358,0,0
546,666,0,0,0,0,0,0,0,0,0,-1,1770,358,0,0
553,666,0,0,0,0,0,0,0,0,0,-1,1777,358,0,0
560,666,0,0,0,0,0,0,0,0,0,-1,1784,358,0,0
567,666,0,0,0,0,0,0,0,0,0,-1,1791,358,0,0
574,666,0,0,0,0,0,0,0,0,0,-1,1798,358,0,0
581,666,0,0,0,0,0,0,0,0,0,-1,1805,358,0,0
588,666,0,0,0,0,0,0,0,0,0,-1,1812,358,0,0
595,666,0,0,0,0,0,0,0,0,0,-1,1819,358,0,0
602,666,0,0,0,0,0,0,0,0,0,-1,1826,358,0,0
609,666,0,0,0,0,0,0,0,0,0,-1,1833,358,0,0
616,666,0,0,0,0,0,0,0,0,0,-1,1840,358,0,0
623,666,0,0,0,0,0,0,0,0,0,-1,1847,358,0,0
630,666,0,0,0,0,0,0,0,0,0,-1,1854,358,0,0
637,666,0,0,0,0,0,0,0,0,0,-1,1861,358,0,0
644,666,0,0,0,0,0,0,0,0,0,-1,1868,358,0,0
651,666,0,0,0,0,0,0,0,0,0,-1,1875,358,0,0
658,666,0,0,0,0,0,0,0,0,0,-1,1882,358,0,0
665,666,0,0,0,0,0,0,0,0,0,-1,1889,358,0,0
672,666,0,0,0,0,0,0,0,0,0,-1,1896,358,0,0
679,666,0,0,0,0,0,0,0,0,0,-1,1903,358,0,0
686,666,0,0,0,0,0,0,0,0,0,-1,1910,358,0,0
693,666,0,0,0,0,0,0,0,0,0,-1,1917,358,0,0
700,666,0,0,0,0,0,0,0,0,0,-1,1924,358,0,0
707,666,0,0,0,0,0,0,0,0,0,-1,1931,358,0,0
714,666,0,0,0,0,0,0,0,0,0,-1,1938,358,0,0
721,666,0,0,0,0,0,0,0,0,0,-1,1945,358,0,0
728,666,0,0,0,0,0,0,0,0,0,-1,1952,358,0,0
735,666,0,0,0,0,0,0,0,0,0,-1,1959,358,0,0
742,666,0,0,0,0,0,0,0,0,0,-1,1966,358,0,0
749,666,0,0,0,0,0,0,0,0,0,-1,1973,358,0,0
756,666,0,0,0,0,0,0,0,0,0,-1,1980,358,0,0
763,666,0,0,0,0,0,0,0,0,0,-1,1987,358,0,0
770,666,0,0,0,0,0,0,0,0,0,-1,1994,358,0,0
777,666,0,0,0,0,0,0,0,0,0,-1,2001,358,0,0
784,666,0,0,0,0,0,0,0,0,0,-1,2008,358,0,0
791,666,0,0,0,0,0,0,0,0,0,-1,2015,358,0,0
798,666,0,0,0,0,0,0,0,0,0,-1,2022,358,0,0
805,666,0,0,0,0,0,0,0,0,0,-1,2029,358,0,0
812,666,0,0,0,0,0,0,0,0,0,-1,2036,358,0,0
-700,659,0,0,0,0,0,0,0,0,0,-1,524,365,0,0
-693,659,0,0,0,0,0,0,0,0,0,-1,531,365,0,0
-686,659,0,0,0,0,0,0,0,0,0,-1,538,365,0,0
-679,659,0,0,0,0,0,0,0,0,0,-1,545,365,0,0
-672,659,0,0,0,0,0,0,0,0,0,-1,552,365,0,0
-665,659,0,0,0,0,0,0,0,0,0,-1,559,365,0,0
-658,659,0,0,0,0,0,0,0,0,0,-1,566,365,0,0
-651,659,0,0,0,0,0,0,0,0,0,-1,573,365,0,0
-644,659,0,0,0,0,0,0,0,0,0,-1,580,365,0,0
-637,659,0,0,0,0,0,0,0,0,0,-1,587,365,0,0
-630,659,0,0,0,0,0,0,0,0,0,-1,594,365,0,0
-623,659,0,0,0,0,0,0,0,0,0,-1,601,365,0,0
-616,659,0,0,0,0,0,0,0,0,0,-1,608,365,0,0
-609,659,0,0,0,0,0,0,0,0,0,-1,615,365,0,0
-602,659,0,0,0,0,0,0,0,0,0,-1,622,365,0,0
-595,659,0,0,0,0,0,0,0,0,0,-1,629,365,0,0
-588,659,0,0,0,0,0,0,0,0,0,-1,636,365,0,0
-581,659,0,0,0,0,0,0,0,0,0,-1,643,365,0,0
-574,659,0,0,0,0,0,0,0,0,0,-1,650,365,0,0
-567,659,0,0,0,0,0,0,0,0,0,-1,657,365,0,0
-560,659,0,0,0,0,0,0,0,0,0,-1,664,365,0,0
-553,659,0,0,0,0,0,0,0,0,0,-1,671,365,0,0
-546,659,0,0,0,0,0,0,0,0,0,-1,678,365,0,0
-539,659,0,0,0,0,0,0,0,0,0,-1,685,365,0,0
-532,659,0,0,0,0,0,0,0,0,0,-1,692,365,0,0
-525,659,0,0,0,0,0,0,0,0,0,-1,699,365,0,0
-518,659,0,0,0,0,0,0,0,0,0,-1,706,365,0,0
-511,659,0,0,0,0,0,0,0,0,0,-1,713,365,0,0
-504,659,0,0,0,0,0,0,0,0,0,-1,720,365,0,0
-497,659,0,0,0,0,0,0,0,0,0,-1,727,365,0,0
-490,659,0,0,0,0,0,0,0,0,0,-1,734,365,0,0
-483,659,0,0,0,0,0,0,0,0,0,-1,741,365,0,0
-476,659,0,0,0,0,0,0,0,0,0,-1,748,365,0,0
-469,659,0,0,0,0,0,0,0,0,0,-1,755,365,0,0
-462,659,0,0,0,0,0,0,0,0,0,-1,762,365,0,0
-455,659,0,0,0,0,0,0,0,0,0,-1,769,365,0,0
-448,659,0,0,0,0,0,0,0,0,0,-1,776,365,0,0
-441,659,0,0,0,0,0,0,0,0,0,-1,783,365,0,0
-434,659,0,0,0,0,0,0,0,0,0,-1,790,365,0,0
-427,659,0,0,0,0,0,0,0,0,0,-1,797,365,0,0
-420,659,0,0,0,0,0,0,0,0,0,-1,804,365,0,0
-413,659,0,0,0,0,0,0,0,0,0,-1,811,365,0,0
-406,659,0,0,0,0,0,0,0,0,0,-1,818,365,0,0
-399,659,0,0,0,0,0,0,0,0,0,-1,825,365,0,0
-392,659,0,0,0,0,0,0,0,0,0,-1,832,365,0,0
-385,659,0,0,0,0,0,0,0,0,0,-1,839,365,0,0
-378,659,0,0,0,0,0,0,0,0,0,-1,846,365,0,0
-371,659,0,0,0,0,0,0,0,0,0,-1,853,365,0,0
-364,659,0,0,0,0,0,0,0,0,0,-1,860,365,0,0
-357,659,0,0,0,0,0,0,0,0,0,-1,867,365,0,0
-350,659,0,0,0,0,0,0,0,0,0,-1,874,365,0,0
-343,659,0,0,0,0,0,0,0,0,0,-1,881,365,0,0
-336,659,0,0,0,0,0,0,0,0,0,-1,888,365,0,0
-329,659,0,0,0,0,0,0,0,0,0,-1,895,365,0,0
-322,659,0,0,0,0,0,0,0,0,0,-1,902,365,0,0
-315,659,0,0,0,0,0,0,0,0,0,-1,909,365,0,0
-308,659,0,0,0,0,0,0,0,0,0,-1,916,365,0,0
-301,659,0,0,0,0,0,0,0,0,0,-1,923,365,0,0
-294,659,0,0,0,0,0,0,0,0,0,-1,930,365,0,0
-287,659,0,0,0,0,0,0,0,0,0,-1,937,365,0,0
-280,659,0,0,0,0,0,0,0,0,0,-1,944,365,0,0
-273,659,0,0,0,0,0,0,0,0,0,-1,951,365,0,0
-266,659,0,0,0,0,0,0,0,0,0,-1,958,365,0,0
-259,659,0,0,0,0,0,0,0,0,0,-1,965,365,0,0
-252,659,0,0,0,0,0,0,0,0,0,-1,972,365,0,0
-245,659,0,0,0,0,0,0,0,0,0,-1,979,365,0,0
-238,659,0,0,0,0,0,0,0,0,0,-1,986,365,0,0
-231,659,0,0,0,0,0,0,0,0,0,-1,993,365,0,0
-224,659,0,0,0,0,0,0,0,0,0,-1,1000,365,0,0
-217,659,10.1305,-25.2622,0,0,0,0,0,0,0,-1,1007,365,10.1305,25.2622
-210,659,9.65643,-25.515,0,0,0,0,0,0,0,-1,1014,365,9.65642,25.515
-203,659,8.58911,-25.7432,0,0,0,0,0,0,0,-1,1021,365,8.58916,25.7432
-196,659,2.68323,-27.8121,0,0,0,0,0,0,0,-1,1028,365,2.6832,27.8121
-189,659,6.88049,-28.9412,0,0,0,0,0,0,0,-1,1035,365,6.88045,28.9412
-182,659,6.94189,-30.6316,0,0,0,0,0,0,0,-1,1042,365,6.94189,30.6316
-175,659,6.948,-32.0092,0,0,0,0,0,0,0,-1,1049,365,6.94798,32.0093
-168,659,7.1416,-32.7405,0,0,0,0,0,0,0,-1,1056,365,7.14157,32.7405
-161,659,7.57361,-33.7099,0,0,0,0,0,0,0,-1,1063,365,7.57355,33.7099
-154,659,7.71448,-34.8995,0,0,0,0,0,0,0,-1,1070,365,7.7145,34.8995
-147,659,5.46606,-37.758,0,0,0,0,0,0,0,-1,1077,365,5.46601,37.758
-140,659,5.7356,-37.755,0,0,0,0,0,0,0,-1,1084,365,5.73562,37.755
-133,659,5.91455,-37.9017,0,0,0,0,0,0,0,-1,1091,365,5.9146,37.9017
-126,659,6.31226,-37.9904,0,0,0,0,0,0,0,-1,1098,365,6.3122,37.9904
-119,659,6.26941,-35.0837,0,0,0,0,0,0,0,-1,1105,365,6.26943,35.0837
-112,659,6.24353,-35.0562,0,0,0,0,0,0,0,-1,1112,365,6.24349,35.0562
-105,659,5.38696,-30.5854,0,0,0,0,0,0,0,-1,1119,365,5.387,30.5854
-98,659,4.68042,-26.2438,0,0,0,0,0,0,0,-1,1126,365,4.68041,26.2438
-91,659,4.20776,-20.8654,0,0,0,0,0,0,0,-1,1133,365,4.20777,20.8654
-84,659,2.8584,-17.8303,0,0,0,0,0,0,0,-1,1140,365,2.85836,17.8303
-77,659,2.80139,-15.3457,0,0,0,0,0,0,0,-1,1147,365,2.80139,15.3457
-70,659,2.9353,-12.7028,0,0,0,0,0,0,0,-1,1154,365,2.93533,12.7028
-63,659,2.11267,-9.7796,0,0,0,0,0,0,0,-1,1161,365,2.11266,9.7796
-56,659,2.11182,-9.91541,0,0,0,0,0,0,0,-1,1168,365,2.11178,9.91541
-49,659,9.90332,-69.4622,0,0,0,0,0,0,0,-1,1175,365,9.90331,69.4622
-42,659,9.86487,-69.87,0,0,0,0,0,0,0,-1,1182,365,9.86487,69.87
-35,659,9.75708,-70.3225,0.00223309,0.0518979,-0.00212206,0.0519884,0.00214258,-1.52817,0.0339673,0.0427733,1189,365,9.75712,70.3225
-28,659,9.72705,-70.615,0.0031787,0.0555681,-0.00136999,0.0556039,0.0031429,-1.54467,0.0360673,0.0172538,1196,365,9.72701,70.615
-21,659,9.62585,-71.0107,0.00389284,0.0582886,-0.000787409,0.0583,0.00388145,-1.55632,0.0376396,0.0157043,1203,365,9.62585,71.0107
-14,659,9.49731,-71.3636,0.00414943,0.0606594,-0.000180521,0.06066,0.00414886,-1.5676,0.0391304,0.0142349,1210,365,9.49727,71.3636
-7,659,9.38098,-71.643,0.00456038,0.0615631,0.00112852,0.0615854,0.00453805,1.55101,0.039631,0.0141859,1217,365,9.38098,71.643
0,659,9.3158,-71.9149,0.00449979,0.0659303,0.00368071,0.06615,0.00428004,1.51116,0.0427448,0.0109158,1224,365,9.31583,71.9149
7,659,9.26013,-72.1286,0.00420683,0.0672653,0.00531474,0.0677101,0.00376203,1.4873,0.0439398,0.0105111,1231,365,9.26012,72.1286
14,659,9.16406,-72.2758,0.00339223,0.0683798,0.00653775,0.0690309,0.00274105,1.47152,0.0451347,0.0130898,1238,365,9.16409,72.2758
21,659,9.06921,-72.4777,0.00252885,0.0693607,0.00790338,0.0702826,0.00160693,1.45467,0.0463287,0.0126815,1245,365,9.06925,72.4777
28,659,8.96631,-72.6642,0.00168585,0.0699732,0.00922136,0.0711965,0.000462528,1.43891,0.0473109,0.0122222,1252,365,8.96627,72.6642
35,659,8.91333,-72.7871,0.000232964,0.0693137,0.00932105,0.0705493,-0.00100262,1.43901,0.0473706,0.0137275,1259,365,8.91338,72.7871
42,659,8.85278,-72.9009,-0.00169801,0.0676094,0.00902703,0.0687659,-0.00285445,1.44338,0.0468244,0.0154435,1266,365,8.85276,72.9009
49,659,8.75659,-73.001,-0.00400912,0.0645536,0.00754863,0.0653749,-0.00483037,1.46243,0.0452794,0.0173235,1273,365,8.75659,73.001
56,659,8.65674,-73.0634,-0.00668213,0.0608774,0.0041199,0.0611277,-0.00693244,1.51011,0.0432482,0.0212089,1280,365,8.65677,73.0634
63,659,8.59668,-73.1023,-0.00897914,0.0571016,0.00066488,0.0571082,-0.00898584,1.56074,0.0413938,0.0190349,1287,365,8.59672,73.1023
70,659,8.4624,-73.0719,-0.011517,0.0528181,-0.00344518,0.053002,-0.011701,-1.51745,0.0398124,0.0200686,1294,365,8.46241,73.0719
77,659,8.34961,-73.0334,-0.0139727,0.0486106,-0.0078275,0.0495748,-0.0149369,-1.44824,0.0389944,0.0217245,1301,365,8.34956,73.0334
84,659,8.34021,-72.9736,-0.0164216,0.0447926,-0.0122977,0.0471707,-0.0187998,-1.37977,0.0392446,0.0152886,1308,365,8.34017,72.9736
91,659,8.25476,-72.9081,-0.0184547,0.0412885,-0.016177,0.0453876,-0.0225538,-1.32263,0.0399576,0.0130056,1315,365,8.2548,72.9081
98,659,8.15039,-72.7493,-0.0204151,0.0390276,-0.0197119,0.0449702,-0.0263577,-1.27799,0.0416459,0.00958353,1322,365,8.15037,72.7493
105,659,8.06812,-72.5489,-0.0216882,0.0342427,-0.0231417,0.042576,-0.0300215,-1.22515,0.0421226,0.0116131,1329,365,8.06811,72.5489
112,659,7.9884,-72.3371,-0.0219846,0.0348511,-0.0234375,0.0432692,-0.0304028,-1.22597,0.0427503,0.0172889,1336,365,7.98836,72.3371
119,659,7.90381,-72.1195,-0.0216201,0.0349803,-0.02243,0.0427911,-0.0294309,-1.2357,0.0419346,0.0196824,1343,365,7.90381,72.1195
126,659,7.80896,-71.8227,-0.0210309,0.0353631,-0.0208508,0.042235,-0.0279028,-1.25243,0.0407749,0.0192309,1350,365,7.80892,71.8227
133,659,7.67175,-71.549,-0.0202289,0.0359394,-0.0184187,0.0414404,-0.02573,-1.28056,0.0391329,0.0192427,1357,365,7.67177,71.549
140,659,7.55383,-71.3126,-0.0187733,0.036613,-0.0148482,0.0403425,-0.0225027,-1.32472,0.0367678,0.0143907,1364,365,7.55382,71.3126
147,659,7.49219,-71.0053,-0.0171496,0.0377864,-0.0106827,0.0397907,-0.0191538,-1.38534,0.0347199,0.0120792,1371,365,7.49217,71.0053
154,659,7.38489,-70.5996,-0.0155912,0.0387267,-0.00595102,0.0393711,-0.0162355,-1.46294,0.0330177,0.0138943,1378,365,7.38494,70.5996
161,659,7.31982,-70.1613,-0.013802,0.0371443,-0.000118313,0.0371446,-0.0138023,-1.56847,0.0304259,0.015625,1385,365,7.31977,70.1613
168,659,7.2572,-69.6978,-0.0120562,0.0338155,0.00402253,0.0341656,-0.0124063,1.48399,0.0278494,0.0215274,1392,365,7.25721,69.6978
175,659,7.18359,-69.2717,-0.0104957,0.0298763,0.0078723,0.031357,-0.0119765,1.38487,0.0258392,0.0438729,1399,365,7.18354,69.2717
182,659,6.99377,-68.9433,0,0,0,0,0,0,0,-1,1406,365,6.99383,68.9433
189,659,6.96692,-68.3138,0,0,0,0,0,0,0,-1,1413,365,6.9669,68.3138
196,659,2.41248,-13.4371,0,0,0,0,0,0,0,-1,1420,365,2.41243,13.4371
203,659,2.38623,-12.2163,0,0,0,0,0,0,0,-1,1427,365,2.38617,12.2163
210,659,2.20789,-13.9792,0,0,0,0,0,0,0,-1,1434,365,2.20794,13.9792
217,659,2.24121,-13.487,0,0,0,0,0,0,0,-1,1441,365,2.24116,13.487
224,659,2.3479,-15.2926,0,0,0,0,0,0,0,-1,1448,365,2.34793,15.2926
231,659,2.47974,-17.8629,0,0,0,0,0,0,0,-1,1455,365,2.47976,17.8628
238,659,3.57886,-21.1258,0,0,0,0,0,0,0,-1,1462,365,3.57889,21.1258
245,659,3.29883,-25.0283,0,0,0,0,0,0,0,-1,1469,365,3.29889,25.0283
252,659,2.81909,-24.1604,0,0,0,0,0,0,0,-1,1476,365,2.81905,24.1604
259,659,2.33069,-3.36703,0,0,0,0,0,0,0,-1,1483,365,2.33073,3.36702
266,659,3.40918,-35.2544,0,0,0,0,0,0,0,-1,1490,365,3.40913,35.2544
273,659,4.45557,-42.3683,0,0,0,0,0,0,0,-1,1497,365,4.45554,42.3683
280,659,4.87903,-41.4995,0,0,0,0,0,0,0,-1,1504,365,4.87898,41.4995
287,659,1.09851,-23.7787,0,0,0,0,0,0,0,-1,1511,365,1.09847,23.7787
294,659,0.115601,-24.0352,0,0,0,0,0,0,0,-1,1518,365,0.115612,24.0352
301,659,-1.21362,-22.6162,0,0,0,0,0,0,0,-1,1525,365,-1.21358,22.6162
308,659,-2.32605,-21.2737,0,0,0,0,0,0,0,-1,1532,365,-2.32606,21.2737
315,659,-3.69629,-19.8803,0,0,0,0,0,0,0,-1,1539,365,-3.69631,19.8803
322,659,-4.9646,-18.5258,0,0,0,0,0,0,0,-1,1546,365,-4.96464,18.5257
329,659,-7.67749,-23.0449,0,0,0,0,0,0,0,-1,1553,365,-7.67745,23.0449
336,659,-7.71436,-22.4188,0,0,0,0,0,0,0,-1,1560,365,-7.71432,22.4188
343,659,0,0,0,0,0,0,0,0,0,-1,1567,365,0,0
350,659,0,0,0,0,0,0,0,0,0,-1,1574,365,0,0
357,659,0,0,0,0,0,0,0,0,0,-1,1581,365,0,0
364,659,0,0,0,0,0,0,0,0,0,-1,1588,365,0,0
371,659,0,0,0,0,0,0,0,0,0,-1,1595,365,0,0
378,659,0,0,0,0,0,0,0,0,0,-1,1602,365,0,0
385,659,0,0,0,0,0,0,0,0,0,-1,1609,365,0,0
392,659,0,0,0,0,0,0,0,0,0,-1,1616,365,0,0
399,659,0,0,0,0,0,0,0,0,0,-1,1623,365,0,0
406,659,0,0,0,0,0,0,0,0,0,-1,1630,365,0,0
413,659,0,0,0,0,0,0,0,0,0,-1,1637,365,0,0
420,659,0,0,0,0,0,0,0,0,0,-1,1644,365,0,0
427,659,0,0,0,0,0,0,0,0,0,-1,1651,365,0,0
434,659,0,0,0,0,0,0,0,0,0,-1,1658,365,0,0
441,659,0,0,0,0,0,0,0,0,0,-1,1665,365,0,0
448,659,0,0,0,0,0,0,0,0,0,-1,1672,365,0,0
455,659,0,0,0,0,0,0,0,0,0,-1,1679,365,0,0
462,659,0,0,0,0,0,0,0,0,0,-1,1686,365,0,0
469,659,0,0,0,0,0,0,0,0,0,-1,1693,365,0,0
476,659,0,0,0,0,0,0,0,0,0,-1,1700,365,0,0
483,659,0,0,0,0,0,0,0,0,0,-1,1707,365,0,0
490,659,0,0,0,0,0,0,0,0,0,-1,1714,365,0,0
497,659,0,0,0,0,0,0,0,0,0,-1,1721,365,0,0
504,659,0,0,0,0,0,0,0,0,0,-1,1728,365,0,0
511,659,0,0,0,0,0,0,0,0,0,-1,1735,365,0,0
518,659,0,0,0,0,0,0,0,0,0,-1,1742,365,0,0
525,659,0,0,0,0,0,0,0,0,0,-1,1749,365,0,0
532,659,0,0,0,0,0,0,0,0,0,-1,1756,365,0,0
539,659,0,0,0,0,0,0,0,0,0,-1,1763,365,0,0
546,659,0,0,0,0,0,0,0,0,0,-1,1770,365,0,0
553,659,0,0,0,0,0,0,0,0,0,-1,1777,365,0,0
560,659,0,0,0,0,0,0,0,0,0,-1,1784,365,0,0
567,659,0,0,0,0,0,0,0,0,0,-1,1791,365,0,0
574,659,0,0,0,0,0,0,0,0,0,-1,1798,365,0,0
581,659,0,0,0,0,0,0,0,0,0,-1,1805,365,0,0
588,659,0,0,0,0,0,0,0,0,0,-1,1812,365,0,0
595,659,0,0,0,0,0,0,0,0,0,-1,1819,365,0,0
602,659,0,0,0,0,0,0,0,0,0,-1,1826,365,0,0
609,659,0,0,0,0,0,0,0,0,0,-1,1833,365,0,0
616,659,0,0,0,0,0,0,0,0,0,-1,1840,365,0,0
623,659,0,0,0,0,0,0,0,0,0,-1,1847,365,0,0
630,659,0,0,0,0,0,0,0,0,0,-1,1854,365,0,0
637,659,0,0,0,0,0,0,0,0,0,-1,1861,365,0,0
644,659,0,0,0,0,0,0,0,0,0,-1,1868,365,0,0
651,659,0,0,0,0,0,0,0,0,0,-1,1875,365,0,0
658,659,0,0,0,0,0,0,0,0,0,-1,1882,365,0,0
665,659,0,0,0,0,0,0,0,0,0,-1,1889,365,0,0
672,659,0,0,0,0,0,0,0,0,0,-1,1896,365,0,0
679,659,0,0,0,0,0,0,0,0,0,-1,1903,365,0,0
686,659,0,0,0,0,0,0,0,0,0,-1,1910,365,0,0
693,659,0,0,0,0,0,0,0,0,0,-1,1917,365,0,0
700,659,0,0,0,0,0,0,0,0,0,-1,1924,365,0,0
707,659,0,0,0,0,0,0,0,0,0,-1,1931,365,0,0
714,659,0,0,0,0,0,0,0,0,0,-1,1938,365,0,0
721,659,0,0,0,0,0,0,0,0,0,-1,1945,365,0,0
728,659,0,0,0,0,0,0,0,0,0,-1,1952,365,0,0
735,659,0,0,0,0,0,0,0,0,0,-1,1959,365,0,0
742,659,0,0,0,0,0,0,0,0,0,-1,1966,365,0,0
749,659,0,0,0,0,0,0,0,0,0,-1,1973,365,0,0
756,659,0,0,0,0,0,0,0,0,0,-1,1980,365,0,0
763,659,0,0,0,0,0,0,0,0,0,-1,1987,365,0,0
770,659,0,0,0,0,0,0,0,0,0,-1,1994,365,0,0
777,659,0,0,0,0,0,0,0,0,0,-1,2001,365,0,0
784,659,0,0,0,0,0,0,0,0,0,-1,2008,365,0,0
791,659,0,0,0,0,0,0,0,0,0,-1,2015,365,0,0
798,659,0,0,0,0,0,0,0,0,0,-1,2022,365,0,0
805,659,0,0,0,0,0,0,0,0,0,-1,2029,365,0,0
812,659,0,0,0,0,0,0,0,0,0,-1,2036,365,0,0
-700,652,0,0,0,0,0,0,0,0,0,-1,524,372,0,0
-693,652,0,0,0,0,0,0,0,0,0,-1,531,372,0,0
-686,652,0,0,0,0,0,0,0,0,0,-1,538,372,0,0
-679,652,0,0,0,0,0,0,0,0,0,-1,545,372,0,0
-672,652,0,0,0,0,0,0,0,0,0,-1,552,372,0,0
-665,652,0,0,0,0,0,0,0,0,0,-1,559,372,0,0
-658,652,0,0,0,0,0,0,0,0,0,-1,566,372,0,0
-651,652,0,0,0,0,0,0,0,0,0,-1,573,372,0,0
-644,652,0,0,0,0,0,0,0,0,0,-1,580,372,0,0
-637,652,0,0,0,0,0,0,0,0,0,-1,587,372,0,0
-630,652,0,0,0,0,0,0,0,0,0,-1,594,372,0,0
-623,652,0,0,0,0,0,0,0,0,0,-1,601,372,0,0
-616,652,0,0,0,0,0,0,0,0,0,-1,608,372,0,0
-609,652,0,0,0,0,0,0,0,0,0,-1,615,372,0,0
-602,652,0,0,0,0,0,0,0,0,0,-1,622,372,0,0
-595,652,0,0,0,0,0,0,0,0,0,-1,629,372,0,0
-588,652,0,0,0,0,0,0,0,0,0,-1,636,372,0,0
-581,652,0,0,0,0,0,0,0,0,0,-1,643,372,0,0
-574,652,0,0,0,0,0,0,0,0,0,-1,650,372,0,0
-567,652,0,0,0,0,0,0,0,0,0,-1,657,372,0,0
-560,652,0,0,0,0,0,0,0,0,0,-1,664,372,0,0
-553,652,0,0,0,0,0,0,0,0,0,-1,671,372,0,0
-546,652,0,0,0,0,0,0,0,0,0,-1,678,372,0,0
-539,652,0,0,0,0,0,0,0,0,0,-1,685,372,0,0
-532,652,0,0,0,0,0,0,0,0,0,-1,692,372,0,0
-525,652,0,0,0,0,0,0,0,0,0,-1,699,372,0,0
-518,652,0,0,0,0,0,0,0,0,0,-1,706,372,0,0
-511,652,0,0,0,0,0,0,0,0,0,-1,713,372,0,0
-504,652,0,0,0,0,0,0,0,0,0,-1,720,372,0,0
-497,652,0,0,0,0,0,0,0,0,0,-1,727,372,0,0
-490,652,0,0,0,0,0,0,0,0,0,-1,734,372,0,0
-483,652,0,0,0,0,0,0,0,0,0,-1,741,372,0,0
-476,652,0,0,0,0,0,0,0,0,0,-1,748,372,0,0
-469,652,0,0,0,0,0,0,0,0,0,-1,755,372,0,0
-462,652,0,0,0,0,0,0,0,0,0,-1,762,372,0,0
-455,652,0,0,0,0,0,0,0,0,0,-1,769,372,0,0
-448,652,0,0,0,0,0,0,0,0,0,-1,776,372,0,0
-441,652,0,0,0,0,0,0,0,0,0,-1,783,372,0,0
-434,652,0,0,0,0,0,0,0,0,0,-1,790,372,0,0
-427,652,0,0,0,0,0,0,0,0,0,-1,797,372,0,0
-420,652,0,0,0,0,0,0,0,0,0,-1,804,372,0,0
-413,652,0,0,0,0,0,0,0,0,0,-1,811,372,0,0
-406,652,0,0,0,0,0,0,0,0,0,-1,818,372,0,0
-399,652,0,0,0,0,0,0,0,0,0,-1,825,372,0,0
-392,652,0,0,0,0,0,0,0,0,0,-1,832,372,0,0
-385,652,0,0,0,0,0,0,0,0,0,-1,839,372,0,0
-378,652,0,0,0,0,0,0,0,0,0,-1,846,372,0,0
-371,652,0,0,0,0,0,0,0,0,0,-1,853,372,0,0
-364,652,0,0,0,0,0,0,0,0,0,-1,860,372,0,0
-357,652,0,0,0,0,0,0,0,0,0,-1,867,372,0,0
-350,652,0,0,0,0,0,0,0,0,0,-1,874,372,0,0
-343,652,0,0,0,0,0,0,0,0,0,-1,881,372,0,0
-336,652,0,0,0,0,0,0,0,0,0,-1,888,372,0,0
-329,652,0,0,0,0,0,0,0,0,0,-1,895,372,0,0
-322,652,0,0,0,0,0,0,0,0,0,-1,902,372,0,0
-315,652,0,0,0,0,0,0,0,0,0,-1,909,372,0,0
-308,652,0,0,0,0,0,0,0,0,0,-1,916,372,0,0
-301,652,0,0,0,0,0,0,0,0,0,-1,923,372,0,0
-294,652,0,0,0,0,0,0,0,0,0,-1,930,372,0,0
-287,652,0,0,0,0,0,0,0,0,0,-1,937,372,0,0
-280,652,0,0,0,0,0,0,0,0,0,-1,944,372,0,0
-273,652,0,0,0,0,0,0,0,0,0,-1,951,372,0,0
-266,652,0,0,0,0,0,0,0,0,0,-1,958,372,0,0
-259,652,0,0,0,0,0,0,0,0,0,-1,965,372,0,0
-252,652,0,0,0,0,0,0,0,0,0,-1,972,372,0,0
-245,652,0,0,0,0,0,0,0,0,0,-1,979,372,0,0
-238,652,0,0,0,0,0,0,0,0,0,-1,986,372,0,0
-231,652,8.79358,-27.1656,0,0,0,0,0,0,0,-1,993,372,8.79357,27.1656
-224,652,8.84552,-27.675,0,0,0,0,0,0,0,-1,1000,372,8.84555,27.675
-217,652,9.03113,-27.7474,0,0,0,0,0,0,0,-1,1007,372,9.0311,27.7474
-210,652,9.72803,-30.4624,0,0,0,0,0,0,0,-1,1014,372,9.72805,30.4624
-203,652,7.2677,-26.0732,0,0,0,0,0,0,0,-1,1021,372,7.26775,26.0732
-196,652,5.90686,-26.957,0,0,0,0,0,0,0,-1,1028,372,5.9068,26.957
-189,652,6.21326,-28.3035,0,0,0,0,0,0,0,-1,1035,372,6.21331,28.3035
-182,652,6.45068,-29.9377,0,0,0,0,0,0,0,-1,1042,372,6.45074,29.9377
-175,652,6.72559,-31.6948,0,0,0,0,0,0,0,-1,1049,372,6.72563,31.6948
-168,652,7.08533,-32.8669,0,0,0,0,0,0,0,-1,1056,372,7.08532,32.8669
-161,652,7.85291,-37.3545,0,0,0,0,0,0,0,-1,1063,372,7.85294,37.3545
-154,652,7.54639,-37.9586,0,0,0,0,0,0,0,-1,1070,372,7.54642,37.9586
-147,652,7.85571,-42.3712,0,0,0,0,0,0,0,-1,1077,372,7.8557,42.3712
-140,652,5.6842,-33.9781,0,0,0,0,0,0,0,-1,1084,372,5.68421,33.9781
-133,652,6.3009,-35.2887,0,0,0,0,0,0,0,-1,1091,372,6.30093,35.2887
-126,652,5.86841,-37.0981,0,0,0,0,0,0,0,-1,1098,372,5.86845,37.0981
-119,652,8.18018,-49.52,0,0,0,0,0,0,0,-1,1105,372,8.18015,49.52
-112,652,7.81982,-48.4793,0,0,0,0,0,0,0,-1,1112,372,7.81981,48.4793
-105,652,6.63855,-39.9965,0,0,0,0,0,0,0,-1,1119,372,6.63852,39.9965
-98,652,5.84302,-35.2455,0,0,0,0,0,0,0,-1,1126,372,5.84307,35.2455
-91,652,5.66296,-32.9003,0,0,0,0,0,0,0,-1,1133,372,5.66297,32.9003
-84,652,5.46057,-34.9186,0,0,0,0,0,0,0,-1,1140,372,5.46057,34.9186
-77,652,9.95007,-67.3013,0,0,0,0,0,0,0,-1,1147,372,9.95009,67.3013
-70,652,9.85059,-67.9486,0,0,0,0,0,0,0,-1,1154,372,9.85053,67.9486
-63,652,9.79541,-68.4968,0,0,0,0,0,0,0,-1,1161,372,9.79542,68.4968
-56,652,9.57751,-69.0073,0,0,0,0,0,0,0,-1,1168,372,9.57757,69.0073
-49,652,9.5791,-69.5132,-0.00285825,0.0250942,-0.00254142,0.0253234,-0.00308744,-1.48086,0.0179999,0.0383571,1175,372,9.57907,69.5132
-42,652,9.50293,-69.8818,-0.00155899,0.0285841,-0.00223856,0.0287495,-0.00172433,-1.49707,0.0197662,0.0138005,1182,372,9.50293,69.8818
-35,652,9.44641,-70.2745,-0.000427335,0.0328219,-0.00182276,0.0329215,-0.000526963,-1.51619,0.0221254,0.0111781,1189,372,9.44642,70.2745
-28,652,9.36755,-70.6754,0.000529306,0.0359693,-0.00114603,0.0360063,0.000492288,-1.5385,0.0238418,0.00865542,1196,372,9.36758,70.6754
-21,652,9.28967,-71.0744,0.00135172,0.0383448,-0.000615592,0.038355,0.00134148,-1.55416,0.0251348,0.00904177,1203,372,9.28971,71.0744
-14,652,9.22717,-71.3905,0.00183166,0.0404604,-0.000115308,0.0404607,0.00183131,-1.56781,0.0263846,0.0116467,1210,372,9.22717,71.3905
-7,652,9.13599,-71.6997,0.00164524,0.0416452,0.000184604,0.041646,0.00164439,1.56618,0.0272324,0.0151556,1217,372,9.13603,71.6997
0,652,9.06982,-71.9716,0.00132516,0.0432899,0.0012101,0.0433248,0.00129029,1.54199,0.0284629,0.0143735,1224,372,9.06978,71.9716
7,652,9.02271,-72.1636,0.00102944,0.0438795,0.00190446,0.043964,0.000944963,1.52647,0.0289995,0.0140269,1231,372,9.02275,72.1636
14,652,8.98547,-72.3913,0.000330292,0.0441881,0.00230098,0.0443085,0.000209901,1.51852,0.0294693,0.0123999,1238,372,8.98551,72.3913
21,652,8.90137,-72.6097,-0.000483975,0.0442564,0.00272019,0.0444212,-0.000648754,1.51029,0.0298327,0.011685,1245,372,8.90134,72.6097
28,652,8.84106,-72.7949,-0.00125741,0.0439664,0.00313241,0.0441823,-0.00147334,1.50197,0.0299581,0.0106914,1252,372,8.84105,72.7949
35,652,8.77917,-72.9097,-0.00232537,0.043006,0.00288054,0.0431883,-0.00250768,1.50759,0.0296635,0.0110018,1259,372,8.77914,72.9097
42,652,8.72778,-73.0014,-0.00367681,0.0414376,0.00252746,0.0415787,-0.00381797,1.51501,0.0290755,0.0121872,1266,372,8.72778,73.0014
49,652,8.729,-73.0831,-0.00515891,0.0392349,0.00152927,0.0392875,-0.00521153,1.5364,0.0280905,0.0150672,1273,372,8.72904,73.0831
56,652,8.6864,-73.1129,-0.00664567,0.0370183,-0.000552403,0.0370253,-0.00665266,-1.55815,0.0271739,0.0170583,1280,372,8.68635,73.1129
63,652,8.58984,-73.147,-0.00768844,0.0350234,-0.00241544,0.0351596,-0.00782461,-1.51448,0.0264368,0.0200808,1287,372,8.58984,73.147
70,652,8.48523,-73.1072,-0.00886651,0.0324032,-0.00458293,0.032906,-0.00936931,-1.46152,0.0256376,0.0188288,1294,372,8.48527,73.1073
77,652,8.39941,-73.1143,-0.0100093,0.0301711,-0.00687641,0.0313153,-0.0111535,-1.40591,0.0254237,0.0181434,1301,372,8.39948,73.1143
84,652,8.41089,-73.0761,-0.0111886,0.028175,-0.00927612,0.0302514,-0.013265,-1.35058,0.0257544,0.0153923,1308,372,8.41089,73.0761
91,652,8.35168,-73.0296,-0.0121692,0.0261895,-0.0113597,0.0293012,-0.0152809,-1.30343,0.0261603,0.0188222,1315,372,8.35174,73.0296
98,652,8.32178,-72.8561,-0.0126935,0.0247675,-0.0128646,0.0287599,-0.0166859,-1.26988,0.026545,0.0151011,1322,372,8.32182,72.8561
105,652,8.23853,-72.6718,-0.0131832,0.0229262,-0.0144726,0.0280108,-0.0182678,-1.23294,0.0269156,0.0128423,1329,372,8.23846,72.6718
112,652,8.15759,-72.4681,-0.0134356,0.0229179,-0.014547,0.0280222,-0.01854,-1.23333,0.0270679,0.0110398,1336,372,8.15754,72.4681
119,652,8.10632,-72.2359,-0.0132089,0.0225471,-0.0136362,0.0271539,-0.0178158,-1.24499,0.0261492,0.0116324,1343,372,8.1063,72.2359
126,652,8.02454,-71.9698,-0.0127974,0.0224994,-0.0122587,0.0263392,-0.0166372,-1.26725,0.0250223,0.0133539,1350,372,8.02448,71.9698
133,652,7.93518,-71.6879,-0.0123204,0.0227711,-0.0103229,0.0255826,-0.0151319,-1.30489,0.0237632,0.0136067,1357,372,7.93523,71.6879
140,652,7.86926,-71.4073,-0.0113717,0.023236,-0.00746405,0.0247771,-0.0129128,-1.36718,0.0221168,0.0103778,1364,372,7.86921,71.4073
147,652,7.81311,-71.0763,-0.0104196,0.0242766,-0.0043885,0.024823,-0.010966,-1.44691,0.0211728,0.0101312,1371,372,7.81311,71.0763
154,652,7.7478,-70.7033,-0.00963929,0.025216,-0.00115581,0.0252543,-0.00967757,-1.53768,0.0208255,0.0102793,1378,372,7.74783,70.7033
161,652,7.66528,-70.2728,-0.00899098,0.024699,0.00245838,0.0248775,-0.00916942,1.49834,0.0203424,0.0127981,1385,372,7.66522,70.2728
168,652,7.58899,-69.812,-0.00852366,0.0234692,0.00463662,0.0241277,-0.00918208,1.42974,0.0198662,0.0139791,1392,372,7.58895,69.812
175,652,7.51599,-69.3697,-0.00822645,0.0227902,0.00633839,0.0240355,-0.00947173,1.3768,0.0199452,0.0136803,1399,372,7.51596,69.3697
182,652,7.42419,-68.9638,-0.00842629,0.0223873,0.00681007,0.0238253,-0.00986427,1.3627,0.0199996,0.020131,1406,372,7.42423,68.9638
189,652,7.38635,-68.4488,-0.00851248,0.0216807,0.00728718,0.0233475,-0.0101792,1.34594,0.0198481,0.032583,1413,372,7.38637,68.4488
196,652,7.29285,-67.9635,0,0,0,0,0,0,0,-1,1420,372,7.29291,67.9635
203,652,7.21338,-67.3701,0,0,0,0,0,0,0,-1,1427,372,7.21336,67.3701
210,652,7.21753,-66.641,0,0,0,0,0,0,0,-1,1434,372,7.21758,66.641
217,652,6.58093,-61.7512,0,0,0,0,0,0,0,-1,1441,372,6.58095,61.7512
224,652,3.63794,-31.2791,0,0,0,0,0,0,0,-1,1448,372,3.63799,31.2791
231,652,3.83936,-30.4812,0,0,0,0,0,0,0,-1,1455,372,3.8393,30.4812
238,652,4.42358,-36.4103,0,0,0,0,0,0,0,-1,1462,372,4.4236,36.4103
245,652,4.53296,-41.8512,0,0,0,0,0,0,0,-1,1469,372,4.5329,41.8512
252,652,5.00793,-47.7065,0,0,0,0,0,0,0,-1,1476,372,5.00791,47.7064
259,652,3.44922,-31.2655,0,0,0,0,0,0,0,-1,1483,372,3.44921,31.2655
266,652,5.5387,-50.3915,0,0,0,0,0,0,0,-1,1490,372,5.53875,50.3915
273,652,5.76855,-57.8665,0,0,0,0,0,0,0,-1,1497,372,5.76858,57.8665
280,652,4.05066,-24.6993,0,0,0,0,0,0,0,-1,1504,372,4.05066,24.6993
287,652,3.0979,-23.6951,0,0,0,0,0,0,0,-1,1511,372,3.09796,23.6951
294,652,2.06946,-24.1711,0,0,0,0,0,0,0,-1,1518,372,2.0694,24.1711
301,652,0.770264,-23.0697,0,0,0,0,0,0,0,-1,1525,372,0.770217,23.0697
308,652,-0.706299,-22.1083,0,0,0,0,0,0,0,-1,1532,372,-0.706291,22.1083
315,652,-1.65198,-21.8662,0,0,0,0,0,0,0,-1,1539,372,-1.65204,21.8662
322,652,-2.66101,-21.728,0,0,0,0,0,0,0,-1,1546,372,-2.66097,21.728
329,652,-7.12329,-21.7065,0,0,0,0,0,0,0,-1,1553,372,-7.12334,21.7065
336,652,-3.56519,-22.3688,0,0,0,0,0,0,0,-1,1560,372,-3.56517,22.3688
343,652,-3.58069,-21.9185,0,0,0,0,0,0,0,-1,1567,372,-3.58069,21.9185
350,652,5.28394,-25.6715,0,0,0,0,0,0,0,-1,1574,372,5.28393,25.6715
357,652,0,0,0,0,0,0,0,0,0,-1,1581,372,0,0
364,652,0,0,0,0,0,0,0,0,0,-1,1588,372,0,0
371,652,0,0,0,0,0,0,0,0,0,-1,1595,372,0,0
378,652,0,0,0,0,0,0,0,0,0,-1,1602,372,0,0
385,652,0,0,0,0,0,0,0,0,0,-1,1609,372,0,0
392,652,0,0,0,0,0,0,0,0,0,-1,1616,372,0,0
399,652,0,0,0,0,0,0,0,0,0,-1,1623,372,0,0
406,652,0,0,0,0,0,0,0,0,0,-1,1630,372,0,0
413,652,0,0,0,0,0,0,0,0,0,-1,1637,372,0,0
420,652,0,0,0,0,0,0,0,0,0,-1,1644,372,0,0
427,652,0,0,0,0,0,0,0,0,0,-1,1651,372,0,0
434,652,0,0,0,0,0,0,0,0,0,-1,1658,372,0,0
441,652,0,0,0,0,0,0,0,0,0,-1,1665,372,0,0
448,652,0,0,0,0,0,0,0,0,0,-1,1672,372,0,0
455,652,0,0,0,0,0,0,0,0,0,-1,1679,372,0,0
462,652,0,0,0,0,0,0,0,0,0,-1,1686,372,0,0
469,652,0,0,0,0,0,0,0,0,0,-1,1693,372,0,0
476,652,0,0,0,0,0,0,0,0,0,-1,1700,372,0,0
483,652,0,0,0,0,0,0,0,0,0,-1,1707,372,0,0
490,652,0,0,0,0,0,0,0,0,0,-1,1714,372,0,0
497,652,0,0,0,0,0,0,0,0,0,-1,1721,372,0,0
504,652,0,0,0,0,0,0,0,0,0,-1,1728,372,0,0
511,652,0,0,0,0,0,0,0,0,0,-1,1735,372,0,0
518,652,0,0,0,0,0,0,0,0,0,-1,1742,372,0,0
525,652,0,0,0,0,0,0,0,0,0,-1,1749,372,0,0
532,652,0,0,0,0,0,0,0,0,0,-1,1756,372,0,0
539,652,0,0,0,0,0,0,0,0,0,-1,1763,372,0,0
546,652,0,0,0,0,0,0,0,0,0,-1,1770,372,0,0
553,652,0,0,0,0,0,0,0,0,0,-1,1777,372,0,0
560,652,0,0,0,0,0,0,0,0,0,-1,1784,372,0,0
567,652,0,0,0,0,0,0,0,0,0,-1,1791,372,0,0
574,652,0,0,0,0,0,0,0,0,0,-1,1798,372,0,0
581,652,0,0,0,0,0,0,0,0,0,-1,1805,372,0,0
588,652,0,0,0,0,0,0,0,0,0,-1,1812,372,0,0
595,652,0,0,0,0,0,0,0,0,0,-1,1819,372,0,0
602,652,0,0,0,0,0,0,0,0,0,-1,1826,372,0,0
609,652,0,0,0,0,0,0,0,0,0,-1,1833,372,0,0
616,652,0,0,0,0,0,0,0,0,0,-1,1840,372,0,0
623,652,0,0,0,0,0,0,0,0,0,-1,1847,372,0,0
630,652,0,0,0,0,0,0,0,0,0,-1,1854,372,0,0
637,652,0,0,0,0,0,0,0,0,0,-1,1861,372,0,0
644,652,0,0,0,0,0,0,0,0,0,-1,1868,372,0,0
651,652,0,0,0,0,0,0,0,0,0,-1,1875,372,0,0
658,652,0,0,0,0,0,0,0,0,0,-1,1882,372,0,0
665,652,0,0,0,0,0,0,0,0,0,-1,1889,372,0,0
672,652,0,0,0,0,0,0,0,0,0,-1,1896,372,0,0
679,652,0,0,0,0,0,0,0,0,0,-1,1903,372,0,0
686,652,0,0,0,0,0,0,0,0,0,-1,1910,372,0,0
693,652,0,0,0,0,0,0,0,0,0,-1,1917,372,0,0
700,652,0,0,0,0,0,0,0,0,0,-1,1924,372,0,0
707,652,0,0,0,0,0,0,0,0,0,-1,1931,372,0,0
714,652,0,0,0,0,0,0,0,0,0,-1,1938,372,0,0
721,652,0,0,0,0,0,0,0,0,0,-1,1945,372,0,0
728,652,0,0,0,0,0,0,0,0,0,-1,1952,372,0,0
735,652,0,0,0,0,0,0,0,0,0,-1,1959,372,0,0
742,652,0,0,0,0,0,0,0,0,0,-1,1966,372,0,0
749,652,0,0,0,0,0,0,0,0,0,-1,1973,372,0,0
756,652,0,0,0,0,0,0,0,0,0,-1,1980,372,0,0
763,652,0,0,0,0,0,0,0,0,0,-1,1987,372,0,0
770,652,0,0,0,0,0,0,0,0,0,-1,1994,372,0,0
777,652,0,0,0,0,0,0,0,0,0,-1,2001,372,0,0
784,652,0,0,0,0,0,0,0,0,0,-1,2008,372,0,0
791,652,0,0,0,0,0,0,0,0,0,-1,2015,372,0,0
798,652,0,0,0,0,0,0,0,0,0,-1,2022,372,0,0
805,652,0,0,0,0,0,0,0,0,0,-1,2029,372,0,0
812,652,0,0,0,0,0,0,0,0,0,-1,2036,372,0,0
-700,645,0,0,0,0,0,0,0,0,0,-1,524,379,0,0
-693,645,0,0,0,0,0,0,0,0,0,-1,531,379,0,0
-686,645,0,0,0,0,0,0,0,0,0,-1,538,379,0,0
-679,645,0,0,0,0,0,0,0,0,0,-1,545,379,0,0
-672,645,0,0,0,0,0,0,0,0,0,-1,552,379,0,0
-665,645,0,0,0,0,0,0,0,0,0,-1,559,379,0,0
-658,645,0,0,0,0,0,0,0,0,0,-1,566,379,0,0
-651,645,0,0,0,0,0,0,0,0,0,-1,573,379,0,0
-644,645,0,0,0,0,0,0,0,0,0,-1,580,379,0,0
-637,645,0,0,0,0,0,0,0,0,0,-1,587,379,0,0
-630,645,0,0,0,0,0,0,0,0,0,-1,594,379,0,0
-623,645,0,0,0,0,0,0,0,0,0,-1,601,379,0,0
-616,645,0,0,0,0,0,0,0,0,0,-1,608,379,0,0
-609,645,0,0,0,0,0,0,0,0,0,-1,615,379,0,0
-602,645,0,0,0,0,0,0,0,0,0,-1,622,379,0,0
-595,645,0,0,0,0,0,0,0,0,0,-1,629,379,0,0
-588,645,0,0,0,0,0,0,0,0,0,-1,636,379,0,0
-581,645,0,0,0,0,0,0,0,0,0,-1,643,379,0,0
-574,645,0,0,0,0,0,0,0,0,0,-1,650,379,0,0
-567,645,0,0,0,0,0,0,0,0,0,-1,657,379,0,0
-560,645,0,0,0,0,0,0,0,0,0,-1,664,379,0,0
-553,645,0,0,0,0,0,0,0,0,0,-1,671,379,0,0
-546,645,0,0,0,0,0,0,0,0,0,-1,678,379,0,0
-539,645,0,0,0,0,0,0,0,0,0,-1,685,379,0,0
-532,645,0,0,0,0,0,0,0,0,0,-1,692,379,0,0
-525,645,0,0,0,0,0,0,0,0,0,-1,699,379,0,0
-518,645,0,0,0,0,0,0,0,0,0,-1,706,379,0,0
-511,645,0,0,0,0,0,0,0,0,0,-1,713,379,0,0
-504,645,0,0,0,0,0,0,0,0,0,-1,720,379,0,0
-497,645,0,0,0,0,0,0,0,0,0,-1,727,379,0,0
-490,645,0,0,0,0,0,0,0,0,0,-1,734,379,0,0
-483,645,0,0,0,0,0,0,0,0,0,-1,741,379,0,0
-476,645,0,0,0,0,0,0,0,0,0,-1,748,379,0,0
-469,645,0,0,0,0,0,0,0,0,0,-1,755,379,0,0
-462,645,0,0,0,0,0,0,0,0,0,-1,762,379,0,0
-455,645,0,0,0,0,0,0,0,0,0,-1,769,379,0,0
-448,645,0,0,0,0,0,0,0,0,0,-1,776,379,0,0
-441,645,0,0,0,0,0,0,0,0,0,-1,783,379,0,0
-434,645,0,0,0,0,0,0,0,0,0,-1,790,379,0,0
-427,645,0,0,0,0,0,0,0,0,0,-1,797,379,0,0
-420,645,0,0,0,0,0,0,0,0,0,-1,804,379,0,0
-413,645,0,0,0,0,0,0,0,0,0,-1,811,379,0,0
-406,645,0,0,0,0,0,0,0,0,0,-1,818,379,0,0
-399,645,0,0,0,0,0,0,0,0,0,-1,825,379,0,0
-392,645,0,0,0,0,0,0,0,0,0,-1,832,379,0,0
-385,645,0,0,0,0,0,0,0,0,0,-1,839,379,0,0
-378,645,0,0,0,0,0,0,0,0,0,-1,846,379,0,0
-371,645,0,0,0,0,0,0,0,0,0,-1,853,379,0,0
-364,645,0,0,0,0,0,0,0,0,0,-1,860,379,0,0
-357,645,0,0,0,0,0,0,0,0,0,-1,867,379,0,0
-350,645,0,0,0,0,0,0,0,0,0,-1,874,379,0,0
-343,645,0,0,0,0,0,0,0,0,0,-1,881,379,0,0
-336,645,0,0,0,0,0,0,0,0,0,-1,888,379,0,0
-329,645,0,0,0,0,0,0,0,0,0,-1,895,379,0,0
-322,645,0,0,0,0,0,0,0,0,0,-1,902,379,0,0
-315,645,0,0,0,0,0,0,0,0,0,-1,909,379,0,0
-308,645,0,0,0,0,0,0,0,0,0,-1,916,379,0,0
-301,645,0,0,0,0,0,0,0,0,0,-1,923,379,0,0
-294,645,0,0,0,0,0,0,0,0,0,-1,930,379,0,0
-287,645,0,0,0,0,0,0,0,0,0,-1,937,379,0,0
-280,645,0,0,0,0,0,0,0,0,0,-1,944,379,0,0
-273,645,0,0,0,0,0,0,0,0,0,-1,951,379,0,0
-266,645,0,0,0,0,0,0,0,0,0,-1,958,379,0,0
-259,645,0,0,0,0,0,0,0,0,0,-1,965,379,0,0
-252,645,2.95691,-26.9133,0,0,0,0,0,0,0,-1,972,379,2.9569,26.9133
-245,645,2.73169,-27.0215,0,0,0,0,0,0,0,-1,979,379,2.73172,27.0215
-238,645,2.6665,-26.9464,0,0,0,0,0,0,0,-1,986,379,2.66649,26.9464
-231,645,7.26807,-29.1054,0,0,0,0,0,0,0,-1,993,379,7.26806,29.1054
-224,645,7.69073,-29.5737,0,0,0,0,0,0,0,-1,1000,379,7.69071,29.5737
-217,645,8.65485,-33.4136,0,0,0,0,0,0,0,-1,1007,379,8.65487,33.4136
-210,645,9.21594,-32.5157,0,0,0,0,0,0,0,-1,1014,379,9.21591,32.5156
-203,645,9.77698,-31.6176,0,0,0,0,0,0,0,-1,1021,379,9.77696,31.6177
-196,645,10.2664,-29.7741,0,0,0,0,0,0,0,-1,1028,379,10.2664,29.7741
-189,645,5.88062,-28.2191,0,0,0,0,0,0,0,-1,1035,379,5.88062,28.2191
-182,645,6.34167,-29.2525,0,0,0,0,0,0,0,-1,1042,379,6.3417,29.2525
-175,645,6.36462,-35.5586,0,0,0,0,0,0,0,-1,1049,379,6.3646,35.5586
-168,645,7.19116,-39.5785,0,0,0,0,0,0,0,-1,1056,379,7.19115,39.5785
-161,645,7.22083,-37.6093,0,0,0,0,0,0,0,-1,1063,379,7.22085,37.6094
-154,645,7.42102,-41.6806,0,0,0,0,0,0,0,-1,1070,379,7.42105,41.6806
-147,645,8.89526,-50.6488,0,0,0,0,0,0,0,-1,1077,379,8.89521,50.6488
-140,645,10.0587,-61.265,0,0,0,0,0,0,0,-1,1084,379,10.0587,61.265
-133,645,10.1045,-61.7892,0,0,0,0,0,0,0,-1,1091,379,10.1044,61.7892
-126,645,10.2167,-62.2486,0,0,0,0,0,0,0,-1,1098,379,10.2167,62.2486
-119,645,9.95508,-63.6765,0,0,0,0,0,0,0,-1,1105,379,9.95508,63.6765
-112,645,9.85364,-64.3019,0,0,0,0,0,0,0,-1,1112,379,9.85369,64.3019
-105,645,9.76648,-65.1479,0,0,0,0,0,0,0,-1,1119,379,9.76653,65.1479
-98,645,9.67358,-65.7879,0,0,0,0,0,0,0,-1,1126,379,9.67364,65.7879
-91,645,9.54456,-66.4118,0,0,0,0,0,0,0,-1,1133,379,9.54455,66.4118
-84,645,9.44189,-67.0138,0,0,0,0,0,0,0,-1,1140,379,9.44196,67.0138
-77,645,9.49182,-67.5424,-0.00804521,0.00616634,-0.00274239,0.00667717,-0.00855605,-1.38663,0.00881717,0.0445862,1147,379,9.49182,67.5425
-70,645,9.39063,-68.0676,-0.00808429,0.00733468,-0.00253721,0.00774145,-0.00849106,-1.41183,0.00937517,0.0166689,1154,379,9.39061,68.0676
-63,645,9.32385,-68.5479,-0.00692006,0.0101505,-0.00328825,0.010762,-0.00753157,-1.38693,0.0106165,0.0125486,1161,379,9.3239,68.548
-56,645,9.24036,-69.0085,-0.00498103,0.0124668,-0.00334484,0.0130861,-0.00560028,-1.38773,0.0110734,0.014405,1168,379,9.24032,69.0085
-49,645,9.18933,-69.493,-0.00278058,0.0148131,-0.00211196,0.0150631,-0.00303056,-1.45298,0.0111899,0.0124061,1175,379,9.18935,69.493
-42,645,9.12231,-69.906,-0.00171972,0.0163424,-0.00178984,0.0165181,-0.00189537,-1.47297,0.0116951,0.012017,1182,379,9.12235,69.906
-35,645,9.06213,-70.3431,-0.000791947,0.0190732,-0.00142827,0.0191753,-0.000894113,-1.49939,0.0130918,0.0119414,1189,379,9.06217,70.3431
-28,645,8.98962,-70.7699,2.78701e-05,0.0211243,-0.000911926,0.0211637,-1.14748e-05,-1.52768,0.014113,0.00952421,1196,379,8.98958,70.7699
-21,645,8.93518,-71.1252,0.000769087,0.0226595,-0.000514351,0.0226716,0.00075701,-1.54732,0.0148685,0.0113668,1203,379,8.93524,71.1252
-14,645,8.90186,-71.4662,0.0012656,0.0240623,-0.000153503,0.0240633,0.00126457,-1.56406,0.0156377,0.0113635,1210,379,8.90187,71.4662
-7,645,8.87561,-71.7715,0.00132361,0.0249351,5.60017e-05,0.0249352,0.00132347,1.56842,0.0162004,0.0150182,1217,379,8.8756,71.7715
0,645,8.86047,-72.0308,0.00113244,0.0253967,0.000376126,0.0254026,0.00112661,1.5553,0.0165723,0.0284524,1224,379,8.86044,72.0308
7,645,8.79504,-72.2299,0.00089848,0.0256528,0.000506734,0.0256631,0.000888112,1.55034,0.0168205,0.0191438,1231,379,8.79508,72.2299
14,645,8.75146,-72.4409,0.00047257,0.025711,0.000586211,0.0257246,0.000458961,1.54759,0.0169988,0.0180662,1238,379,8.75141,72.4409
21,645,8.71008,-72.663,-4.4771e-05,0.0257275,0.000642329,0.0257435,-6.07697e-05,1.54589,0.0171826,0.0121495,1245,379,8.71007,72.663
28,645,8.69336,-72.8495,-0.00059951,0.0255236,0.000698803,0.0255422,-0.000618189,1.54407,0.0172379,0.00998882,1252,379,8.69334,72.8495
35,645,8.64758,-72.9832,-0.00126638,0.0250566,0.000460403,0.0250646,-0.00127443,1.55331,0.0171504,0.00935718,1259,379,8.6476,72.9832
42,645,8.62415,-73.0979,-0.00210853,0.0243097,0.000301835,0.0243131,-0.00211198,1.55937,0.0169566,0.00998474,1266,379,8.62413,73.0979
49,645,8.65466,-73.1547,-0.00300438,0.023355,-8.71473e-05,0.0233553,-0.00300467,-1.56749,0.0166623,0.0135976,1273,379,8.65466,73.1547
56,645,8.64893,-73.1769,-0.00381165,0.0224065,-0.00113474,0.0224556,-0.00386067,-1.52762,0.0164094,0.013536,1280,379,8.64897,73.177
63,645,8.59888,-73.2249,-0.00424994,0.0215819,-0.0018901,0.0217194,-0.0043875,-1.49814,0.0161421,0.0121219,1287,379,8.59891,73.225
70,645,8.5282,-73.2109,-0.00476367,0.0200967,-0.00276758,0.0204011,-0.00506804,-1.46126,0.0155675,0.0161093,1294,379,8.52815,73.2109
77,645,8.5,-73.1963,-0.00523971,0.0189583,-0.00369242,0.0195092,-0.0057906,-1.42269,0.0153059,0.0195847,1301,379,8.50005,73.1963
84,645,8.50354,-73.1284,-0.00575617,0.017844,-0.0047146,0.018751,-0.00666314,-1.38074,0.015216,0.0148335,1308,379,8.50352,73.1284
91,645,8.43872,-73.0613,-0.00620374,0.0165462,-0.00558286,0.0178424,-0.00749993,-1.34267,0.0150321,0.0172785,1315,379,8.4387,73.0613
98,645,8.42224,-72.8983,-0.00635422,0.015531,-0.00608106,0.0171072,-0.00793039,-1.31718,0.0147756,0.0152744,1322,379,8.42225,72.8983
105,645,8.38599,-72.7131,-0.00638888,0.0147947,-0.0064542,0.0166063,-0.00820042,-1.29716,0.0145937,0.0111218,1329,379,8.38599,72.7131
112,645,8.32532,-72.5273,-0.00644378,0.0145108,-0.00617025,0.0161927,-0.00812567,-1.30468,0.0142954,0.00934621,1336,379,8.32531,72.5273
119,645,8.31299,-72.2914,-0.00642948,0.0139924,-0.00558645,0.0154207,-0.00785778,-1.32049,0.0136742,0.00950766,1343,379,8.31304,72.2914
126,645,8.26526,-72.0215,-0.00635007,0.0138115,-0.00471143,0.0148582,-0.00739673,-1.3522,0.0130874,0.0115908,1350,379,8.2653,72.0216
133,645,8.22461,-71.7431,-0.00623098,0.0139675,-0.00361184,0.0145939,-0.00685741,-1.39907,0.0126506,0.0128073,1357,379,8.22462,71.7431
140,645,8.18872,-71.4624,-0.00586905,0.0144033,-0.00197104,0.0145932,-0.00605891,-1.47477,0.0122582,0.0130408,1364,379,8.18874,71.4624
147,645,8.13599,-71.111,-0.00553328,0.0153407,-0.000380864,0.0153476,-0.00554022,-1.55256,0.0124948,0.0144167,1371,379,8.13597,71.111
154,645,8.10217,-70.7268,-0.00534862,0.0162609,0.00126005,0.0163341,-0.00542184,1.51275,0.0130769,0.0134572,1378,379,8.10214,70.7268
161,645,8.02319,-70.3033,-0.00530101,0.016485,0.00307542,0.0169108,-0.00572683,1.43321,0.0135911,0.0159203,1385,379,8.02318,70.3033
168,645,7.97437,-69.8776,-0.00533299,0.0163784,0.00395921,0.0170779,-0.00603244,1.39594,0.0138414,0.0175256,1392,379,7.97431,69.8776
175,645,7.95813,-69.4766,-0.00543736,0.0165366,0.00465751,0.017483,-0.00638378,1.37032,0.0142675,0.0150676,1399,379,7.95809,69.4766
182,645,7.88135,-69.0229,-0.00575585,0.0164836,0.00509098,0.0175936,-0.00686586,1.35612,0.0145674,0.0116946,1406,379,7.8814,69.0229
189,645,7.82678,-68.4775,-0.00596764,0.0161964,0.00555833,0.0175122,-0.00728345,1.33835,0.0147162,0.0122557,1413,379,7.82677,68.4775
196,645,7.74719,-68.0027,-0.0060318,0.015765,0.00605079,0.017332,-0.00759884,1.31738,0.014755,0.0122327,1420,379,7.74724,68.0028
203,645,7.65088,-67.4415,-0.00618781,0.0154133,0.00645129,0.0171933,-0.00796785,1.30158,0.0148487,0.0124333,1427,379,7.65085,67.4415
210,645,7.63391,-66.7374,-0.00607084,0.0144485,0.00674034,0.0164646,-0.00808688,1.28017,0.0144472,0.0229756,1434,379,7.63393,66.7374
217,645,7.53418,-66.3046,0,0,0,0,0,0,0,-1,1441,379,7.53413,66.3046
224,645,7.46216,-65.6678,0,0,0,0,0,0,0,-1,1448,379,7.46221,65.6678
231,645,7.30591,-64.9974,0,0,0,0,0,0,0,-1,1455,379,7.3059,64.9974
238,645,7.19836,-64.334,0,0,0,0,0,0,0,-1,1462,379,7.19834,64.334
245,645,7.2196,-63.3899,0,0,0,0,0,0,0,-1,1469,379,7.21955,63.3899
252,645,6.27942,-52.6305,0,0,0,0,0,0,0,-1,1476,379,6.27947,52.6305
259,645,6.5321,-54.0518,0,0,0,0,0,0,0,-1,1483,379,6.53211,54.0518
266,645,6.84973,-61.1459,0,0,0,0,0,0,0,-1,1490,379,6.84972,61.146
273,645,6.67627,-60.8198,0,0,0,0,0,0,0,-1,1497,379,6.67628,60.8198
280,645,6.88452,-59.8923,0,0,0,0,0,0,0,-1,1504,379,6.88453,59.8923
287,645,7.14038,-58.5522,0,0,0,0,0,0,0,-1,1511,379,7.14038,58.5522
294,645,3.76428,-22.9539,0,0,0,0,0,0,0,-1,1518,379,3.7643,22.9539
301,645,2.74219,-23.503,0,0,0,0,0,0,0,-1,1525,379,2.74222,23.503
308,645,1.82227,-23.9479,0,0,0,0,0,0,0,-1,1532,379,1.82227,23.9479
315,645,0.990356,-24.8735,0,0,0,0,0,0,0,-1,1539,379,0.990376,24.8735
322,645,-0.256714,-24.7577,0,0,0,0,0,0,0,-1,1546,379,-0.256653,24.7577
329,645,-4.45581,-22.707,0,0,0,0,0,0,0,-1,1553,379,-4.45579,22.707
336,645,-5.83154,-22.8404,0,0,0,0,0,0,0,-1,1560,379,-5.83149,22.8404
343,645,4.03186,-38.0623,0,0,0,0,0,0,0,-1,1567,379,4.03187,38.0623
350,645,4.76404,-22.1987,0,0,0,0,0,0,0,-1,1574,379,4.76399,22.1987
357,645,4.61316,-21.967,0,0,0,0,0,0,0,-1,1581,379,4.61316,21.967
364,645,-0.0794678,-3.22021,0,0,0,0,0,0,0,-1,1588,379,-0.0794987,3.22021
371,645,0,0,0,0,0,0,0,0,0,-1,1595,379,0,0
378,645,0,0,0,0,0,0,0,0,0,-1,1602,379,0,0
385,645,0,0,0,0,0,0,0,0,0,-1,1609,379,0,0
392,645,0,0,0,0,0,0,0,0,0,-1,1616,379,0,0
399,645,0,0,0,0,0,0,0,0,0,-1,1623,379,0,0
406,645,0,0,0,0,0,0,0,0,0,-1,1630,379,0,0
413,645,0,0,0,0,0,0,0,0,0,-1,1637,379,0,0
420,645,0,0,0,0,0,0,0,0,0,-1,1644,379,0,0
427,645,0,0,0,0,0,0,0,0,0,-1,1651,379,0,0
434,645,0,0,0,0,0,0,0,0,0,-1,1658,379,0,0
441,645,0,0,0,0,0,0,0,0,0,-1,1665,379,0,0
448,645,0,0,0,0,0,0,0,0,0,-1,1672,379,0,0
455,645,0,0,0,0,0,0,0,0,0,-1,1679,379,0,0
462,645,0,0,0,0,0,0,0,0,0,-1,1686,379,0,0
469,645,0,0,0,0,0,0,0,0,0,-1,1693,379,0,0
476,645,0,0,0,0,0,0,0,0,0,-1,1700,379,0,0
483,645,0,0,0,0,0,0,0,0,0,-1,1707,379,0,0
490,645,0,0,0,0,0,0,0,0,0,-1,1714,379,0,0
497,645,0,0,0,0,0,0,0,0,0,-1,1721,379,0,0
504,645,0,0,0,0,0,0,0,0,0,-1,1728,379,0,0
511,645,0,0,0,0,0,0,0,0,0,-1,1735,379,0,0
518,645,0,0,0,0,0,0,0,0,0,-1,1742,379,0,0
525,645,0,0,0,0,0,0,0,0,0,-1,1749,379,0,0
532,645,0,0,0,0,0,0,0,0,0,-1,1756,379,0,0
539,645,0,0,0,0,0,0,0,0,0,-1,1763,379,0,0
546,645,0,0,0,0,0,0,0,0,0,-1,1770,379,0,0
553,645,0,0,0,0,0,0,0,0,0,-1,1777,379,0,0
560,645,0,0,0,0,0,0,0,0,0,-1,1784,379,0,0
567,645,0,0,0,0,0,0,0,0,0,-1,1791,379,0,0
574,645,0,0,0,0,0,0,0,0,0,-1,1798,379,0,0
581,645,0,0,0,0,0,0,0,0,0,-1,1805,379,0,0
588,645,0,0,0,0,0,0,0,0,0,-1,1812,379,0,0
595,645,0,0,0,0,0,0,0,0,0,-1,1819,379,0,0
602,645,0,0,0,0,0,0,0,0,0,-1,1826,379,0,0
609,645,0,0,0,0,0,0,0,0,0,-1,1833,379,0,0
616,645,0,0,0,0,0,0,0,0,0,-1,1840,379,0,0
623,645,0,0,0,0,0,0,0,0,0,-1,1847,379,0,0
630,645,0,0,0,0,0,0,0,0,0,-1,1854,379,0,0
637,645,0,0,0,0,0,0,0,0,0,-1,1861,379,0,0
644,645,0,0,0,0,0,0,0,0,0,-1,1868,379,0,0
651,645,0,0,0,0,0,0,0,0,0,-1,1875,379,0,0
658,645,0,0,0,0,0,0,0,0,0,-1,1882,379,0,0
665,645,0,0,0,0,0,0,0,0,0,-1,1889,379,0,0
672,645,0,0,0,0,0,0,0,0,0,-1,1896,379,0,0
679,645,0,0,0,0,0,0,0,0,0,-1,1903,379,0,0
686,645,0,0,0,0,0,0,0,0,0,-1,1910,379,0,0
693,645,0,0,0,0,0,0,0,0,0,-1,1917,379,0,0
700,645,0,0,0,0,0,0,0,0,0,-1,1924,379,0,0
707,645,0,0,0,0,0,0,0,0,0,-1,1931,379,0,0
714,645,0,0,0,0,0,0,0,0,0,-1,1938,379,0,0
721,645,0,0,0,0,0,0,0,0,0,-1,1945,379,0,0
728,645,0,0,0,0,0,0,0,0,0,-1,1952,379,0,0
735,645,0,0,0,0,0,0,0,0,0,-1,1959,379,0,0
742,645,0,0,0,0,0,0,0,0,0,-1,1966,379,0,0
749,645,0,0,0,0,0,0,0,0,0,-1,1973,379,0,0
756,645,0,0,0,0,0,0,0,0,0,-1,1980,379,0,0
763,645,0,0,0,0,0,0,0,0,0,-1,1987,379,0,0
770,645,0,0,0,0,0,0,0,0,0,-1,1994,379,0,0
777,645,0,0,0,0,0,0,0,0,0,-1,2001,379,0,0
784,645,0,0,0,0,0,0,0,0,0,-1,2008,379,0,0
791,645,0,0,0,0,0,0,0,0,0,-1,2015,379,0,0
798,645,0,0,0,0,0,0,0,0,0,-1,2022,379,0,0
805,645,0,0,0,0,0,0,0,0,0,-1,2029,379,0,0
812,645,0,0,0,0,0,0,0,0,0,-1,2036,379,0,0
-700,638,0,0,0,0,0,0,0,0,0,-1,524,386,0,0
-693,638,0,0,0,0,0,0,0,0,0,-1,531,386,0,0
-686,638,0,0,0,0,0,0,0,0,0,-1,538,386,0,0
-679,638,0,0,0,0,0,0,0,0,0,-1,545,386,0,0
-672,638,0,0,0,0,0,0,0,0,0,-1,552,386,0,0
-665,638,0,0,0,0,0,0,0,0,0,-1,559,386,0,0
-658,638,0,0,0,0,0,0,0,0,0,-1,566,386,0,0
-651,638,0,0,0,0,0,0,0,0,0,-1,573,386,0,0
-644,638,0,0,0,0,0,0,0,0,0,-1,580,386,0,0
-637,638,0,0,0,0,0,0,0,0,0,-1,587,386,0,0
-630,638,0,0,0,0,0,0,0,0,0,-1,594,386,0,0
-623,638,0,0,0,0,0,0,0,0,0,-1,601,386,0,0
-616,638,0,0,0,0,0,0,0,0,0,-1,608,386,0,0
-609,638,0,0,0,0,0,0,0,0,0,-1,615,386,0,0
-602,638,0,0,0,0,0,0,0,0,0,-1,622,386,0,0
-595,638,0,0,0,0,0,0,0,0,0,-1,629,386,0,0
-588,638,0,0,0,0,0,0,0,0,0,-1,636,386,0,0
-581,638,0,0,0,0,0,0,0,0,0,-1,643,386,0,0
-574,638,0,0,0,0,0,0,0,0,0,-1,650,386,0,0
-567,638,0,0,0,0,0,0,0,0,0,-1,657,386,0,0
-560,638,0,0,0,0,0,0,0,0,0,-1,664,386,0,0
-553,638,0,0,0,0,0,0,0,0,0,-1,671,386,0,0
-546,638,0,0,0,0,0,0,0,0,0,-1,678,386,0,0
-539,638,0,0,0,0,0,0,0,0,0,-1,685,386,0,0
-532,638,0,0,0,0,0,0,0,0,0,-1,692,386,0,0
-525,638,0,0,0,0,0,0,0,0,0,-1,699,386,0,0
-518,638,0,0,0,0,0,0,0,0,0,-1,706,386,0,0
-511,638,0,0,0,0,0,0,0,0,0,-1,713,386,0,0
-504,638,0,0,0,0,0,0,0,0,0,-1,720,386,0,0
-497,638,0,0,0,0,0,0,0,0,0,-1,727,386,0,0
-490,638,0,0,0,0,0,0,0,0,0,-1,734,386,0,0
-483,638,0,0,0,0,0,0,0,0,0,-1,741,386,0,0
-476,638,0,0,0,0,0,0,0,0,0,-1,748,386,0,0
-469,638,0,0,0,0,0,0,0,0,0,-1,755,386,0,0
-462,638,0,0,0,0,0,0,0,0,0,-1,762,386,0,0
-455,638,0,0,0,0,0,0,0,0,0,-1,769,386,0,0
-448,638,0,0,0,0,0,0,0,0,0,-1,776,386,0,0
-441,638,0,0,0,0,0,0,0,0,0,-1,783,386,0,0
-434,638,0,0,0,0,0,0,0,0,0,-1,790,386,0,0
-427,638,0,0,0,0,0,0,0,0,0,-1,797,386,0,0
-420,638,0,0,0,0,0,0,0,0,0,-1,804,386,0,0
-413,638,0,0,0,0,0,0,0,0,0,-1,811,386,0,0
-406,638,0,0,0,0,0,0,0,0,0,-1,818,386,0,0
-399,638,0,0,0,0,0,0,0,0,0,-1,825,386,0,0
-392,638,0,0,0,0,0,0,0,0,0,-1,832,386,0,0
-385,638,0,0,0,0,0,0,0,0,0,-1,839,386,0,0
-378,638,0,0,0,0,0,0,0,0,0,-1,846,386,0,0
-371,638,0,0,0,0,0,0,0,0,0,-1,853,386,0,0
-364,638,0,0,0,0,0,0,0,0,0,-1,860,386,0,0
-357,638,0,0,0,0,0,0,0,0,0,-1,867,386,0,0
-350,638,0,0,0,0,0,0,0,0,0,-1,874,386,0,0
-343,638,0,0,0,0,0,0,0,0,0,-1,881,386,0,0
-336,638,0,0,0,0,0,0,0,0,0,-1,888,386,0,0
-329,638,0,0,0,0,0,0,0,0,0,-1,895,386,0,0
-322,638,0,0,0,0,0,0,0,0,0,-1,902,386,0,0
-315,638,0,0,0,0,0,0,0,0,0,-1,909,386,0,0
-308,638,0,0,0,0,0,0,0,0,0,-1,916,386,0,0
-301,638,0,0,0,0,0,0,0,0,0,-1,923,386,0,0
-294,638,0,0,0,0,0,0,0,0,0,-1,930,386,0,0
-287,638,0,0,0,0,0,0,0,0,0,-1,937,386,0,0
-280,638,0,0,0,0,0,0,0,0,0,-1,944,386,0,0
-273,638,0,0,0,0,0,0,0,0,0,-1,951,386,0,0
-266,638,10.1613,-36.3326,0,0,0,0,0,0,0,-1,958,386,10.1612,36.3326
-259,638,9.95282,-34.6103,0,0,0,0,0,0,0,-1,965,386,9.9528,34.6103
-252,638,9.95746,-33.6964,0,0,0,0,0,0,0,-1,972,386,9.95744,33.6965
-245,638,9.84143,-32.9009,0,0,0,0,0,0,0,-1,979,386,9.84145,32.9009
-238,638,2.93518,-26.3649,0,0,0,0,0,0,0,-1,986,386,2.93516,26.3649
-231,638,2.36829,-26.0088,0,0,0,0,0,0,0,-1,993,386,2.3683,26.0088
-224,638,6.3465,-30.9124,0,0,0,0,0,0,0,-1,1000,386,6.34648,30.9124
-217,638,7.41205,-32.7263,0,0,0,0,0,0,0,-1,1007,386,7.41204,32.7262
-210,638,8.7038,-34.5688,0,0,0,0,0,0,0,-1,1014,386,8.70378,34.5689
-203,638,4.32593,-27.5803,0,0,0,0,0,0,0,-1,1021,386,4.32594,27.5803
-196,638,6.0614,-28.4651,0,0,0,0,0,0,0,-1,1028,386,6.06143,28.4651
-189,638,11.4561,-30.1556,0,0,0,0,0,0,0,-1,1035,386,11.456,30.1556
-182,638,6.45471,-33.4271,0,0,0,0,0,0,0,-1,1042,386,6.45473,33.427
-175,638,8.39648,-48.7238,0,0,0,0,0,0,0,-1,1049,386,8.39643,48.7238
-168,638,9.83569,-58.1975,0,0,0,0,0,0,0,-1,1056,386,9.83571,58.1975
-161,638,9.93201,-59.8467,0,0,0,0,0,0,0,-1,1063,386,9.93201,59.8467
-154,638,9.78186,-60.4968,0,0,0,0,0,0,0,-1,1070,386,9.78187,60.4968
-147,638,9.79529,-60.8105,0,0,0,0,0,0,0,-1,1077,386,9.79532,60.8105
-140,638,9.58704,-61.5334,0,0,0,0,0,0,0,-1,1084,386,9.58709,61.5334
-133,638,9.37891,-62.2562,0,0,0,0,0,0,0,-1,1091,386,9.37886,62.2562
-126,638,9.43274,-63.2385,0,0,0,0,0,0,0,-1,1098,386,9.43271,63.2385
-119,638,9.32361,-63.866,-0.00630235,0.00555817,-0.00415022,0.00686616,-0.00761034,-1.26549,0.0083617,0.044888,1105,386,9.32355,63.866
-112,638,9.28516,-64.552,-0.00620447,0.00516019,-0.0037889,0.00630755,-0.00735183,-1.27675,0.00789392,0.0288243,1112,386,9.28512,64.552
-105,638,9.21875,-65.1922,-0.00601303,0.0049392,-0.00340637,0.0059122,-0.00698604,-1.29256,0.0074554,0.0202346,1119,386,9.21875,65.1922
-98,638,9.13696,-65.8268,-0.00587475,0.00484042,-0.00306407,0.00565473,-0.00668906,-1.31104,0.00713502,0.0179031,1126,386,9.13698,65.8268
-91,638,9.03467,-66.4224,-0.00570461,0.00471712,-0.00278687,0.00541555,-0.00640304,-1.32524,0.0068314,0.0130166,1133,386,9.03462,66.4224
-84,638,8.96204,-67.0001,-0.0054079,0.00454765,-0.00256577,0.00517,-0.00603025,-1.33283,0.00647282,0.0144255,1140,386,8.96206,67.0001
-77,638,8.89624,-67.57,-0.00512165,0.00465773,-0.00232063,0.00518047,-0.00564439,-1.34924,0.00625165,0.0141765,1147,386,8.89623,67.57
-70,638,8.86096,-68.0991,-0.00499003,0.00528665,-0.0021027,0.00570024,-0.00540362,-1.37658,0.00641158,0.0150656,1154,386,8.861,68.0991
-63,638,8.83875,-68.5977,-0.0042517,0.00665329,-0.00235123,0.00713864,-0.00473704,-1.36723,0.00690301,0.0136623,1161,386,8.83875,68.5977
-56,638,8.81213,-69.0748,-0.00309675,0.00773218,-0.00227686,0.00819143,-0.003556,-1.37176,0.00695616,0.0160468,1168,386,8.81213,69.0748
-49,638,8.76172,-69.5295,-0.00183677,0.00840315,-0.00155478,0.00863402,-0.00206763,-1.42339,0.00655484,0.0139315,1175,386,8.76177,69.5295
-42,638,8.71594,-69.9402,-0.00110158,0.00869656,-0.00124278,0.00885173,-0.00125675,-1.44658,0.00636159,0.0134267,1182,386,8.71596,69.9402
-35,638,8.67236,-70.3755,-0.000407682,0.00983473,-0.000935041,0.00991939,-0.000492343,-1.4805,0.006783,0.0123059,1189,386,8.67242,70.3755
-28,638,8.63928,-70.7896,0.000246907,0.010663,-0.000573813,0.0106945,0.000215391,-1.51593,0.00705899,0.010821,1196,386,8.63933,70.7896
-21,638,8.60193,-71.134,0.000858906,0.0111465,-0.000323285,0.0111566,0.000848757,-1.53941,0.0071716,0.0126187,1203,386,8.60195,71.134
-14,638,8.57532,-71.5031,0.00133885,0.0116148,-0.00011649,0.0116161,0.00133753,-1.55946,0.00733897,0.013286,1210,386,8.57535,71.503
-7,638,8.60486,-71.8289,0.00158798,0.0117782,-1.37527e-05,0.0117782,0.00158796,-1.56945,0.00737998,0.0190879,1217,386,8.60483,71.8289
0,638,8.63806,-72.0037,0.00160072,0.0117345,1.28194e-05,0.0117345,0.0016007,1.56953,0.00734778,0.0355326,1224,386,8.63805,72.0037
7,638,8.54773,-72.2482,0.00149223,0.0116702,-1.46151e-05,0.0116703,0.00149221,-1.56936,0.00733356,0.0272795,1231,386,8.5477,72.2482
14,638,8.50671,-72.494,0.0012703,0.0115359,-6.97303e-05,0.0115364,0.00126982,-1.564,0.00730455,0.0148885,1238,386,8.50677,72.4941
21,638,8.52295,-72.7161,0.000909265,0.0116477,-0.000103021,0.0116487,0.000908276,-1.5612,0.00748143,0.0125211,1245,386,8.52293,72.7161
28,638,8.52832,-72.8809,0.000494796,0.0117922,-9.62562e-05,0.011793,0.000493976,-1.56228,0.00770263,0.00928944,1252,386,8.52829,72.8809
35,638,8.52002,-73.0059,4.0476e-05,0.0119815,-0.000181253,0.0119843,3.77255e-05,-1.55562,0.00797699,0.0108422,1259,386,8.52005,73.0059
42,638,8.54639,-73.1275,-0.00056505,0.012241,1.01994e-06,0.012241,-0.00056505,1.57072,0.00835539,0.0109563,1266,386,8.54642,73.1275
49,638,8.58557,-73.1789,-0.00115481,0.0125152,0.000271482,0.0125206,-0.0011602,1.55095,0.00875944,0.00979533,1273,386,8.58555,73.1789
56,638,8.57361,-73.2099,-0.00162184,0.0127499,0.000111221,0.0127507,-0.0016227,1.56306,0.0090898,0.0129434,1280,386,8.57366,73.2099
63,638,8.56091,-73.2414,-0.00174444,0.0129376,0.000177626,0.0129398,-0.00174658,1.5587,0.00926377,0.0152434,1287,386,8.5609,73.2414
70,638,8.54651,-73.2514,-0.00181696,0.0126169,0.000184922,0.0126193,-0.00181933,1.55799,0.00908028,0.0198695,1294,386,8.54646,73.2514
77,638,8.55676,-73.2101,-0.00186047,0.0123812,0.000167711,0.0123832,-0.00186244,1.55902,0.00894117,0.0197364,1301,386,8.55678,73.2101
84,638,8.59131,-73.1393,-0.00186817,0.0119339,-1.40116e-05,0.0119339,-0.00186818,-1.56978,0.0086462,0.0146899,1308,386,8.59129,73.1393
91,638,8.57349,-73.0333,-0.00186488,0.0110731,-0.000247959,0.0110779,-0.00186963,-1.55164,0.00808087,0.0167876,1315,386,8.57343,73.0333
98,638,8.54993,-72.8835,-0.00169177,0.0103022,-0.000345414,0.0103121,-0.00170171,-1.54203,0.00750657,0.0142536,1322,386,8.54998,72.8835
105,638,8.53821,-72.7331,-0.00137021,0.00966518,-0.0003816,0.00967836,-0.00138339,-1.53627,0.00695935,0.0104099,1329,386,8.53819,72.7331
112,638,8.51379,-72.549,-0.00116165,0.00919205,-0.000356357,0.0092043,-0.0011739,-1.53643,0.00656259,0.0102218,1336,386,8.51376,72.549
119,638,8.54004,-72.3227,-0.00105863,0.00855579,-0.000270543,0.00856339,-0.00106624,-1.54269,0.00609551,0.0129118,1343,386,8.54006,72.3227
126,638,8.54724,-72.0403,-0.000975678,0.00816637,-0.000123661,0.00816804,-0.000977351,-1.55727,0.00579867,0.016005,1350,386,8.54726,72.0403
133,638,8.51233,-71.7648,-0.000996115,0.00807425,9.75221e-05,0.0080753,-0.000997163,1.56005,0.00574484,0.0164686,1357,386,8.51228,71.7648
140,638,8.47021,-71.5077,-0.000998491,0.0083,0.000596173,0.00833807,-0.00103656,1.50703,0.00593448,0.0173976,1364,386,8.47022,71.5077
147,638,8.43298,-71.168,-0.00107826,0.00885816,0.000977944,0.0089535,-0.0011736,1.47362,0.00639619,0.0193799,1371,386,8.43295,71.168
154,638,8.43481,-70.789,-0.00130262,0.00949845,0.00143956,0.00968702,-0.00149119,1.44055,0.00700816,0.0176788,1378,386,8.43476,70.789
161,638,8.42249,-70.3457,-0.00163212,0.0100795,0.00220849,0.0104821,-0.00203474,1.39047,0.00775579,0.0201408,1385,386,8.42247,70.3457
168,638,8.40723,-69.903,-0.00206162,0.0105315,0.00259887,0.0110467,-0.00257687,1.37507,0.00835694,0.0241334,1392,386,8.40721,69.903
175,638,8.40002,-69.5349,-0.00251009,0.0108684,0.0029877,0.0115053,-0.00314699,1.36077,0.00890646,0.0192761,1399,386,8.40001,69.5349
182,638,8.31677,-69.0494,-0.00296611,0.0111501,0.00339025,0.0119221,-0.00373811,1.3469,0.00944403,0.0140485,1406,386,8.31674,69.0494
189,638,8.28735,-68.4959,-0.00333223,0.0112737,0.00385656,0.0122294,-0.00428798,1.32787,0.00989692,0.0128857,1413,386,8.28734,68.4959
196,638,8.22571,-68.0103,-0.00356622,0.0112976,0.00433737,0.0124707,-0.0047393,1.30666,0.010265,0.0144828,1420,386,8.22573,68.0103
203,638,8.1499,-67.5217,-0.00385675,0.0113143,0.00472565,0.0126659,-0.00520834,1.29222,0.0106149,0.0197409,1427,386,8.14993,67.5217
210,638,8.10425,-66.9691,-0.00393267,0.0109392,0.00504892,0.0124913,-0.00548477,1.27255,0.010638,0.0163068,1434,386,8.10419,66.9691
217,638,8.06934,-66.3549,-0.003891,0.0104374,0.00526455,0.0121637,-0.00561731,1.25393,0.0104952,0.0133331,1441,386,8.06929,66.3549
224,638,8.01062,-65.7054,-0.00368873,0.0108476,0.00544472,0.0126608,-0.00550193,1.24933,0.0107543,0.012143,1448,386,8.01057,65.7055
231,638,7.88562,-65.0564,-0.00316996,0.0112626,0.00602058,0.0134443,-0.00535167,1.22314,0.0111821,0.0130877,1455,386,7.88568,65.0564
238,638,7.80896,-64.4182,-0.00231751,0.0131952,0.0074762,0.0162117,-0.00533402,1.18729,0.0129571,0.0172274,1462,386,7.80894,64.4182
245,638,7.79993,-63.6976,-0.00184748,0.0146778,0.00839658,0.0181954,-0.00536506,1.17408,0.0142591,0.0409439,1469,386,7.79996,63.6976
252,638,7.6405,-63.101,0,0,0,0,0,0,0,-1,1476,386,7.64047,63.101
259,638,7.60034,-62.3809,0,0,0,0,0,0,0,-1,1483,386,7.60034,62.3809
266,638,7.45972,-61.5173,0,0,0,0,0,0,0,-1,1490,386,7.45968,61.5173
273,638,7.43091,-60.9007,0.00224235,0.0246306,0.0141372,0.0314689,-0.00459594,1.12027,0.0226671,0.0207115,1497,386,7.43091,60.9007
280,638,7.48206,-60.0819,0.00327497,0.0276993,0.0158627,0.0355062,-0.0045319,1.11345,0.025317,0.0269503,1504,386,7.48204,60.0819
287,638,7.61084,-58.888,0.00433341,0.0311348,0.017728,0.0399571,-0.00448891,1.10903,0.0282535,0.0455482,1511,386,7.61079,58.888
294,638,7.16406,-58.3299,0,0,0,0,0,0,0,-1,1518,386,7.16409,58.3299
301,638,6.88635,-57.5068,0,0,0,0,0,0,0,-1,1525,386,6.88637,57.5068
308,638,7.1283,-56.2635,0,0,0,0,0,0,0,-1,1532,386,7.12834,56.2635
315,638,3.3927,-28.2032,0,0,0,0,0,0,0,-1,1539,386,3.39269,28.2032
322,638,6.1698,-44.6835,0,0,0,0,0,0,0,-1,1546,386,6.16984,44.6835
329,638,6.06885,-44.2856,0,0,0,0,0,0,0,-1,1553,386,6.06881,44.2855
336,638,5.15234,-38.1966,0,0,0,0,0,0,0,-1,1560,386,5.15238,38.1966
343,638,4.8208,-37.2159,0,0,0,0,0,0,0,-1,1567,386,4.82078,37.2159
350,638,4.35254,-37.1565,0,0,0,0,0,0,0,-1,1574,386,4.35259,37.1565
357,638,0.387329,-3.01077,0,0,0,0,0,0,0,-1,1581,386,0.387332,3.01077
364,638,3.78149,-6.45215,0,0,0,0,0,0,0,-1,1588,386,3.78155,6.45216
371,638,4.18604,-6.71164,0,0,0,0,0,0,0,-1,1595,386,4.18598,6.71164
378,638,4.59045,-6.97113,0,0,0,0,0,0,0,-1,1602,386,4.5904,6.97112
385,638,0,0,0,0,0,0,0,0,0,-1,1609,386,0,0
392,638,0,0,0,0,0,0,0,0,0,-1,1616,386,0,0
399,638,0,0,0,0,0,0,0,0,0,-1,1623,386,0,0
406,638,0,0,0,0,0,0,0,0,0,-1,1630,386,0,0
413,638,0,0,0,0,0,0,0,0,0,-1,1637,386,0,0
420,638,0,0,0,0,0,0,0,0,0,-1,1644,386,0,0
427,638,0,0,0,0,0,0,0,0,0,-1,1651,386,0,0
434,638,0,0,0,0,0,0,0,0,0,-1,1658,386,0,0
441,638,0,0,0,0,0,0,0,0,0,-1,1665,386,0,0
448,638,0,0,0,0,0,0,0,0,0,-1,1672,386,0,0
455,638,0,0,0,0,0,0,0,0,0,-1,1679,386,0,0
462,638,0,0,0,0,0,0,0,0,0,-1,1686,386,0,0
469,638,0,0,0,0,0,0,0,0,0,-1,1693,386,0,0
476,638,0,0,0,0,0,0,0,0,0,-1,1700,386,0,0
483,638,0,0,0,0,0,0,0,0,0,-1,1707,386,0,0
490,638,0,0,0,0,0,0,0,0,0,-1,1714,386,0,0
497,638,0,0,0,0,0,0,0,0,0,-1,1721,386,0,0
504,638,0,0,0,0,0,0,0,0,0,-1,1728,386,0,0
511,638,0,0,0,0,0,0,0,0,0,-1,1735,386,0,0
518,638,0,0,0,0,0,0,0,0,0,-1,1742,386,0,0
525,638,0,0,0,0,0,0,0,0,0,-1,1749,386,0,0
532,638,0,0,0,0,0,0,0,0,0,-1,1756,386,0,0
539,638,0,0,0,0,0,0,0,0,0,-1,1763,386,0,0
546,638,0,0,0,0,0,0,0,0,0,-1,1770,386,0,0
553,638,0,0,0,0,0,0,0,0,0,-1,1777,386,0,0
560,638,0,0,0,0,0,0,0,0,0,-1,1784,386,0,0
567,638,0,0,0,0,0,0,0,0,0,-1,1791,386,0,0
574,638,0,0,0,0,0,0,0,0,0,-1,1798,386,0,0
581,638,0,0,0,0,0,0,0,0,0,-1,1805,386,0,0
588,638,0,0,0,0,0,0,0,0,0,-1,1812,386,0,0
595,638,0,0,0,0,0,0,0,0,0,-1,1819,386,0,0
602,638,0,0,0,0,0,0,0,0,0,-1,1826,386,0,0
609,638,0,0,0,0,0,0,0,0,0,-1,1833,386,0,0
616,638,0,0,0,0,0,0,0,0,0,-1,1840,386,0,0
623,638,0,0,0,0,0,0,0,0,0,-1,1847,386,0,0
630,638,0,0,0,0,0,0,0,0,0,-1,1854,386,0,0
637,638,0,0,0,0,0,0,0,0,0,-1,1861,386,0,0
644,638,0,0,0,0,0,0,0,0,0,-1,1868,386,0,0
651,638,0,0,0,0,0,0,0,0,0,-1,1875,386,0,0
658,638,0,0,0,0,0,0,0,0,0,-1,1882,386,0,0
665,638,0,0,0,0,0,0,0,0,0,-1,1889,386,0,0
672,638,0,0,0,0,0,0,0,0,0,-1,1896,386,0,0
679,638,0,0,0,0,0,0,0,0,0,-1,1903,386,0,0
686,638,0,0,0,0,0,0,0,0,0,-1,1910,386,0,0
693,638,0,0,0,0,0,0,0,0,0,-1,1917,386,0,0
700,638,0,0,0,0,0,0,0,0,0,-1,1924,386,0,0
707,638,0,0,0,0,0,0,0,0,0,-1,1931,386,0,0
714,638,0,0,0,0,0,0,0,0,0,-1,1938,386,0,0
721,638,0,0,0,0,0,0,0,0,0,-1,1945,386,0,0
728,638,0,0,0,0,0,0,0,0,0,-1,1952,386,0,0
735,638,0,0,0,0,0,0,0,0,0,-1,1959,386,0,0
742,638,0,0,0,0,0,0,0,0,0,-1,1966,386,0,0
749,638,0,0,0,0,0,0,0,0,0,-1,1973,386,0,0
756,638,0,0,0,0,0,0,0,0,0,-1,1980,386,0,0
763,638,0,0,0,0,0,0,0,0,0,-1,1987,386,0,0
770,638,0,0,0,0,0,0,0,0,0,-1,1994,386,0,0
777,638,0,0,0,0,0,0,0,0,0,-1,2001,386,0,0
784,638,0,0,0,0,0,0,0,0,0,-1,2008,386,0,0
791,638,0,0,0,0,0,0,0,0,0,-1,2015,386,0,0
798,638,0,0,0,0,0,0,0,0,0,-1,2022,386,0,0
805,638,0,0,0,0,0,0,0,0,0,-1,2029,386,0,0
812,638,0,0,0,0,0,0,0,0,0,-1,2036,386,0,0
-700,631,0,0,0,0,0,0,0,0,0,-1,524,393,0,0
-693,631,0,0,0,0,0,0,0,0,0,-1,531,393,0,0
-686,631,0,0,0,0,0,0,0,0,0,-1,538,393,0,0
-679,631,0,0,0,0,0,0,0,0,0,-1,545,393,0,0
-672,631,0,0,0,0,0,0,0,0,0,-1,552,393,0,0
-665,631,0,0,0,0,0,0,0,0,0,-1,559,393,0,0
-658,631,0,0,0,0,0,0,0,0,0,-1,566,393,0,0
-651,631,0,0,0,0,0,0,0,0,0,-1,573,393,0,0
-644,631,0,0,0,0,0,0,0,0,0,-1,580,393,0,0
-637,631,0,0,0,0,0,0,0,0,0,-1,587,393,0,0
-630,631,0,0,0,0,0,0,0,0,0,-1,594,393,0,0
-623,631,0,0,0,0,0,0,0,0,0,-1,601,393,0,0
-616,631,0,0,0,0,0,0,0,0,0,-1,608,393,0,0
-609,631,0,0,0,0,0,0,0,0,0,-1,615,393,0,0
-602,631,0,0,0,0,0,0,0,0,0,-1,622,393,0,0
-595,631,0,0,0,0,0,0,0,0,0,-1,629,393,0,0
-588,631,0,0,0,0,0,0,0,0,0,-1,636,393,0,0
-581,631,0,0,0,0,0,0,0,0,0,-1,643,393,0,0
-574,631,0,0,0,0,0,0,0,0,0,-1,650,393,0,0
-567,631,0,0,0,0,0,0,0,0,0,-1,657,393,0,0
-560,631,0,0,0,0,0,0,0,0,0,-1,664,393,0,0
-553,631,0,0,0,0,0,0,0,0,0,-1,671,393,0,0
-546,631,0,0,0,0,0,0,0,0,0,-1,678,393,0,0
-539,631,0,0,0,0,0,0,0,0,0,-1,685,393,0,0
-532,631,0,0,0,0,0,0,0,0,0,-1,692,393,0,0
-525,631,0,0,0,0,0,0,0,0,0,-1,699,393,0,0
-518,631,0,0,0,0,0,0,0,0,0,-1,706,393,0,0
-511,631,0,0,0,0,0,0,0,0,0,-1,713,393,0,0
-504,631,0,0,0,0,0,0,0,0,0,-1,720,393,0,0
-497,631,0,0,0,0,0,0,0,0,0,-1,727,393,0,0
-490,631,0,0,0,0,0,0,0,0,0,-1,734,393,0,0
-483,631,0,0,0,0,0,0,0,0,0,-1,741,393,0,0
-476,631,0,0,0,0,0,0,0,0,0,-1,748,393,0,0
-469,631,0,0,0,0,0,0,0,0,0,-1,755,393,0,0
-462,631,0,0,0,0,0,0,0,0,0,-1,762,393,0,0
-455,631,0,0,0,0,0,0,0,0,0,-1,769,393,0,0
-448,631,0,0,0,0,0,0,0,0,0,-1,776,393,0,0
-441,631,0,0,0,0,0,0,0,0,0,-1,783,393,0,0
-434,631,0,0,0,0,0,0,0,0,0,-1,790,393,0,0
-427,631,0,0,0,0,0,0,0,0,0,-1,797,393,0,0
-420,631,0,0,0,0,0,0,0,0,0,-1,804,393,0,0
-413,631,0,0,0,0,0,0,0,0,0,-1,811,393,0,0
-406,631,0,0,0,0,0,0,0,0,0,-1,818,393,0,0
-399,631,0,0,0,0,0,0,0,0,0,-1,825,393,0,0
-392,631,0,0,0,0,0,0,0,0,0,-1,832,393,0,0
-385,631,0,0,0,0,0,0,0,0,0,-1,839,393,0,0
-378,631,0,0,0,0,0,0,0,0,0,-1,846,393,0,0
-371,631,0,0,0,0,0,0,0,0,0,-1,853,393,0,0
-364,631,0,0,0,0,0,0,0,0,0,-1,860,393,0,0
-357,631,0,0,0,0,0,0,0,0,0,-1,867,393,0,0
-350,631,0,0,0,0,0,0,0,0,0,-1,874,393,0,0
-343,631,0,0,0,0,0,0,0,0,0,-1,881,393,0,0
-336,631,0,0,0,0,0,0,0,0,0,-1,888,393,0,0
-329,631,0,0,0,0,0,0,0,0,0,-1,895,393,0,0
-322,631,0,0,0,0,0,0,0,0,0,-1,902,393,0,0
-315,631,0,0,0,0,0,0,0,0,0,-1,909,393,0,0
-308,631,0,0,0,0,0,0,0,0,0,-1,916,393,0,0
-301,631,0,0,0,0,0,0,0,0,0,-1,923,393,0,0
-294,631,0,0,0,0,0,0,0,0,0,-1,930,393,0,0
-287,631,0,0,0,0,0,0,0,0,0,-1,937,393,0,0
-280,631,7.71283,-34.969,0,0,0,0,0,0,0,-1,944,393,7.71282,34.969
-273,631,8.04437,-34.934,0,0,0,0,0,0,0,-1,951,393,8.04436,34.9339
-266,631,8.40277,-34.7584,0,0,0,0,0,0,0,-1,958,393,8.40275,34.7584
-259,631,8.56659,-34.037,0,0,0,0,0,0,0,-1,965,393,8.56662,34.037
-252,631,8.44446,-33.2643,0,0,0,0,0,0,0,-1,972,393,8.44445,33.2644
-245,631,8.34705,-32.527,0,0,0,0,0,0,0,-1,979,393,8.34704,32.527
-238,631,8.41888,-31.8855,0,0,0,0,0,0,0,-1,986,393,8.41887,31.8855
-231,631,2.14966,-25.2306,0,0,0,0,0,0,0,-1,993,393,2.14968,25.2306
-224,631,6.83575,-19.7909,0,0,0,0,0,0,0,-1,1000,393,6.83575,19.7909
-217,631,5.05188,-18.3867,0,0,0,0,0,0,0,-1,1007,393,5.0519,18.3866
-210,631,3.37842,-26.3769,0,0,0,0,0,0,0,-1,1014,393,3.37839,26.3769
-203,631,8.59509,-47.1953,0,0,0,0,0,0,0,-1,1021,393,8.5951,47.1954
-196,631,8.51001,-47.9163,0,0,0,0,0,0,0,-1,1028,393,8.50997,47.9163
-189,631,6.57983,-42.4494,0,0,0,0,0,0,0,-1,1035,393,6.57983,42.4494
-182,631,8.0531,-47.8031,0,0,0,0,0,0,0,-1,1042,393,8.05311,47.8031
-175,631,9.11414,-57.5244,0,0,0,0,0,0,0,-1,1049,393,9.11419,57.5245
-168,631,9.34424,-58.7397,0,0,0,0,0,0,0,-1,1056,393,9.34423,58.7397
-161,631,9.20044,-59.5968,-0.00453161,0.0107181,-0.00751376,0.0137981,-0.00761166,-1.18177,0.0125318,0.0264218,1063,393,9.20044,59.5968
-154,631,9.10669,-60.4626,-0.00447555,0.00921269,-0.00669906,0.0119456,-0.00720846,-1.18345,0.0111708,0.022588,1070,393,9.10672,60.4626
-147,631,9.02515,-61.142,-0.004552,0.00785688,-0.00586072,0.0101873,-0.00688238,-1.19234,0.00991654,0.0179493,1077,393,9.02518,61.142
-140,631,8.95203,-61.861,-0.00449436,0.00658067,-0.00521341,0.00864866,-0.00656235,-1.19317,0.00880957,0.011652,1084,393,8.95207,61.861
-133,631,8.84265,-62.5639,-0.00432516,0.00571375,-0.0046443,0.00753276,-0.00614416,-1.1975,0.00790993,0.00904046,1091,393,8.84268,62.5639
-126,631,8.79382,-63.257,-0.00424921,0.00507329,-0.0040387,0.00657956,-0.00575548,-1.21382,0.00712694,0.0131713,1098,393,8.79383,63.257
-119,631,8.70801,-63.9211,-0.00424097,0.00424875,-0.00340303,0.00544443,-0.00543665,-1.23291,0.00628219,0.0169597,1105,393,8.70801,63.9211
-112,631,8.6416,-64.5688,-0.00397152,0.00387547,-0.00307497,0.00493688,-0.00503293,-1.23842,0.00575616,0.0157849,1112,393,8.64165,64.5688
-105,631,8.63599,-65.2099,-0.00365123,0.0036431,-0.00275201,0.00456489,-0.00457302,-1.24759,0.00527578,0.0206146,1119,393,8.63596,65.2099
-98,631,8.5686,-65.8448,-0.00336935,0.00353069,-0.00247273,0.00432532,-0.00416397,-1.25986,0.00490159,0.0183022,1126,393,8.56857,65.8447
-91,631,8.52307,-66.4171,-0.00305848,0.00339934,-0.00223286,0.00409618,-0.00375532,-1.26829,0.00453449,0.0184943,1133,393,8.52307,66.4171
-84,631,8.46985,-67.0108,-0.00266312,0.00322452,-0.00201482,0.00384799,-0.00328659,-1.2707,0.0041234,0.0178888,1140,393,8.46979,67.0108
-77,631,8.38928,-67.5768,-0.00227464,0.00316262,-0.00178059,0.00369383,-0.00280584,-1.28087,0.00376424,0.0140996,1147,393,8.38924,67.5768
-70,631,8.36084,-68.0934,-0.00193798,0.00331348,-0.00155248,0.0037381,-0.0023626,-1.30381,0.00355196,0.0167185,1154,393,8.3609,68.0934
-63,631,8.36511,-68.6109,-0.00143494,0.00349058,-0.00142651,0.00387389,-0.00181825,-1.30829,0.00335704,0.0159073,1161,393,8.36512,68.6109
-56,631,8.3374,-69.1284,-0.000894384,0.00351851,-0.00127666,0.00386124,-0.00123711,-1.30853,0.00307075,0.0161499,1168,393,8.33735,69.1284
-49,631,8.30823,-69.5478,-0.000389774,0.00327946,-0.00101675,0.00354237,-0.000652679,-1.31776,0.00260652,0.0121093,1175,393,8.30817,69.5478
-42,631,8.30981,-69.9586,0.000133844,0.00303102,-0.000755451,0.00321617,-5.13103e-05,-1.33044,0.00216142,0.0107227,1182,393,8.30981,69.9586
-35,631,8.297,-70.3703,0.000634437,0.00311338,-0.000522067,0.00321885,0.000528976,-1.37147,0.00199311,0.0117757,1189,393,8.297,70.3703
-28,631,8.29236,-70.7804,0.00112141,0.00286506,-0.000328956,0.00292505,0.00106141,-1.3904,0.00170982,0.0141102,1196,393,8.29237,70.7804
-21,631,8.26013,-71.1431,0.00160631,0.00247688,-0.00023988,0.0025386,0.00154459,-1.31896,0.00147711,0.0121724,1203,393,8.26012,71.1431
-14,631,8.25208,-71.4826,0.00220429,0.00223686,-9.00214e-05,0.00231206,0.00212909,-0.874895,0.00148415,0.014437,1210,393,8.2521,71.4826
-7,631,8.30615,-71.8341,0.00283791,0.00178882,3.00738e-05,0.00283877,0.00178796,0.0286353,0.00165728,0.0225663,1217,393,8.30621,71.8341
0,631,8.29553,-72.083,0.00308207,0.0012356,-4.5792e-05,0.00308321,0.00123446,-0.0247793,0.00179183,0.0267594,1224,393,8.29556,72.083
7,631,8.27698,-72.304,0.00318379,0.000813433,-8.00544e-05,0.00318649,0.000810732,-0.033722,0.00191225,0.020926,1231,393,8.277,72.304
14,631,8.30957,-72.5447,0.00331838,0.000418741,-8.68727e-05,0.00332098,0.000416141,-0.029924,0.00208914,0.0114747,1238,393,8.30962,72.5447
21,631,8.33569,-72.7269,0.00310462,0.000629637,-3.6349e-05,0.00310516,0.000629104,-0.0146823,0.00189553,0.0151901,1245,393,8.33572,72.7269
28,631,8.33105,-72.8727,0.00281395,0.00112167,8.38905e-05,0.0028181,0.00111752,0.0494108,0.0016386,0.0169655,1252,393,8.33107,72.8727
35,631,8.40295,-72.9952,0.00226996,0.00196413,0.000163656,0.00234102,0.00189307,0.409656,0.00143486,0.0154511,1259,393,8.40293,72.9952
42,631,8.48181,-73.1114,0.00152667,0.00327289,0.000797953,0.00358259,0.00121696,1.20057,0.00210355,0.0135515,1266,393,8.48182,73.1114
49,631,8.49536,-73.1875,0.00098985,0.00468722,0.00176845,0.00539687,0.000280208,1.18919,0.00350824,0.0123694,1273,393,8.49535,73.1875
56,631,8.5415,-73.2651,0.00047003,0.00603838,0.00242026,0.00694328,-0.000434875,1.213,0.00478041,0.0150344,1280,393,8.54146,73.2651
63,631,8.54346,-73.3174,0.000148127,0.00723715,0.00304005,0.00836227,-0.000976996,1.21633,0.00592741,0.0186402,1287,393,8.54349,73.3174
70,631,8.55176,-73.2835,4.00946e-06,0.0080321,0.00360971,0.00941644,-0.00138033,1.20459,0.0067847,0.0189325,1294,393,8.55175,73.2835
77,631,8.60547,-73.2099,-2.79514e-05,0.00880351,0.0042011,0.0104827,-0.00170713,1.19055,0.0076215,0.0182626,1301,393,8.60552,73.2099
84,631,8.66113,-73.1502,8.58489e-05,0.00899871,0.00448339,0.0108637,-0.00177916,1.17659,0.00790257,0.0150605,1308,393,8.66111,73.1502
91,631,8.66504,-73.0479,0.000193907,0.00847567,0.004442,0.0104075,-0.00173796,1.16056,0.00758434,0.0180629,1315,393,8.66505,73.0479
98,631,8.69299,-72.9149,0.000484565,0.0078908,0.00436071,0.0099086,-0.00153323,1.13741,0.00717165,0.0145533,1322,393,8.69296,72.9149
105,631,8.67993,-72.7521,0.00118617,0.00724274,0.00423394,0.00941991,-0.000991,1.09584,0.00663499,0.0124558,1329,393,8.67991,72.7521
112,631,8.7074,-72.5708,0.00181499,0.00641991,0.00377265,0.0085372,-0.000302302,1.05938,0.00579486,0.0134992,1336,393,8.70734,72.5708
119,631,8.74585,-72.3743,0.00220619,0.00539792,0.00315409,0.00733689,0.000267216,1.0196,0.00480466,0.0143072,1343,393,8.74585,72.3743
126,631,8.77478,-72.0716,0.00261667,0.00444186,0.00245649,0.0061498,0.000908738,0.963249,0.00383303,0.0183622,1350,393,8.77476,72.0716
133,631,8.78906,-71.7862,0.00278272,0.00374177,0.00176549,0.0050917,0.00143279,0.918005,0.0030319,0.0192604,1357,393,8.78901,71.7862
140,631,8.76392,-71.5328,0.00286031,0.00336127,0.00131777,0.00445216,0.00176942,0.879318,0.00258842,0.0204297,1364,393,8.76392,71.5328
147,631,8.73035,-71.1541,0.00276286,0.00322109,0.000603452,0.00363745,0.00234649,0.966829,0.00212935,0.0234436,1371,393,8.73031,71.1542
154,631,8.79773,-70.769,0.00229413,0.00351241,0.000129394,0.003526,0.00228054,1.46614,0.00206477,0.0222917,1378,393,8.79777,70.769
161,631,8.86548,-70.364,0.00178963,0.0042933,0.000485213,0.00438405,0.00169888,1.38591,0.00255239,0.0247442,1385,393,8.86545,70.364
168,631,8.83276,-69.9033,0.00116462,0.0050076,0.000895513,0.00520603,0.000966191,1.35274,0.00319766,0.0296149,1392,393,8.83272,69.9032
175,631,8.80151,-69.5265,0.000541412,0.00563934,0.00129889,0.00595121,0.000229551,1.33516,0.00389321,0.0215918,1399,393,8.80151,69.5265
182,631,8.76868,-69.0781,-6.97916e-05,0.0062416,0.00167853,0.00666024,-0.00048843,1.32637,0.0046116,0.012544,1406,393,8.76863,69.0781
189,631,8.73218,-68.5346,-0.000611785,0.00676094,0.0021519,0.00734306,-0.0011939,1.30661,0.00533803,0.0122412,1413,393,8.73213,68.5346
196,631,8.6908,-68.0174,-0.0010301,0.00723031,0.00263504,0.00799929,-0.00179908,1.28685,0.00602279,0.0123053,1420,393,8.69083,68.0174
203,631,8.6991,-67.5138,-0.0014686,0.00756038,0.00302168,0.00847831,-0.00238653,1.27587,0.0065933,0.0132776,1427,393,8.69908,67.5138
210,631,8.64453,-66.9625,-0.00177203,0.00767454,0.00337992,0.00875929,-0.00285678,1.26024,0.00698919,0.0156755,1434,393,8.64451,66.9625
217,631,8.60364,-66.4044,-0.0019273,0.00766188,0.00368224,0.0089127,-0.00317812,1.24334,0.00723763,0.0174003,1441,393,8.60367,66.4045
224,631,8.56873,-65.7793,-0.00191284,0.00809182,0.00393305,0.00945283,-0.00327386,1.23765,0.00763097,0.0145987,1448,393,8.56877,65.7793
231,631,8.49414,-65.1315,-0.00170115,0.00852814,0.00444863,0.0101921,-0.00336514,1.21286,0.00815139,0.0124144,1455,393,8.49414,65.1315
238,631,8.42126,-64.4282,-0.00125017,0.00999108,0.00555038,0.0122697,-0.00352879,1.18124,0.00957532,0.0180356,1462,393,8.42129,64.4282
245,631,8.38635,-63.7861,-0.00104812,0.0111441,0.00627423,0.013796,-0.00370007,1.1709,0.0106472,0.0206267,1469,393,8.38634,63.7861
252,631,8.302,-63.1357,-0.00056397,0.0126872,0.00714952,0.0158091,-0.0036859,1.15909,0.0119589,0.0204058,1476,393,8.30199,63.1357
259,631,8.26392,-62.433,0.000183097,0.0148509,0.00834512,0.0186268,-0.00359277,1.1459,0.0137726,0.0144516,1483,393,8.26387,62.433
266,631,8.22913,-61.7159,0.000682372,0.0165775,0.00944156,0.0209712,-0.00371133,1.13524,0.015368,0.0127598,1490,393,8.2291,61.7159
273,631,8.18604,-60.9936,0.00118379,0.0188368,0.0107096,0.0238884,-0.00386783,1.13005,0.0173591,0.0166057,1497,393,8.18607,60.9936
280,631,8.12634,-60.189,0.00174674,0.0211246,0.0120127,0.0268687,-0.00399739,1.12476,0.0193828,0.016753,1504,393,8.12639,60.189
287,631,8.01501,-59.3887,0.00235314,0.0236835,0.0134144,0.0301557,-0.00411913,1.12126,0.0216081,0.018316,1511,393,8.01496,59.3887
294,631,7.87378,-58.5226,0.00275946,0.0260984,0.0146302,0.0331431,-0.00428519,1.12205,0.0236535,0.022191,1518,393,7.8738,58.5226
301,631,7.71326,-57.6186,0.00315826,0.0282285,0.015751,0.0358236,-0.00443681,1.12149,0.0254904,0.0331669,1525,393,7.71325,57.6186
308,631,7.87292,-56.571,0.0037299,0.0307572,0.0169809,0.0389454,-0.00445829,1.12149,0.0275701,0.0496651,1532,393,7.87287,56.571
315,631,7.90271,-56.165,0,0,0,0,0,0,0,-1,1539,393,7.90267,56.165
322,631,7.62439,-53.4194,0,0,0,0,0,0,0,-1,1546,393,7.62441,53.4194
329,631,5.70972,-38.2651,0,0,0,0,0,0,0,-1,1553,393,5.70967,38.2651
336,631,5.38281,-39.6306,0,0,0,0,0,0,0,-1,1560,393,5.38277,39.6306
343,631,6.21558,-38.7278,0,0,0,0,0,0,0,-1,1567,393,6.21558,38.7278
350,631,5.18359,-35.9677,0,0,0,0,0,0,0,-1,1574,393,5.18355,35.9677
357,631,2.6449,-9.60303,0,0,0,0,0,0,0,-1,1581,393,2.64491,9.60304
364,631,3.39136,-5.7594,0,0,0,0,0,0,0,-1,1588,393,3.39137,5.75939
371,631,3.72839,-6.0574,0,0,0,0,0,0,0,-1,1595,393,3.72845,6.05742
378,631,4.06555,-6.35544,0,0,0,0,0,0,0,-1,1602,393,4.06553,6.35544
385,631,3.90442,-3.58298,0,0,0,0,0,0,0,-1,1609,393,3.90437,3.58299
392,631,0.352295,-2.21301,0,0,0,0,0,0,0,-1,1616,393,0.352345,2.213
399,631,0,0,0,0,0,0,0,0,0,-1,1623,393,0,0
406,631,0,0,0,0,0,0,0,0,0,-1,1630,393,0,0
413,631,0,0,0,0,0,0,0,0,0,-1,1637,393,0,0
420,631,0,0,0,0,0,0,0,0,0,-1,1644,393,0,0
427,631,0,0,0,0,0,0,0,0,0,-1,1651,393,0,0
434,631,0,0,0,0,0,0,0,0,0,-1,1658,393,0,0
441,631,0,0,0,0,0,0,0,0,0,-1,1665,393,0,0
448,631,0,0,0,0,0,0,0,0,0,-1,1672,393,0,0
455,631,0,0,0,0,0,0,0,0,0,-1,1679,393,0,0
462,631,0,0,0,0,0,0,0,0,0,-1,1686,393,0,0
469,631,0,0,0,0,0,0,0,0,0,-1,1693,393,0,0
476,631,0,0,0,0,0,0,0,0,0,-1,1700,393,0,0
483,631,0,0,0,0,0,0,0,0,0,-1,1707,393,0,0
490,631,0,0,0,0,0,0,0,0,0,-1,1714,393,0,0
497,631,0,0,0,0,0,0,0,0,0,-1,1721,393,0,0
504,631,0,0,0,0,0,0,0,0,0,-1,1728,393,0,0
511,631,0,0,0,0,0,0,0,0,0,-1,1735,393,0,0
518,631,0,0,0,0,0,0,0,0,0,-1,1742,393,0,0
525,631,0,0,0,0,0,0,0,0,0,-1,1749,393,0,0
532,631,0,0,0,0,0,0,0,0,0,-1,1756,393,0,0
539,631,0,0,0,0,0,0,0,0,0,-1,1763,393,0,0
546,631,0,0,0,0,0,0,0,0,0,-1,1770,393,0,0
553,631,0,0,0,0,0,0,0,0,0,-1,1777,393,0,0
560,631,0,0,0,0,0,0,0,0,0,-1,1784,393,0,0
567,631,0,0,0,0,0,0,0,0,0,-1,1791,393,0,0
574,631,0,0,0,0,0,0,0,0,0,-1,1798,393,0,0
581,631,0,0,0,0,0,0,0,0,0,-1,1805,393,0,0
588,631,0,0,0,0,0,0,0,0,0,-1,1812,393,0,0
595,631,0,0,0,0,0,0,0,0,0,-1,1819,393,0,0
602,631,0,0,0,0,0,0,0,0,0,-1,1826,393,0,0
609,631,0,0,0,0,0,0,0,0,0,-1,1833,393,0,0
616,631,0,0,0,0,0,0,0,0,0,-1,1840,393,0,0
623,631,0,0,0,0,0,0,0,0,0,-1,1847,393,0,0
630,631,0,0,0,0,0,0,0,0,0,-1,1854,393,0,0
637,631,0,0,0,0,0,0,0,0,0,-1,1861,393,0,0
644,631,0,0,0,0,0,0,0,0,0,-1,1868,393,0,0
651,631,0,0,0,0,0,0,0,0,0,-1,1875,393,0,0
658,631,0,0,0,0,0,0,0,0,0,-1,1882,393,0,0
665,631,0,0,0,0,0,0,0,0,0,-1,1889,393,0,0
672,631,0,0,0,0,0,0,0,0,0,-1,1896,393,0,0
679,631,0,0,0,0,0,0,0,0,0,-1,1903,393,0,0
686,631,0,0,0,0,0,0,0,0,0,-1,1910,393,0,0
693,631,0,0,0,0,0,0,0,0,0,-1,1917,393,0,0
700,631,0,0,0,0,0,0,0,0,0,-1,1924,393,0,0
707,631,0,0,0,0,0,0,0,0,0,-1,1931,393,0,0
714,631,0,0,0,0,0,0,0,0,0,-1,1938,393,0,0
721,631,0,0,0,0,0,0,0,0,0,-1,1945,393,0,0
728,631,0,0,0,0,0,0,0,0,0,-1,1952,393,0,0
735,631,0,0,0,0,0,0,0,0,0,-1,1959,393,0,0
742,631,0,0,0,0,0,0,0,0,0,-1,1966,393,0,0
749,631,0,0,0,0,0,0,0,0,0,-1,1973,393,0,0
756,631,0,0,0,0,0,0,0,0,0,-1,1980,393,0,0
763,631,0,0,0,0,0,0,0,0,0,-1,1987,393,0,0
770,631,0,0,0,0,0,0,0,0,0,-1,1994,393,0,0
777,631,0,0,0,0,0,0,0,0,0,-1,2001,393,0,0
784,631,0,0,0,0,0,0,0,0,0,-1,2008,393,0,0
791,631,0,0,0,0,0,0,0,0,0,-1,2015,393,0,0
798,631,0,0,0,0,0,0,0,0,0,-1,2022,393,0,0
805,631,0,0,0,0,0,0,0,0,0,-1,2029,393,0,0
812,631,0,0,0,0,0,0,0,0,0,-1,2036,393,0,0
-700,624,0,0,0,0,0,0,0,0,0,-1,524,400,0,0
-693,624,0,0,0,0,0,0,0,0,0,-1,531,400,0,0
-686,624,0,0,0,0,0,0,0,0,0,-1,538,400,0,0
-679,624,0,0,0,0,0,0,0,0,0,-1,545,400,0,0
-672,624,0,0,0,0,0,0,0,0,0,-1,552,400,0,0
-665,624,0,0,0,0,0,0,0,0,0,-1,559,400,0,0
-658,624,0,0,0,0,0,0,0,0,0,-1,566,400,0,0
-651,624,0,0,0,0,0,0,0,0,0,-1,573,400,0,0
-644,624,0,0,0,0,0,0,0,0,0,-1,580,400,0,0
-637,624,0,0,0,0,0,0,0,0,0,-1,587,400,0,0
-630,624,0,0,0,0,0,0,0,0,0,-1,594,400,0,0
-623,624,0,0,0,0,0,0,0,0,0,-1,601,400,0,0
-616,624,0,0,0,0,0,0,0,0,0,-1,608,400,0,0
-609,624,0,0,0,0,0,0,0,0,0,-1,615,400,0,0
-602,624,0,0,0,0,0,0,0,0,0,-1,622,400,0,0
-595,624,0,0,0,0,0,0,0,0,0,-1,629,400,0,0
-588,624,0,0,0,0,0,0,0,0,0,-1,636,400,0,0
-581,624,0,0,0,0,0,0,0,0,0,-1,643,400,0,0
-574,624,0,0,0,0,0,0,0,0,0,-1,650,400,0,0
-567,624,0,0,0,0,0,0,0,0,0,-1,657,400,0,0
-560,624,0,0,0,0,0,0,0,0,0,-1,664,400,0,0
-553,624,0,0,0,0,0,0,0,0,0,-1,671,400,0,0
-546,624,0,0,0,0,0,0,0,0,0,-1,678,400,0,0
-539,624,0,0,0,0,0,0,0,0,0,-1,685,400,0,0
-532,624,0,0,0,0,0,0,0,0,0,-1,692,400,0,0
-525,624,0,0,0,0,0,0,0,0,0,-1,699,400,0,0
-518,624,0,0,0,0,0,0,0,0,0,-1,706,400,0,0
-511,624,0,0,0,0,0,0,0,0,0,-1,713,400,0,0
-504,624,0,0,0,0,0,0,0,0,0,-1,720,400,0,0
-497,624,0,0,0,0,0,0,0,0,0,-1,727,400,0,0
-490,624,0,0,0,0,0,0,0,0,0,-1,734,400,0,0
-483,624,0,0,0,0,0,0,0,0,0,-1,741,400,0,0
-476,624,0,0,0,0,0,0,0,0,0,-1,748,400,0,0
-469,624,0,0,0,0,0,0,0,0,0,-1,755,400,0,0
-462,624,0,0,0,0,0,0,0,0,0,-1,762,400,0,0
-455,624,0,0,0,0,0,0,0,0,0,-1,769,400,0,0
-448,624,0,0,0,0,0,0,0,0,0,-1,776,400,0,0
-441,624,0,0,0,0,0,0,0,0,0,-1,783,400,0,0
-434,624,0,0,0,0,0,0,0,0,0,-1,790,400,0,0
-427,624,0,0,0,0,0,0,0,0,0,-1,797,400,0,0
-420,624,0,0,0,0,0,0,0,0,0,-1,804,400,0,0
-413,624,0,0,0,0,0,0,0,0,0,-1,811,400,0,0
-406,624,0,0,0,0,0,0,0,0,0,-1,818,400,0,0
-399,624,0,0,0,0,0,0,0,0,0,-1,825,400,0,0
-392,624,0,0,0,0,0,0,0,0,0,-1,832,400,0,0
-385,624,0,0,0,0,0,0,0,0,0,-1,839,400,0,0
-378,624,0,0,0,0,0,0,0,0,0,-1,846,400,0,0
-371,624,0,0,0,0,0,0,0,0,0,-1,853,400,0,0
-364,624,0,0,0,0,0,0,0,0,0,-1,860,400,0,0
-357,624,0,0,0,0,0,0,0,0,0,-1,867,400,0,0
-350,624,0,0,0,0,0,0,0,0,0,-1,874,400,0,0
-343,624,0,0,0,0,0,0,0,0,0,-1,881,400,0,0
-336,624,0,0,0,0,0,0,0,0,0,-1,888,400,0,0
-329,624,0,0,0,0,0,0,0,0,0,-1,895,400,0,0
-322,624,0,0,0,0,0,0,0,0,0,-1,902,400,0,0
-315,624,0,0,0,0,0,0,0,0,0,-1,909,400,0,0
-308,624,0,0,0,0,0,0,0,0,0,-1,916,400,0,0
-301,624,0,0,0,0,0,0,0,0,0,-1,923,400,0,0
-294,624,5.08527,-28.5311,0,0,0,0,0,0,0,-1,930,400,5.08525,28.5311
-287,624,6.70825,-33.8,0,0,0,0,0,0,0,-1,937,400,6.70827,33.8
-280,624,6.92474,-33.8738,0,0,0,0,0,0,0,-1,944,400,6.92477,33.8739
-273,624,8.617,-37.3463,0,0,0,0,0,0,0,-1,951,400,8.61697,37.3463
-266,624,7.71747,-37.0599,0,0,0,0,0,0,0,-1,958,400,7.7175,37.0599
-259,624,7.33569,-33.1199,0,0,0,0,0,0,0,-1,965,400,7.33567,33.1199
-252,624,7.5528,-32.8158,0,0,0,0,0,0,0,-1,972,400,7.5528,32.8158
-245,624,6.8396,-32.02,0,0,0,0,0,0,0,-1,979,400,6.83963,32.02
-238,624,6.99402,-31.5278,0,0,0,0,0,0,0,-1,986,400,6.99404,31.5278
-231,624,3.86121,-29.6032,0,0,0,0,0,0,0,-1,993,400,3.86122,29.6032
-224,624,4.59351,-27.4048,0,0,0,0,0,0,0,-1,1000,400,4.59353,27.4048
-217,624,9.39142,-50.7224,0,0,0,0,0,0,0,-1,1007,400,9.39142,50.7224
-210,624,9.18933,-53.8757,0,0,0,0,0,0,0,-1,1014,400,9.18932,53.8757
-203,624,8.92163,-54.7363,0,0,0,0,0,0,0,-1,1021,400,8.92167,54.7363
-196,624,8.98999,-55.4253,0,0,0,0,0,0,0,-1,1028,400,8.98998,55.4253
-189,624,8.8252,-56.4073,0,0,0,0,0,0,0,-1,1035,400,8.82514,56.4073
-182,624,8.66785,-57.2891,0,0,0,0,0,0,0,-1,1042,400,8.6678,57.2891
-175,624,8.52026,-57.8704,-0.00329653,0.0118573,-0.00768352,0.0150714,-0.00651064,-1.1746,0.012783,0.0350267,1049,400,8.52027,57.8704
-168,624,8.60754,-58.82,-0.00334583,0.00984082,-0.00678364,0.0127074,-0.0062124,-1.17098,0.0111358,0.0261589,1056,400,8.60753,58.82
-161,624,8.48059,-59.6371,-0.00327722,0.00833053,-0.00599691,0.0108722,-0.00581888,-1.16992,0.0097827,0.0137035,1063,400,8.4806,59.6371
-154,624,8.40356,-60.4126,-0.00312691,0.00707248,-0.0053132,0.00933736,-0.00539179,-1.16785,0.00860498,0.0114402,1070,400,8.40362,60.4126
-147,624,8.34778,-61.1672,-0.0030614,0.00595305,-0.00460967,0.00789285,-0.0050012,-1.17248,0.00750653,0.0123636,1077,400,8.34776,61.1672
-140,624,8.28052,-61.8759,-0.00287677,0.00486779,-0.00404662,0.00659638,-0.00460535,-1.16709,0.00650129,0.0106001,1084,400,8.28048,61.8759
-133,624,8.19214,-62.564,-0.00259593,0.00412462,-0.0035536,0.0056551,-0.00412641,-1.16412,0.0056703,0.0117552,1091,400,8.19209,62.564
-126,624,8.14172,-63.235,-0.00237709,0.00357929,-0.0030639,0.00487393,-0.00367173,-1.171,0.00495009,0.0134967,1098,400,8.14168,63.2351
-119,624,8.08289,-63.9021,-0.00218039,0.00292732,-0.00254564,0.00397936,-0.00323243,-1.1789,0.00417117,0.01578,1105,400,8.08285,63.9021
-112,624,8.05261,-64.5404,-0.00177479,0.00261857,-0.00226318,0.00357583,-0.00273206,-1.17064,0.00365271,0.0185143,1112,400,8.05266,64.5404
-105,624,8.05481,-65.1943,-0.00134688,0.00241569,-0.00201129,0.0032884,-0.00221959,-1.1614,0.00319994,0.014151,1119,400,8.05487,65.1943
-98,624,7.99512,-65.8123,-0.000937392,0.00229775,-0.00179548,0.00309685,-0.00173649,-1.15206,0.00282713,0.0142241,1126,400,7.99513,65.8122
-91,624,7.98523,-66.3988,-0.000486636,0.00216268,-0.00159559,0.00291182,-0.00123578,-1.13184,0.00245892,0.0208124,1133,400,7.98528,66.3988
-84,624,7.97461,-66.9995,4.17097e-05,0.0019506,-0.00138157,0.00267536,-0.000683045,-1.08767,0.00204955,0.0196597,1140,400,7.97459,66.9995
-77,624,7.93579,-67.5612,0.000560926,0.00168909,-0.00114724,0.00240342,-0.000153406,-1.01389,0.00165579,0.0153129,1147,400,7.9358,67.5612
-70,624,7.92163,-68.0496,0.00110277,0.0013971,-0.000900809,0.00216269,0.000337182,-0.866369,0.00134357,0.0176459,1154,400,7.92165,68.0496
-63,624,7.94592,-68.5861,0.00169209,0.000827633,-0.000594366,0.00199477,0.000524951,-0.471021,0.00119397,0.0197801,1161,400,7.9459,68.5861
-56,624,7.88489,-69.096,0.00223223,0.000196852,-0.000274272,0.00226854,0.000160541,-0.131625,0.00146179,0.0160197,1168,400,7.88486,69.096
-49,624,7.87524,-69.567,0.00278172,-0.000450796,3.84969e-05,0.00278218,-0.000451254,0.011907,0.00202206,0.0115298,1175,400,7.87528,69.567
-42,624,7.88367,-69.9695,0.00336311,-0.0010918,0.000346817,0.00338994,-0.00111864,0.0772304,0.0027109,0.010311,1182,400,7.88365,69.9696
-35,624,7.89636,-70.3701,0.00395117,-0.00164483,0.000583977,0.00401146,-0.00170512,0.102879,0.00338882,0.0160247,1189,400,7.89642,70.3701
-28,624,7.90369,-70.7998,0.0044742,-0.0027139,0.000722953,0.00454619,-0.00278589,0.0992519,0.00427365,0.0216584,1196,400,7.90367,70.7998
-21,624,7.90417,-71.1458,0.00532914,-0.00369909,0.000790158,0.00539777,-0.00376773,0.086643,0.00531953,0.0153133,1203,400,7.90417,71.1458
-14,624,7.95825,-71.4751,0.00668572,-0.00420274,0.00105331,0.00678668,-0.0043037,0.0955553,0.0064563,0.0151775,1210,400,7.95821,71.4751
-7,624,8.01501,-71.7921,0.00828525,-0.00490672,0.00130994,0.00841407,-0.00503553,0.0980232,0.00784637,0.0206397,1217,400,8.01499,71.7921
0,624,8.05811,-72.0475,0.00890746,-0.00575439,0.00122241,0.00900868,-0.00585561,0.0826134,0.00864602,0.0229482,1224,400,8.05805,72.0475
7,624,8.0575,-72.2957,0.00921055,-0.00635105,0.00123462,0.00930789,-0.00644839,0.0786816,0.0091467,0.0168554,1231,400,8.05747,72.2957
14,624,8.12659,-72.5384,0.00963242,-0.0067617,0.00127888,0.00973158,-0.00686086,0.0773844,0.00962733,0.0135163,1238,400,8.12662,72.5384
21,624,8.15271,-72.722,0.00928065,-0.00627306,0.00141007,0.00940745,-0.00639986,0.0896837,0.00918125,0.0162314,1245,400,8.15277,72.722
28,624,8.17432,-72.8876,0.0086357,-0.00539147,0.00162827,0.00882223,-0.005578,0.114059,0.00838401,0.0157201,1252,400,8.17431,72.8876
35,624,8.24768,-72.9992,0.00754749,-0.0041196,0.00176041,0.00780732,-0.00437943,0.146541,0.0071282,0.0182442,1259,400,8.24771,72.9992
42,624,8.3634,-73.1211,0.00610012,-0.00220666,0.002632,0.00686385,-0.00297039,0.282416,0.00582424,0.0195416,1266,400,8.36334,73.1211
49,624,8.42126,-73.1584,0.00502711,-0.000173692,0.00413016,0.00730732,-0.0024539,0.504444,0.00586325,0.0201589,1273,400,8.42121,73.1585
56,624,8.49487,-73.2696,0.00392783,0.00174077,0.0052727,0.00821921,-0.0025506,0.683151,0.00649871,0.0205238,1280,400,8.49492,73.2696
63,624,8.56909,-73.3119,0.00300477,0.00349841,0.0062916,0.00954803,-0.00304485,0.805003,0.00758678,0.0172461,1287,400,8.56904,73.3119
70,624,8.56873,-73.3325,0.00262245,0.00498826,0.00739836,0.0112977,-0.00368698,0.864671,0.00901568,0.0163529,1294,400,8.56877,73.3325
77,624,8.63647,-73.2573,0.00265273,0.00642251,0.00867623,0.0134162,-0.004341,0.89236,0.0106891,0.0169995,1301,400,8.63644,73.2573
84,624,8.72339,-73.1671,0.00280426,0.00703208,0.00947004,0.0146213,-0.00478494,0.895208,0.0116741,0.0148434,1308,400,8.7234,73.1672
91,624,8.77991,-73.0427,0.00314031,0.00669239,0.00980985,0.0148857,-0.00505297,0.874951,0.0119691,0.0146866,1315,400,8.77996,73.0427
98,624,8.8175,-72.9322,0.00382102,0.00630224,0.0100381,0.0151761,-0.00505289,0.846881,0.0121569,0.0140506,1322,400,8.81751,72.9322
105,624,8.86084,-72.7881,0.00534786,0.00563365,0.010058,0.0155498,-0.00456828,0.792501,0.0121783,0.0158297,1329,400,8.86078,72.7881
112,624,8.94214,-72.5993,0.00681403,0.00455762,0.00947195,0.0152247,-0.00385308,0.726122,0.0116486,0.0170058,1336,400,8.94213,72.5993
119,624,8.99585,-72.4186,0.00778999,0.00312207,0.008456,0.0142282,-0.00331616,0.650745,0.0107625,0.0171433,1343,400,8.99587,72.4186
126,624,9.00488,-72.1115,0.00873196,0.00154571,0.00716089,0.0131506,-0.00287296,0.552867,0.00986519,0.0188474,1350,400,9.0049,72.1115
133,624,9.06079,-71.7877,0.00914905,0.00018285,0.00560333,0.011842,-0.00251009,0.448004,0.0088508,0.0188889,1357,400,9.06083,71.7877
140,624,9.08008,-71.4995,0.00916764,-0.00086105,0.0042087,0.0106998,-0.00239321,0.349134,0.0080504,0.0192207,1364,400,9.08012,71.4994
147,624,9.09705,-71.1121,0.00881865,-0.00170805,0.00216011,0.00924467,-0.00213407,0.194723,0.00698401,0.0235231,1371,400,9.09704,71.1121
154,624,9.20679,-70.7596,0.00759277,-0.00187526,0.00017033,0.00759583,-0.00187832,0.0179823,0.00579241,0.0254015,1378,400,9.20673,70.7596
161,624,9.24829,-70.4037,0.00634777,-0.00104233,-0.000209886,0.00635373,-0.00104829,-0.0283704,0.00462502,0.0236609,1385,400,9.24835,70.4038
168,624,9.23706,-69.9531,0.00521814,-0.00010457,-9.92442e-05,0.00521999,-0.00010642,-0.0186368,0.003516,0.0242973,1392,400,9.23711,69.9531
175,624,9.25903,-69.5287,0.00398621,0.00072845,-0.000106602,0.0039897,0.000724965,-0.032676,0.0024541,0.019096,1399,400,9.25909,69.5287
182,624,9.25366,-69.0847,0.0029179,0.00163937,-6.87244e-05,0.00292158,0.00163568,-0.0535471,0.0016908,0.0119793,1406,400,9.25363,69.0847
189,624,9.21143,-68.5648,0.00217684,0.00255146,0.000423756,0.00282746,0.00190084,0.993494,0.00166442,0.0115281,1413,400,9.21146,68.5648
196,624,9.19897,-68.0315,0.00155766,0.003467,0.00092705,0.00384305,0.00118161,1.18544,0.00227296,0.0117875,1420,400,9.19896,68.0315
203,624,9.23145,-67.4848,0.000960035,0.00406313,0.00132703,0.00455322,0.000469938,1.21702,0.00289159,0.013954,1427,400,9.23142,67.4848
210,624,9.198,-66.931,0.000404556,0.00458377,0.00172616,0.00520453,-0.000216206,1.22558,0.00354396,0.0181143,1434,400,9.19798,66.931
217,624,9.14612,-66.3257,3.66545e-05,0.00500482,0.00215358,0.00580838,-0.000766903,1.21367,0.00415157,0.0209628,1441,400,9.14617,66.3256
224,624,9.13245,-65.74,-0.000113745,0.00552247,0.00250532,0.00647508,-0.00106636,1.20744,0.00471257,0.0163821,1448,400,9.13247,65.74
231,624,9.1239,-65.1484,-0.000157957,0.0060463,0.00301781,0.00727203,-0.00138369,1.18499,0.00536902,0.0124628,1455,400,9.12386,65.1484
238,624,9.06531,-64.4817,-1.8593e-05,0.00717986,0.00386562,0.00886244,-0.00170117,1.16026,0.00654941,0.018046,1462,400,9.06528,64.4817
245,624,9.00537,-63.8368,2.12678e-06,0.00814281,0.00446373,0.0101134,-0.00196844,1.15507,0.00748518,0.0193818,1469,400,9.00538,63.8368
252,624,8.94507,-63.1646,0.000185609,0.00938735,0.0051723,0.011709,-0.002136,1.1489,0.00860678,0.0145596,1476,400,8.94501,63.1646
259,624,8.92493,-62.4663,0.000544133,0.0110807,0.00611994,0.0138876,-0.00226276,1.14077,0.0100975,0.010052,1483,400,8.92496,62.4663
266,624,8.93359,-61.7337,0.00074358,0.0124558,0.00700074,0.0157268,-0.00252744,1.1337,0.0114206,0.0138389,1490,400,8.9336,61.7337
273,624,8.86987,-61.0017,0.000941766,0.0141957,0.00797998,0.0179416,-0.00280415,1.13192,0.012997,0.0179996,1497,400,8.86992,61.0017
280,624,8.7666,-60.2726,0.00119636,0.0159561,0.00899923,0.0202145,-0.003062,1.12882,0.0146044,0.0172761,1504,400,8.76665,60.2726
287,624,8.67749,-59.5181,0.00150736,0.0179219,0.010088,0.0227195,-0.00329023,1.12688,0.0163538,0.0129446,1511,400,8.67751,59.5181
294,624,8.61401,-58.7174,0.00166147,0.0197241,0.0110125,0.024935,-0.00354938,1.12884,0.017924,0.0116705,1518,400,8.61407,58.7174
301,624,8.53894,-57.8638,0.00181485,0.0212943,0.0118877,0.0269227,-0.00381355,1.1286,0.0193453,0.0133428,1525,400,8.53896,57.8638
308,624,8.52295,-57.0111,0.00211778,0.023241,0.012875,0.0293321,-0.00397331,1.1289,0.0210048,0.0191265,1532,400,8.52289,57.0111
315,624,8.50574,-56.2176,0.00260543,0.0256266,0.0140529,0.0322813,-0.00404923,1.12854,0.0229898,0.0272183,1539,400,8.50573,56.2175
322,624,8.42725,-55.4338,0,0,0,0,0,0,0,-1,1546,400,8.42723,55.4338
329,624,8.12769,-54.7062,0,0,0,0,0,0,0,-1,1553,400,8.12767,54.7062
336,624,8.09863,-53.2634,0,0,0,0,0,0,0,-1,1560,400,8.09857,53.2634
343,624,6.53369,-39.5615,0,0,0,0,0,0,0,-1,1567,400,6.53364,39.5615
350,624,1.99194,-7.29742,0,0,0,0,0,0,0,-1,1574,400,1.99198,7.29741
357,624,2.64075,-3.13092,0,0,0,0,0,0,0,-1,1581,400,2.64076,3.13091
364,624,3.16565,-4.9458,0,0,0,0,0,0,0,-1,1588,400,3.16564,4.94579
371,624,3.37561,-5.23529,0,0,0,0,0,0,0,-1,1595,400,3.37563,5.23529
378,624,1.50439,-5.22165,0,0,0,0,0,0,0,-1,1602,400,1.50438,5.22164
385,624,1.2301,-10.5866,0,0,0,0,0,0,0,-1,1609,400,1.2301,10.5866
392,624,4.26819,-5.14236,0,0,0,0,0,0,0,-1,1616,400,4.26818,5.14236
399,624,2.22168,-9.19293,0,0,0,0,0,0,0,-1,1623,400,2.22173,9.19294
406,624,2.68213,-9.91171,0,0,0,0,0,0,0,-1,1630,400,2.68213,9.91171
413,624,0,0,0,0,0,0,0,0,0,-1,1637,400,0,0
420,624,0,0,0,0,0,0,0,0,0,-1,1644,400,0,0
427,624,0,0,0,0,0,0,0,0,0,-1,1651,400,0,0
434,624,0,0,0,0,0,0,0,0,0,-1,1658,400,0,0
441,624,0,0,0,0,0,0,0,0,0,-1,1665,400,0,0
448,624,0,0,0,0,0,0,0,0,0,-1,1672,400,0,0
455,624,0,0,0,0,0,0,0,0,0,-1,1679,400,0,0
462,624,0,0,0,0,0,0,0,0,0,-1,1686,400,0,0
469,624,0,0,0,0,0,0,0,0,0,-1,1693,400,0,0
476,624,0,0,0,0,0,0,0,0,0,-1,1700,400,0,0
483,624,0,0,0,0,0,0,0,0,0,-1,1707,400,0,0
490,624,0,0,0,0,0,0,0,0,0,-1,1714,400,0,0
497,624,0,0,0,0,0,0,0,0,0,-1,1721,400,0,0
504,624,0,0,0,0,0,0,0,0,0,-1,1728,400,0,0
511,624,0,0,0,0,0,0,0,0,0,-1,1735,400,0,0
518,624,0,0,0,0,0,0,0,0,0,-1,1742,400,0,0
525,624,0,0,0,0,0,0,0,0,0,-1,1749,400,0,0
532,624,0,0,0,0,0,0,0,0,0,-1,1756,400,0,0
539,624,0,0,0,0,0,0,0,0,0,-1,1763,400,0,0
546,624,0,0,0,0,0,0,0,0,0,-1,1770,400,0,0
553,624,0,0,0,0,0,0,0,0,0,-1,1777,400,0,0
560,624,0,0,0,0,0,0,0,0,0,-1,1784,400,0,0
567,624,0,0,0,0,0,0,0,0,0,-1,1791,400,0,0
574,624,0,0,0,0,0,0,0,0,0,-1,1798,400,0,0
581,624,0,0,0,0,0,0,0,0,0,-1,1805,400,0,0
588,624,0,0,0,0,0,0,0,0,0,-1,1812,400,0,0
595,624,0,0,0,0,0,0,0,0,0,-1,1819,400,0,0
602,624,0,0,0,0,0,0,0,0,0,-1,1826,400,0,0
609,624,0,0,0,0,0,0,0,0,0,-1,1833,400,0,0
616,624,0,0,0,0,0,0,0,0,0,-1,1840,400,0,0
623,624,0,0,0,0,0,0,0,0,0,-1,1847,400,0,0
630,624,0,0,0,0,0,0,0,0,0,-1,1854,400,0,0
637,624,0,0,0,0,0,0,0,0,0,-1,1861,400,0,0
644,624,0,0,0,0,0,0,0,0,0,-1,1868,400,0,0
651,624,0,0,0,0,0,0,0,0,0,-1,1875,400,0,0
658,624,0,0,0,0,0,0,0,0,0,-1,1882,400,0,0
665,624,0,0,0,0,0,0,0,0,0,-1,1889,400,0,0
672,624,0,0,0,0,0,0,0,0,0,-1,1896,400,0,0
679,624,0,0,0,0,0,0,0,0,0,-1,1903,400,0,0
686,624,0,0,0,0,0,0,0,0,0,-1,1910,400,0,0
693,624,0,0,0,0,0,0,0,0,0,-1,1917,400,0,0
700,624,0,0,0,0,0,0,0,0,0,-1,1924,400,0,0
707,624,0,0,0,0,0,0,0,0,0,-1,1931,400,0,0
714,624,0,0,0,0,0,0,0,0,0,-1,1938,400,0,0
721,624,0,0,0,0,0,0,0,0,0,-1,1945,400,0,0
728,624,0,0,0,0,0,0,0,0,0,-1,1952,400,0,0
735,624,0,0,0,0,0,0,0,0,0,-1,1959,400,0,0
742,624,0,0,0,0,0,0,0,0,0,-1,1966,400,0,0
749,624,0,0,0,0,0,0,0,0,0,-1,1973,400,0,0
756,624,0,0,0,0,0,0,0,0,0,-1,1980,400,0,0
763,624,0,0,0,0,0,0,0,0,0,-1,1987,400,0,0
770,624,0,0,0,0,0,0,0,0,0,-1,1994,400,0,0
777,624,0,0,0,0,0,0,0,0,0,-1,2001,400,0,0
784,624,0,0,0,0,0,0,0,0,0,-1,2008,400,0,0
791,624,0,0,0,0,0,0,0,0,0,-1,2015,400,0,0
798,624,0,0,0,0,0,0,0,0,0,-1,2022,400,0,0
805,624,0,0,0,0,0,0,0,0,0,-1,2029,400,0,0
812,624,0,0,0,0,0,0,0,0,0,-1,2036,400,0,0
-700,617,0,0,0,0,0,0,0,0,0,-1,524,407,0,0
-693,617,0,0,0,0,0,0,0,0,0,-1,531,407,0,0
-686,617,0,0,0,0,0,0,0,0,0,-1,538,407,0,0
-679,617,0,0,0,0,0,0,0,0,0,-1,545,407,0,0
-672,617,0,0,0,0,0,0,0,0,0,-1,552,407,0,0
-665,617,0,0,0,0,0,0,0,0,0,-1,559,407,0,0
-658,617,0,0,0,0,0,0,0,0,0,-1,566,407,0,0
-651,617,0,0,0,0,0,0,0,0,0,-1,573,407,0,0
-644,617,0,0,0,0,0,0,0,0,0,-1,580,407,0,0
-637,617,0,0,0,0,0,0,0,0,0,-1,587,407,0,0
-630,617,0,0,0,0,0,0,0,0,0,-1,594,407,0,0
-623,617,0,0,0,0,0,0,0,0,0,-1,601,407,0,0
-616,617,0,0,0,0,0,0,0,0,0,-1,608,407,0,0
-609,617,0,0,0,0,0,0,0,0,0,-1,615,407,0,0
-602,617,0,0,0,0,0,0,0,0,0,-1,622,407,0,0
-595,617,0,0,0,0,0,0,0,0,0,-1,629,407,0,0
-588,617,0,0,0,0,0,0,0,0,0,-1,636,407,0,0
-581,617,0,0,0,0,0,0,0,0,0,-1,643,407,0,0
-574,617,0,0,0,0,0,0,0,0,0,-1,650,407,0,0
-567,617,0,0,0,0,0,0,0,0,0,-1,657,407,0,0
-560,617,0,0,0,0,0,0,0,0,0,-1,664,407,0,0
-553,617,0,0,0,0,0,0,0,0,0,-1,671,407,0,0
-546,617,0,0,0,0,0,0,0,0,0,-1,678,407,0,0
-539,617,0,0,0,0,0,0,0,0,0,-1,685,407,0,0
-532,617,0,0,0,0,0,0,0,0,0,-1,692,407,0,0
-525,617,0,0,0,0,0,0,0,0,0,-1,699,407,0,0
-518,617,0,0,0,0,0,0,0,0,0,-1,706,407,0,0
-511,617,0,0,0,0,0,0,0,0,0,-1,713,407,0,0
-504,617,0,0,0,0,0,0,0,0,0,-1,720,407,0,0
-497,617,0,0,0,0,0,0,0,0,0,-1,727,407,0,0
-490,617,0,0,0,0,0,0,0,0,0,-1,734,407,0,0
-483,617,0,0,0,0,0,0,0,0,0,-1,741,407,0,0
-476,617,0,0,0,0,0,0,0,0,0,-1,748,407,0,0
-469,617,0,0,0,0,0,0,0,0,0,-1,755,407,0,0
-462,617,0,0,0,0,0,0,0,0,0,-1,762,407,0,0
-455,617,0,0,0,0,0,0,0,0,0,-1,769,407,0,0
-448,617,0,0,0,0,0,0,0,0,0,-1,776,407,0,0
-441,617,0,0,0,0,0,0,0,0,0,-1,783,407,0,0
-434,617,0,0,0,0,0,0,0,0,0,-1,790,407,0,0
-427,617,0,0,0,0,0,0,0,0,0,-1,797,407,0,0
-420,617,0,0,0,0,0,0,0,0,0,-1,804,407,0,0
-413,617,0,0,0,0,0,0,0,0,0,-1,811,407,0,0
-406,617,0,0,0,0,0,0,0,0,0,-1,818,407,0,0
-399,617,0,0,0,0,0,0,0,0,0,-1,825,407,0,0
-392,617,0,0,0,0,0,0,0,0,0,-1,832,407,0,0
-385,617,0,0,0,0,0,0,0,0,0,-1,839,407,0,0
-378,617,0,0,0,0,0,0,0,0,0,-1,846,407,0,0
-371,617,0,0,0,0,0,0,0,0,0,-1,853,407,0,0
-364,617,0,0,0,0,0,0,0,0,0,-1,860,407,0,0
-357,617,0,0,0,0,0,0,0,0,0,-1,867,407,0,0
-350,617,0,0,0,0,0,0,0,0,0,-1,874,407,0,0
-343,617,0,0,0,0,0,0,0,0,0,-1,881,407,0,0
-336,617,0,0,0,0,0,0,0,0,0,-1,888,407,0,0
-329,617,0,0,0,0,0,0,0,0,0,-1,895,407,0,0
-322,617,0,0,0,0,0,0,0,0,0,-1,902,407,0,0
-315,617,0,0,0,0,0,0,0,0,0,-1,909,407,0,0
-308,617,0,0,0,0,0,0,0,0,0,-1,916,407,0,0
-301,617,6.81897,-24.525,0,0,0,0,0,0,0,-1,923,407,6.81899,24.525
-294,617,6.19263,-26.917,0,0,0,0,0,0,0,-1,930,407,6.19261,26.917
-287,617,7.00409,-31.9773,0,0,0,0,0,0,0,-1,937,407,7.00406,31.9773
-280,617,9.1106,-36.5021,0,0,0,0,0,0,0,-1,944,407,9.11059,36.5021
-273,617,8.35004,-36.2751,0,0,0,0,0,0,0,-1,951,407,8.35003,36.2751
-266,617,7.61749,-36.1671,0,0,0,0,0,0,0,-1,958,407,7.61746,36.1671
-259,617,6.83643,-36.3605,0,0,0,0,0,0,0,-1,965,407,6.83643,36.3605
-252,617,6.02264,-36.5001,0,0,0,0,0,0,0,-1,972,407,6.02265,36.5001
-245,617,6.72626,-34.4465,0,0,0,0,0,0,0,-1,979,407,6.72627,34.4465
-238,617,5.6474,-34.6842,0,0,0,0,0,0,0,-1,986,407,5.64741,34.6842
-231,617,8.3269,-50.4792,0,0,0,0,0,0,0,-1,993,407,8.3269,50.4792
-224,617,8.31732,-51.6232,0,0,0,0,0,0,0,-1,1000,407,8.31732,51.6232
-217,617,8.37738,-52.8019,0,0,0,0,0,0,0,-1,1007,407,8.37738,52.8019
-210,617,8.33429,-53.89,-0.00219142,0.0238229,-0.011149,0.0279471,-0.00631568,-1.21648,0.0210548,0.0415255,1014,407,8.33427,53.8901
-203,617,8.19043,-54.7732,-0.00234071,0.0199784,-0.00984349,0.0236993,-0.00606168,-1.20939,0.0181605,0.0329045,1021,407,8.19044,54.7732
-196,617,8.19312,-55.5415,-0.00247564,0.0166108,-0.00861305,0.0199228,-0.00578767,-1.20369,0.0155738,0.0232817,1028,407,8.19315,55.5415
-189,617,8.04016,-56.4591,-0.00241756,0.0137706,-0.00772638,0.0168663,-0.00551325,-1.18972,0.0134636,0.0187676,1035,407,8.04013,56.4591
-182,617,7.92749,-57.2847,-0.00241393,0.0114087,-0.0068227,0.014209,-0.00521423,-1.18132,0.0116079,0.0192159,1042,407,7.92743,57.2847
-175,617,7.90552,-58.0796,-0.00250599,0.00900907,-0.00582014,0.0114383,-0.00493523,-1.17539,0.00969861,0.0171776,1049,407,7.90549,58.0796
-168,617,7.83679,-58.8764,-0.00245618,0.00729635,-0.0050601,0.00944736,-0.00460719,-1.16885,0.00827324,0.0134594,1056,407,7.83674,58.8764
-161,617,7.75488,-59.6587,-0.00227722,0.00601414,-0.00441427,0.00792424,-0.00418732,-1.16241,0.00710269,0.0119651,1063,407,7.75484,59.6587
-154,617,7.68005,-60.4163,-0.00201828,0.0049493,-0.00384741,0.00665583,-0.0037248,-1.15332,0.00607237,0.0129832,1070,407,7.68011,60.4163
-147,617,7.63574,-61.1447,-0.00178785,0.00403506,-0.00327951,0.005509,-0.00326179,-1.14841,0.00511893,0.0185464,1077,407,7.63576,61.1446
-140,617,7.58398,-61.8796,-0.00144899,0.00314685,-0.00281592,0.00448347,-0.0027856,-1.12762,0.00423479,0.0140641,1084,407,7.58404,61.8796
-133,617,7.54297,-62.5752,-0.00103243,0.00254624,-0.00242184,0.00376806,-0.00225425,-1.10356,0.00351341,0.0158204,1091,407,7.543,62.5752
-126,617,7.49487,-63.2139,-0.000648096,0.00211914,-0.00206082,0.00321774,-0.00174669,-1.08103,0.00290786,0.0148768,1098,407,7.49483,63.2139
-119,617,7.4353,-63.8951,-0.000238494,0.00167105,-0.00167684,0.00264588,-0.00121332,-1.0442,0.00227871,0.0148671,1105,407,7.43532,63.8951
-112,617,7.41602,-64.5349,0.000324542,0.00147246,-0.00144843,0.0024565,-0.000659503,-0.974038,0.00189613,0.0164976,1112,407,7.41604,64.5349
-105,617,7.40186,-65.1838,0.000872802,0.00134347,-0.00126608,0.0023959,-0.000179632,-0.877287,0.00166039,0.0174342,1119,407,7.4018,65.1838
-98,617,7.39429,-65.7954,0.00140539,0.00120048,-0.0010919,0.00239964,0.000206237,-0.738619,0.00153564,0.0141346,1126,407,7.39431,65.7954
-91,617,7.40552,-66.3808,0.00199059,0.00101773,-0.000898253,0.00252567,0.000482657,-0.537239,0.00154818,0.0192758,1133,407,7.40554,66.3808
-84,617,7.44409,-66.9865,0.00269713,0.0007496,-0.000685475,0.0029142,0.000532527,-0.306684,0.00179186,0.0186621,1140,407,7.44404,66.9865
-77,617,7.41541,-67.5323,0.00337331,0.000257829,-0.000434041,0.00343265,0.00019849,-0.135871,0.00222523,0.0155133,1147,407,7.41542,67.5323
-70,617,7.41565,-68.0681,0.00413062,-0.000464784,-0.000156592,0.00413595,-0.000470113,-0.0340231,0.00292662,0.0184992,1154,407,7.41564,68.0681
-63,617,7.48303,-68.6082,0.00493724,-0.00160679,0.000257995,0.00494739,-0.00161694,0.0393431,0.00394917,0.0229199,1161,407,7.48307,68.6081
-56,617,7.42578,-69.0707,0.00558505,-0.00272917,0.000674329,0.00563939,-0.00278351,0.0804051,0.00495526,0.0171109,1168,407,7.42579,69.0707
-49,617,7.4303,-69.5516,0.00621666,-0.00374721,0.0010154,0.00631909,-0.00384963,0.100532,0.00592834,0.0124363,1175,407,7.43035,69.5516
-42,617,7.47693,-69.9961,0.00688318,-0.00476711,0.0013653,0.00704104,-0.00492498,0.115113,0.0069445,0.0127352,1182,407,7.47688,69.9961
-35,617,7.52197,-70.3882,0.00848441,-0.00549721,0.00186552,0.00872904,-0.00574184,0.130388,0.00841389,0.0179266,1189,407,7.52192,70.3882
-28,617,7.51489,-70.7626,0.0101791,-0.00687073,0.00239146,0.0105082,-0.00719982,0.136748,0.010283,0.0212554,1196,407,7.51488,70.7626
-21,617,7.59143,-71.0961,0.012784,-0.00775341,0.00248595,0.0130807,-0.00805004,0.11876,0.0123145,0.0149824,1203,407,7.59148,71.0961
-14,617,7.67773,-71.4442,0.0162471,-0.0078073,0.00301691,0.0166197,-0.00817992,0.122885,0.0145918,0.0153971,1210,407,7.67772,71.4442
-7,617,7.71521,-71.7163,0.0198615,-0.00803312,0.00358545,0.020315,-0.00848661,0.125811,0.0170897,0.0193585,1217,407,7.71524,71.7163
0,617,7.77576,-71.9691,0.0214922,-0.0086354,0.00369991,0.0219399,-0.00908312,0.120424,0.0184167,0.0190447,1224,407,7.77572,71.9691
7,617,7.86292,-72.2953,0.0221663,-0.00910131,0.00379962,0.0226214,-0.00955641,0.119208,0.0190815,0.0141991,1231,407,7.86293,72.2953
14,617,7.93091,-72.5387,0.0228327,-0.00927688,0.00387722,0.0232942,-0.00973842,0.118481,0.0195994,0.0166857,1238,407,7.93094,72.5387
21,617,8.01733,-72.7091,0.0218721,-0.00855339,0.00400304,0.0223899,-0.00907125,0.128652,0.0186988,0.016047,1245,407,8.01734,72.7091
28,617,8.08386,-72.911,0.0201156,-0.00760191,0.00419224,0.0207358,-0.00822211,0.146873,0.0172314,0.013926,1252,407,8.08382,72.911
35,617,8.11658,-73.0571,0.0176701,-0.00633889,0.00423272,0.0183945,-0.00706325,0.169492,0.0151756,0.016198,1259,407,8.11658,73.0571
42,617,8.30273,-73.0998,0.0140022,-0.00430517,0.00536371,0.0154579,-0.00576088,0.265017,0.0126699,0.0238103,1266,407,8.30275,73.0998
49,617,8.4071,-73.1635,0.0109654,-0.00220342,0.00735886,0.0142556,-0.00549359,0.420443,0.0117703,0.0231979,1273,407,8.4071,73.1635
56,617,8.43713,-73.2432,0.00816934,-0.000144873,0.00911454,0.01403,-0.00600557,0.571442,0.0118728,0.0158706,1280,407,8.43717,73.2432
63,617,8.51929,-73.2873,0.00552579,0.00187764,0.0107016,0.0145576,-0.00715418,0.700985,0.0127759,0.0124868,1287,407,8.51932,73.2873
70,617,8.60742,-73.3323,0.00376598,0.00374462,0.0126018,0.0163571,-0.00884646,0.784975,0.0147651,0.0194168,1294,407,8.60746,73.3323
77,617,8.73645,-73.2458,0.00301164,0.00555802,0.0149225,0.0192615,-0.0106919,0.827955,0.0175279,0.01709,1301,407,8.73642,73.2458
84,617,8.82153,-73.148,0.00267325,0.00648929,0.0167948,0.0214841,-0.0123216,0.84196,0.0197552,0.0130476,1308,407,8.82155,73.148
91,617,8.89734,-73.0548,0.0033279,0.00637221,0.0182597,0.0231731,-0.013473,0.826983,0.0214033,0.0117534,1315,407,8.89737,73.0548
98,617,8.98169,-72.9315,0.00456948,0.00615396,0.0194485,0.0248264,-0.0141029,0.805754,0.0227583,0.0124777,1322,407,8.98174,72.9315
105,617,9.09021,-72.7272,0.00729566,0.00549859,0.0201865,0.0266036,-0.0138094,0.763157,0.023719,0.0144635,1329,407,9.09016,72.7272
112,617,9.19946,-72.5477,0.0102588,0.00427296,0.020103,0.0275905,-0.0130587,0.711501,0.0239635,0.0183433,1336,407,9.19947,72.5477
119,617,9.25146,-72.3469,0.0126943,0.00243655,0.0192492,0.0274862,-0.0123553,0.655199,0.0235489,0.0200638,1343,407,9.25148,72.3469
126,617,9.28845,-72.0669,0.0150602,0.000305959,0.0178263,0.0269755,-0.0116094,0.589211,0.0228582,0.0216813,1350,407,9.28843,72.0669
133,617,9.35657,-71.7659,0.0166972,-0.00163196,0.0156851,0.0256988,-0.0106336,0.521006,0.0215693,0.0192513,1357,407,9.35654,71.7659
140,617,9.44641,-71.4834,0.0173621,-0.00333797,0.0132938,0.0238599,-0.00983571,0.454632,0.0200079,0.0163191,1364,407,9.44646,71.4834
147,617,9.49683,-71.1138,0.0180619,-0.00506093,0.00940034,0.0214012,-0.00840028,0.341333,0.0177433,0.0206811,1371,407,9.49688,71.1138
154,617,9.54736,-70.7809,0.0164842,-0.00588503,0.00515603,0.0176154,-0.00701626,0.215979,0.0146534,0.0234036,1378,407,9.54731,70.7809
161,617,9.59827,-70.4428,0.0138906,-0.00523148,0.00292041,0.0143267,-0.00566756,0.148224,0.0118991,0.0231453,1385,407,9.59832,70.4428
168,617,9.67981,-70.0417,0.0118089,-0.00425183,0.00201449,0.0120577,-0.00450065,0.122894,0.0098863,0.0219822,1392,407,9.67975,70.0417
175,617,9.70081,-69.5812,0.00930447,-0.00351633,0.000538866,0.00932708,-0.00353894,0.0419321,0.00767468,0.0183492,1399,407,9.70076,69.5812
182,617,9.7356,-69.088,0.00703878,-0.00240338,-0.000851975,0.00711504,-0.00247964,-0.0892701,0.00575095,0.0123415,1406,407,9.73559,69.088
189,617,9.72278,-68.5796,0.00574816,-0.0012143,-0.000645359,0.00580747,-0.00127361,-0.0916509,0.00435866,0.0119369,1413,407,9.72279,68.5796
196,617,9.70654,-68.0558,0.00417972,-7.42538e-05,-0.000800837,0.00432549,-0.000220021,-0.180048,0.00295973,0.015889,1420,407,9.7066,68.0558
203,617,9.7428,-67.5078,0.00340874,0.000753476,-0.000369903,0.00345931,0.000702909,-0.135864,0.00211127,0.0165049,1427,407,9.74275,67.5078
210,617,9.75513,-66.9346,0.00257431,0.0016248,7.9924e-05,0.00258099,0.00161812,0.083392,0.00150606,0.0155811,1434,407,9.75513,66.9346
217,617,9.73645,-66.3105,0.00197545,0.002444,0.000662764,0.00291268,0.00150677,0.955286,0.00168197,0.0197172,1441,407,9.73645,66.3105
224,617,9.72473,-65.7579,0.00166738,0.0030958,0.00113153,0.00371966,0.00104351,1.06692,0.00221543,0.018452,1448,407,9.72473,65.7579
231,617,9.74573,-65.1652,0.00138217,0.00373582,0.00168689,0.00461581,0.000502171,1.08996,0.00292423,0.0143461,1455,407,9.74577,65.1652
238,617,9.72107,-64.5265,0.00125773,0.0045875,0.00234284,0.00579676,4.84693e-05,1.09431,0.00384846,0.0160015,1462,407,9.72105,64.5265
245,617,9.67554,-63.8674,0.00113373,0.00538604,0.00283672,0.00680496,-0.000285191,1.10699,0.00463463,0.0137593,1469,407,9.67551,63.8674
252,617,9.63379,-63.1772,0.0010717,0.00637506,0.00341452,0.00804661,-0.000599848,1.11555,0.00557512,0.0150405,1476,407,9.63378,63.1772
259,617,9.60107,-62.4656,0.00111386,0.00766603,0.00415804,0.00968353,-0.000903636,1.11906,0.00677701,0.0121223,1483,407,9.60104,62.4656
266,617,9.58459,-61.7298,0.00108883,0.00876937,0.00486891,0.0111302,-0.00127203,1.11931,0.00787847,0.0149225,1490,407,9.58463,61.7298
273,617,9.55042,-60.9799,0.00107301,0.0101496,0.00564046,0.0128508,-0.00162824,1.12417,0.00915833,0.0162019,1497,407,9.55038,60.98
280,617,9.45874,-60.2563,0.00110989,0.0115702,0.00646147,0.014653,-0.0019729,1.12563,0.0104883,0.015004,1504,407,9.45874,60.2563
287,617,9.37781,-59.4805,0.00121398,0.0131555,0.00733292,0.0166411,-0.00227156,1.12708,0.0119236,0.0135246,1511,407,9.3778,59.4805
294,617,9.33899,-58.7066,0.00119713,0.0146105,0.00806861,0.0183958,-0.00258819,1.13214,0.0132114,0.0102154,1518,407,9.33894,58.7066
301,617,9.28711,-57.9263,0.0011818,0.0158967,0.00878591,0.0199989,-0.00292043,1.13397,0.0144051,0.00839346,1525,407,9.28711,57.9263
308,617,9.21655,-57.1265,0.00129966,0.0175294,0.00961354,0.0219952,-0.00316605,1.13593,0.0158247,0.00898629,1532,407,9.21658,57.1265
315,617,9.14014,-56.3242,0.00157003,0.0195007,0.0105882,0.0244094,-0.00333864,1.13669,0.0174923,0.0108097,1539,407,9.14011,56.3242
322,617,9.04395,-55.4926,0.00184236,0.0213368,0.0115962,0.0267382,-0.00355905,1.13489,0.0191225,0.0169629,1546,407,9.04391,55.4926
329,617,8.97559,-54.6244,0.00223255,0.0232743,0.0128456,0.0293576,-0.00385071,1.12852,0.0209735,0.0224725,1553,407,8.97563,54.6244
336,617,8.99231,-53.5657,0.00280606,0.0256571,0.0141669,0.0324317,-0.00396854,1.12474,0.0230581,0.0424238,1560,407,8.99232,53.5657
343,617,8.99121,-52.6839,0,0,0,0,0,0,0,-1,1567,407,8.99124,52.6839
350,617,8.75879,-52.0008,0,0,0,0,0,0,0,-1,1574,407,8.75879,52.0008
357,617,8.83533,-50.4633,0,0,0,0,0,0,0,-1,1581,407,8.83538,50.4633
364,617,8.72644,-49.4986,0,0,0,0,0,0,0,-1,1588,407,8.72639,49.4986
371,617,2.60266,-6.20667,0,0,0,0,0,0,0,-1,1595,407,2.60261,6.20668
378,617,8.75098,-47.4916,0,0,0,0,0,0,0,-1,1602,407,8.75093,47.4916
385,617,1.74146,-10.3561,0,0,0,0,0,0,0,-1,1609,407,1.7414,10.3561
392,617,1.96936,-5.10449,0,0,0,0,0,0,0,-1,1616,407,1.96931,5.10451
399,617,2.48889,-5.81256,0,0,0,0,0,0,0,-1,1623,407,2.48888,5.81255
406,617,3.01465,-6.51642,0,0,0,0,0,0,0,-1,1630,407,3.01461,6.51643
413,617,3.6427,-7.2074,0,0,0,0,0,0,0,-1,1637,407,3.64274,7.20739
420,617,3.42737,-4.47391,0,0,0,0,0,0,0,-1,1644,407,3.42737,4.47391
427,617,0,0,0,0,0,0,0,0,0,-1,1651,407,0,0
434,617,0,0,0,0,0,0,0,0,0,-1,1658,407,0,0
441,617,0,0,0,0,0,0,0,0,0,-1,1665,407,0,0
448,617,0,0,0,0,0,0,0,0,0,-1,1672,407,0,0
455,617,0,0,0,0,0,0,0,0,0,-1,1679,407,0,0
462,617,0,0,0,0,0,0,0,0,0,-1,1686,407,0,0
469,617,0,0,0,0,0,0,0,0,0,-1,1693,407,0,0
476,617,0,0,0,0,0,0,0,0,0,-1,1700,407,0,0
483,617,0,0,0,0,0,0,0,0,0,-1,1707,407,0,0
490,617,0,0,0,0,0,0,0,0,0,-1,1714,407,0,0
497,617,0,0,0,0,0,0,0,0,0,-1,1721,407,0,0
504,617,0,0,0,0,0,0,0,0,0,-1,1728,407,0,0
511,617,0,0,0,0,0,0,0,0,0,-1,1735,407,0,0
518,617,0,0,0,0,0,0,0,0,0,-1,1742,407,0,0
525,617,0,0,0,0,0,0,0,0,0,-1,1749,407,0,0
532,617,0,0,0,0,0,0,0,0,0,-1,1756,407,0,0
539,617,0,0,0,0,0,0,0,0,0,-1,1763,407,0,0
546,617,0,0,0,0,0,0,0,0,0,-1,1770,407,0,0
553,617,0,0,0,0,0,0,0,0,0,-1,1777,407,0,0
560,617,0,0,0,0,0,0,0,0,0,-1,1784,407,0,0
567,617,0,0,0,0,0,0,0,0,0,-1,1791,407,0,0
574,617,0,0,0,0,0,0,0,0,0,-1,1798,407,0,0
581,617,0,0,0,0,0,0,0,0,0,-1,1805,407,0,0
588,617,0,0,0,0,0,0,0,0,0,-1,1812,407,0,0
595,617,0,0,0,0,0,0,0,0,0,-1,1819,407,0,0
602,617,0,0,0,0,0,0,0,0,0,-1,1826,407,0,0
609,617,0,0,0,0,0,0,0,0,0,-1,1833,407,0,0
616,617,0,0,0,0,0,0,0,0,0,-1,1840,407,0,0
623,617,0,0,0,0,0,0,0,0,0,-1,1847,407,0,0
630,617,0,0,0,0,0,0,0,0,0,-1,1854,407,0,0
637,617,0,0,0,0,0,0,0,0,0,-1,1861,407,0,0
644,617,0,0,0,0,0,0,0,0,0,-1,1868,407,0,0
651,617,0,0,0,0,0,0,0,0,0,-1,1875,407,0,0
658,617,0,0,0,0,0,0,0,0,0,-1,1882,407,0,0
665,617,0,0,0,0,0,0,0,0,0,-1,1889,407,0,0
672,617,0,0,0,0,0,0,0,0,0,-1,1896,407,0,0
679,617,0,0,0,0,0,0,0,0,0,-1,1903,407,0,0
686,617,0,0,0,0,0,0,0,0,0,-1,1910,407,0,0
693,617,0,0,0,0,0,0,0,0,0,-1,1917,407,0,0
700,617,0,0,0,0,0,0,0,0,0,-1,1924,407,0,0
707,617,0,0,0,0,0,0,0,0,0,-1,1931,407,0,0
714,617,0,0,0,0,0,0,0,0,0,-1,1938,407,0,0
721,617,0,0,0,0,0,0,0,0,0,-1,1945,407,0,0
728,617,0,0,0,0,0,0,0,0,0,-1,1952,407,0,0
735,617,0,0,0,0,0,0,0,0,0,-1,1959,407,0,0
742,617,0,0,0,0,0,0,0,0,0,-1,1966,407,0,0
749,617,0,0,0,0,0,0,0,0,0,-1,1973,407,0,0
756,617,0,0,0,0,0,0,0,0,0,-1,1980,407,0,0
763,617,0,0,0,0,0,0,0,0,0,-1,1987,407,0,0
770,617,0,0,0,0,0,0,0,0,0,-1,1994,407,0,0
777,617,0,0,0,0,0,0,0,0,0,-1,2001,407,0,0
784,617,0,0,0,0,0,0,0,0,0,-1,2008,407,0,0
791,617,0,0,0,0,0,0,0,0,0,-1,2015,407,0,0
798,617,0,0,0,0,0,0,0,0,0,-1,2022,407,0,0
805,617,0,0,0,0,0,0,0,0,0,-1,2029,407,0,0
812,617,0,0,0,0,0,0,0,0,0,-1,2036,407,0,0
-700,610,0,0,0,0,0,0,0,0,0,-1,524,414,0,0
-693,610,0,0,0,0,0,0,0,0,0,-1,531,414,0,0
-686,610,0,0,0,0,0,0,0,0,0,-1,538,414,0,0
-679,610,0,0,0,0,0,0,0,0,0,-1,545,414,0,0
-672,610,0,0,0,0,0,0,0,0,0,-1,552,414,0,0
-665,610,0,0,0,0,0,0,0,0,0,-1,559,414,0,0
-658,610,0,0,0,0,0,0,0,0,0,-1,566,414,0,0
-651,610,0,0,0,0,0,0,0,0,0,-1,573,414,0,0
-644,610,0,0,0,0,0,0,0,0,0,-1,580,414,0,0
-637,610,0,0,0,0,0,0,0,0,0,-1,587,414,0,0
-630,610,0,0,0,0,0,0,0,0,0,-1,594,414,0,0
-623,610,0,0,0,0,0,0,0,0,0,-1,601,414,0,0
-616,610,0,0,0,0,0,0,0,0,0,-1,608,414,0,0
-609,610,0,0,0,0,0,0,0,0,0,-1,615,414,0,0
-602,610,0,0,0,0,0,0,0,0,0,-1,622,414,0,0
-595,610,0,0,0,0,0,0,0,0,0,-1,629,414,0,0
-588,610,0,0,0,0,0,0,0,0,0,-1,636,414,0,0
-581,610,0,0,0,0,0,0,0,0,0,-1,643,414,0,0
-574,610,0,0,0,0,0,0,0,0,0,-1,650,414,0,0
-567,610,0,0,0,0,0,0,0,0,0,-1,657,414,0,0
-560,610,0,0,0,0,0,0,0,0,0,-1,664,414,0,0
-553,610,0,0,0,0,0,0,0,0,0,-1,671,414,0,0
-546,610,0,0,0,0,0,0,0,0,0,-1,678,414,0,0
-539,610,0,0,0,0,0,0,0,0,0,-1,685,414,0,0
-532,610,0,0,0,0,0,0,0,0,0,-1,692,414,0,0
-525,610,0,0,0,0,0,0,0,0,0,-1,699,414,0,0
-518,610,0,0,0,0,0,0,0,0,0,-1,706,414,0,0
-511,610,0,0,0,0,0,0,0,0,0,-1,713,414,0,0
-504,610,0,0,0,0,0,0,0,0,0,-1,720,414,0,0
-497,610,0,0,0,0,0,0,0,0,0,-1,727,414,0,0
-490,610,0,0,0,0,0,0,0,0,0,-1,734,414,0,0
-483,610,0,0,0,0,0,0,0,0,0,-1,741,414,0,0
-476,610,0,0,0,0,0,0,0,0,0,-1,748,414,0,0
-469,610,0,0,0,0,0,0,0,0,0,-1,755,414,0,0
-462,610,0,0,0,0,0,0,0,0,0,-1,762,414,0,0
-455,610,0,0,0,0,0,0,0,0,0,-1,769,414,0,0
-448,610,0,0,0,0,0,0,0,0,0,-1,776,414,0,0
-441,610,0,0,0,0,0,0,0,0,0,-1,783,414,0,0
-434,610,0,0,0,0,0,0,0,0,0,-1,790,414,0,0
-427,610,0,0,0,0,0,0,0,0,0,-1,797,414,0,0
-420,610,0,0,0,0,0,0,0,0,0,-1,804,414,0,0
-413,610,0,0,0,0,0,0,0,0,0,-1,811,414,0,0
-406,610,0,0,0,0,0,0,0,0,0,-1,818,414,0,0
-399,610,0,0,0,0,0,0,0,0,0,-1,825,414,0,0
-392,610,0,0,0,0,0,0,0,0,0,-1,832,414,0,0
-385,610,0,0,0,0,0,0,0,0,0,-1,839,414,0,0
-378,610,0,0,0,0,0,0,0,0,0,-1,846,414,0,0
-371,610,0,0,0,0,0,0,0,0,0,-1,853,414,0,0
-364,610,0,0,0,0,0,0,0,0,0,-1,860,414,0,0
-357,610,0,0,0,0,0,0,0,0,0,-1,867,414,0,0
-350,610,0,0,0,0,0,0,0,0,0,-1,874,414,0,0
-343,610,0,0,0,0,0,0,0,0,0,-1,881,414,0,0
-336,610,0,0,0,0,0,0,0,0,0,-1,888,414,0,0
-329,610,0,0,0,0,0,0,0,0,0,-1,895,414,0,0
-322,610,0,0,0,0,0,0,0,0,0,-1,902,414,0,0
-315,610,7.68475,-21.5402,0,0,0,0,0,0,0,-1,909,414,7.68475,21.5402
-308,610,3.97211,-23.4133,0,0,0,0,0,0,0,-1,916,414,3.9721,23.4133
-301,610,7.38513,-22.4166,0,0,0,0,0,0,0,-1,923,414,7.38516,22.4166
-294,610,6.77832,-24.1945,0,0,0,0,0,0,0,-1,930,414,6.77829,24.1946
-287,610,3.39276,-28.5804,0,0,0,0,0,0,0,-1,937,414,3.39276,28.5803
-280,610,8.8728,-35.4336,0,0,0,0,0,0,0,-1,944,414,8.87283,35.4336
-273,610,8.14722,-35.5264,0,0,0,0,0,0,0,-1,951,414,8.14723,35.5264
-266,610,7.38361,-35.6366,0,0,0,0,0,0,0,-1,958,414,7.38359,35.6366
-259,610,6.47375,-35.762,0,0,0,0,0,0,0,-1,965,414,6.47373,35.762
-252,610,5.65308,-35.8931,0,0,0,0,0,0,0,-1,972,414,5.65305,35.8931
-245,610,8.14941,-49.2109,0,0,0,0,0,0,0,-1,979,414,8.14938,49.2109
-238,610,7.63525,-49.8627,0,0,0,0,0,0,0,-1,986,414,7.63527,49.8627
-231,610,7.58295,-50.8557,-0.00208192,0.0281273,-0.0123229,0.0325163,-0.00647096,-1.22864,0.0241256,0.0469782,993,414,7.58295,50.8557
-224,610,7.58057,-51.9323,-0.00174588,0.0248691,-0.011126,0.0289074,-0.00578419,-1.22262,0.0214611,0.0309707,1000,414,7.58055,51.9323
-217,610,7.56232,-52.971,-0.00158304,0.0216702,-0.00986933,0.0252942,-0.00520706,-1.21888,0.0188399,0.0218326,1007,414,7.56229,52.971
-210,610,7.49475,-53.953,-0.00155624,0.0186652,-0.00876879,0.021938,-0.00482902,-1.21358,0.0164727,0.0147331,1014,414,7.49472,53.953
-203,610,7.43958,-54.8283,-0.00155037,0.0156785,-0.00770777,0.0186234,-0.00449527,-1.20584,0.014154,0.0159856,1021,414,7.43955,54.8283
-196,610,7.36157,-55.6831,-0.00154397,0.0129666,-0.00671431,0.0155967,-0.00417408,-1.19745,0.012033,0.0154256,1028,414,7.36153,55.6831
-189,610,7.28076,-56.4876,-0.00140383,0.0105713,-0.00597263,0.0130409,-0.0038734,-1.17872,0.0102324,0.0127826,1035,414,7.28071,56.4876
-182,610,7.20972,-57.268,-0.00129334,0.00852638,-0.00520588,0.0107725,-0.00353945,-1.16347,0.00860756,0.014376,1042,414,7.20968,57.268
-175,610,7.16553,-58.0595,-0.00127262,0.00646466,-0.00435698,0.00842265,-0.00323061,-1.14845,0.00694704,0.0158074,1049,414,7.16552,58.0595
-168,610,7.08521,-58.8533,-0.00114884,0.00496574,-0.00370459,0.00671169,-0.00289478,-1.13038,0.00569036,0.0136792,1056,414,7.08518,58.8533
-161,610,7.02515,-59.6581,-0.000902741,0.0038448,-0.00315333,0.00541796,-0.00247591,-1.10804,0.00466185,0.0117102,1063,414,7.02517,59.6581
-154,610,6.98865,-60.3937,-0.000582151,0.00293012,-0.00266004,0.00436143,-0.00201346,-1.07715,0.00376284,0.0154839,1070,414,6.98868,60.3937
-147,610,6.94849,-61.1101,-0.000246375,0.00219281,-0.00218053,0.00347164,-0.0015252,-1.04038,0.00295699,0.0186889,1077,414,6.94854,61.1101
-140,610,6.90991,-61.8306,0.000185924,0.00149903,-0.00177574,0.0027357,-0.00105075,-0.962471,0.00225711,0.0143385,1084,414,6.90992,61.8306
-133,610,6.88867,-62.5238,0.000673168,0.00105242,-0.00144121,0.00231643,-0.000590841,-0.85081,0.00177433,0.0156948,1091,414,6.88862,62.5238
-126,610,6.85132,-63.1726,0.00116224,0.000769312,-0.00116377,0.00214601,-0.000214459,-0.701778,0.00150726,0.0135679,1098,414,6.85136,63.1726
-119,610,6.79614,-63.8401,0.0017437,0.00054084,-0.000887285,0.00221418,7.03594e-05,-0.487552,0.00145324,0.0115299,1105,414,6.79616,63.8401
-112,610,6.81433,-64.5058,0.00242396,0.000463888,-0.000684579,0.00263938,0.000248466,-0.304868,0.00168289,0.0197028,1112,414,6.81438,64.5058
-105,610,6.78235,-65.1544,0.00305922,0.000425021,-0.000542196,0.00316645,0.000317787,-0.195258,0.00201342,0.020645,1119,414,6.78231,65.1544
-98,610,6.79285,-65.7595,0.00367834,0.000231613,-0.000374721,0.00371861,0.000191345,-0.107052,0.00241782,0.0145645,1126,414,6.7929,65.7595
-91,610,6.8147,-66.3543,0.00437773,-3.23364e-05,-0.000156253,0.00438326,-3.78657e-05,-0.0353719,0.00293488,0.0155146,1133,414,6.81467,66.3543
-84,610,6.84509,-66.9213,0.00529539,-0.000368137,5.8982e-05,0.005296,-0.000368752,0.0104129,0.00365978,0.0155531,1140,414,6.84513,66.9213
-77,610,6.83813,-67.5329,0.00615075,-0.00111376,0.000345482,0.00616715,-0.00113015,0.0474149,0.00453533,0.0133517,1147,414,6.83811,67.5329
-70,610,6.86963,-68.0926,0.00711684,-0.00221343,0.00067238,0.00716505,-0.00226164,0.0715715,0.00568263,0.0172974,1154,414,6.86958,68.0926
-63,610,6.91016,-68.5755,0.00813652,-0.00385862,0.00120215,0.00825581,-0.00397791,0.0989095,0.00720565,0.0173544,1161,414,6.91016,68.5755
-56,610,6.96045,-69.0304,0.0088749,-0.00536825,0.00169741,0.00907439,-0.00556774,0.116991,0.00853407,0.0151805,1168,414,6.9604,69.0304
-49,610,6.97717,-69.4854,0.00958002,-0.00665188,0.00205338,0.00983575,-0.00690761,0.123903,0.00971594,0.0146884,1175,414,6.97722,69.4854
-42,610,7.03174,-69.9275,0.0115321,-0.00754173,0.00315183,0.0120394,-0.00804905,0.159593,0.0116741,0.0177911,1182,414,7.03178,69.9275
-35,610,7.1051,-70.3486,0.0158192,-0.00782269,0.00464232,0.0166981,-0.00870158,0.187107,0.0149048,0.0182852,1189,414,7.10507,70.3486
-28,610,7.16516,-70.7201,0.0215115,-0.00884153,0.00627013,0.0227557,-0.0100858,0.195894,0.0194257,0.0157608,1196,414,7.16521,70.7201
-21,610,7.26013,-71.0453,0.0283033,-0.00877968,0.00628716,0.0293402,-0.00981663,0.16346,0.0235253,0.0124118,1203,414,7.26013,71.0453
-14,610,7.33838,-71.3836,0.0346151,-0.00809116,0.00714856,0.0357799,-0.00925598,0.161525,0.0274635,0.0124418,1210,414,7.33833,71.3836
-7,610,7.4248,-71.6629,0.0402402,-0.00763148,0.00792177,0.0415171,-0.00890831,0.159806,0.031076,0.0151192,1217,414,7.4248,71.6629
0,610,7.50061,-71.958,0.0426247,-0.0079575,0.00809847,0.0438897,-0.00922247,0.154947,0.0327694,0.014144,1224,414,7.5006,71.958
7,610,7.59814,-72.2713,0.0430935,-0.00845263,0.00797808,0.0443,-0.0096592,0.150098,0.0332245,0.0180592,1231,414,7.59818,72.2713
14,610,7.80994,-72.4049,0.043109,-0.00871363,0.00773817,0.0442398,-0.00984442,0.145105,0.0332638,0.0271124,1238,414,7.80994,72.4049
21,610,7.91467,-72.5358,0.0406287,-0.00818388,0.00752879,0.0417636,-0.00931873,0.149608,0.0314128,0.0264857,1245,414,7.91473,72.5358
28,610,7.90247,-72.7596,0.0369413,-0.0075172,0.0073177,0.0381148,-0.00869069,0.15901,0.028748,0.0217254,1252,414,7.90251,72.7597
35,610,8.11597,-72.9094,0.0323669,-0.00648471,0.0069842,0.0335843,-0.00770208,0.172571,0.0253499,0.0241065,1259,414,8.11593,72.9094
42,610,8.18262,-72.9595,0.0261193,-0.00456611,0.00790279,0.028035,-0.00648181,0.237821,0.0211838,0.0227149,1266,414,8.18262,72.9595
49,610,8.24805,-73.0981,0.0206097,-0.00252164,0.00995079,0.0243013,-0.00621319,0.355243,0.0186207,0.0232485,1273,414,8.24804,73.098
56,610,8.3468,-73.1552,0.0157686,-0.000350806,0.0121661,0.0223025,-0.00688468,0.492851,0.0176175,0.0222802,1280,414,8.34677,73.1552
63,610,8.43298,-73.1971,0.0112813,0.00212661,0.0144029,0.0218167,-0.00840877,0.631541,0.0180139,0.0303268,1287,414,8.43296,73.1971
70,610,8.62158,-73.1909,0.00813392,0.00443128,0.0171156,0.0234981,-0.0109329,0.731525,0.0203152,0.044818,1294,414,8.62154,73.1909
77,610,8.86096,-73.248,0,0,0,0,0,0,0,-1,1301,414,8.86093,73.248
84,610,8.93909,-73.0633,0.0063236,0.00765709,0.0238758,0.0308754,-0.0168948,0.799357,0.0279711,0.0455063,1308,414,8.93906,73.0633
91,610,9.01855,-73.1044,0.00793067,0.00775972,0.0268436,0.0346889,-0.0189985,0.783806,0.0314346,0.0319391,1315,414,9.01853,73.1044
98,610,9.18079,-72.9449,0.0103791,0.00758876,0.0294472,0.0384641,-0.0204963,0.761727,0.0345637,0.026468,1322,414,9.1808,72.9449
105,610,9.31824,-72.6823,0.014675,0.00680458,0.0314084,0.0423937,-0.0209141,0.723077,0.0372455,0.0224375,1329,414,9.31818,72.6823
112,610,9.42334,-72.4789,0.0193083,0.0053424,0.0324627,0.0455307,-0.0208799,0.679459,0.0392128,0.014985,1336,414,9.42334,72.4788
119,610,9.51392,-72.274,0.0233688,0.0031267,0.0325648,0.0473491,-0.0208536,0.634732,0.0403552,0.0204375,1343,414,9.51389,72.274
126,610,9.64368,-71.9848,0.0272041,0.000590881,0.0318075,0.0483762,-0.0205812,0.587286,0.0408764,0.0291423,1350,414,9.64371,71.9848
133,610,9.70776,-71.7273,0.0299227,-0.00178784,0.0300276,0.048024,-0.0198891,0.542491,0.0403156,0.0222599,1357,414,9.70775,71.7273
140,610,9.82751,-71.4814,0.0310346,-0.00405355,0.0274049,0.0460301,-0.019049,0.500677,0.0386348,0.0202013,1364,414,9.82746,71.4813
147,610,9.85144,-71.0976,0.0323769,-0.00647295,0.0225514,0.042716,-0.016812,0.429871,0.0354366,0.0225791,1371,414,9.85139,71.0975
154,610,9.88281,-70.7119,0.0302927,-0.0077805,0.0165125,0.0364564,-0.0139442,0.357257,0.0300508,0.0265478,1378,414,9.88278,70.7119
161,610,10.0349,-70.3487,0.0257041,-0.0075377,0.0116789,0.029397,-0.0112306,0.306256,0.0242254,0.028588,1385,414,10.035,70.3486
168,610,10.1514,-69.9599,0.021705,-0.00735175,0.0084329,0.0239751,-0.00962181,0.262957,0.0199785,0.0277828,1392,414,10.1513,69.9599
175,610,10.1667,-69.5263,0.0175254,-0.00674657,0.00495247,0.018497,-0.00771819,0.193727,0.0155559,0.0230763,1399,414,10.1667,69.5263
182,610,10.198,-69.0403,0.0130878,-0.00540965,0.000766813,0.0131196,-0.00544138,0.0413604,0.0110176,0.0164673,1406,414,10.198,69.0403
189,610,10.2208,-68.5462,0.0103536,-0.0039893,-0.000319969,0.0103608,-0.00399643,-0.0222937,0.00855631,0.0148907,1413,414,10.2208,68.5462
196,610,10.2565,-68.0459,0.00683551,-0.00319011,-0.00253331,0.00743928,-0.00379388,-0.233966,0.00659832,0.0156759,1420,414,10.2564,68.0459
203,610,10.2911,-67.5091,0.0058684,-0.00226727,-0.0020637,0.00636194,-0.00276081,-0.234744,0.00540207,0.0161193,1427,414,10.2911,67.5091
210,610,10.2991,-66.9594,0.00471841,-0.00117835,-0.0015625,0.00510685,-0.00156679,-0.243661,0.00402967,0.0115277,1434,414,10.299,66.9594
217,610,10.3326,-66.3278,0.00387071,-1.90502e-05,-0.000792202,0.00402586,-0.000174204,-0.193403,0.00274382,0.016943,1441,414,10.3326,66.3278
224,610,10.3386,-65.7395,0.00341747,0.000811016,-0.00019159,0.00343148,0.000797008,-0.0729831,0.00207368,0.0201811,1448,414,10.3386,65.7395
231,610,10.3584,-65.1419,0.00291833,0.00159025,0.000445387,0.00305386,0.00145472,0.295403,0.00176381,0.0163476,1455,414,10.3584,65.142
238,610,10.3374,-64.4857,0.00258788,0.00219947,0.000968799,0.00338175,0.0014056,0.68648,0.00196169,0.0117377,1462,414,10.3374,64.4857
245,610,10.3486,-63.8026,0.00230871,0.00272205,0.00135243,0.00388352,0.00114725,0.861219,0.00230386,0.0130781,1469,414,10.3487,63.8026
252,610,10.3177,-63.1271,0.00203732,0.00338069,0.00182147,0.00465037,0.000767638,0.962042,0.00287869,0.0147758,1476,414,10.3178,63.1271
259,610,10.2942,-62.4281,0.00183092,0.00425825,0.00237954,0.00571577,0.000373401,1.02122,0.00369234,0.0126857,1483,414,10.2941,62.4281
266,610,10.2632,-61.7007,0.00164099,0.00510066,0.00294759,0.00678851,-4.68602e-05,1.05075,0.00454138,0.0129786,1490,414,10.2632,61.7007
273,610,10.2339,-60.9648,0.00147682,0.00619939,0.00356881,0.00811736,-0.000441154,1.07766,0.00556446,0.0107526,1497,414,10.2338,60.9648
280,610,10.1836,-60.2157,0.00136558,0.00736733,0.0042572,0.00957501,-0.000842095,1.0924,0.00668175,0.0103441,1504,414,10.1837,60.2157
287,610,10.0995,-59.4339,0.00133551,0.00868368,0.00498643,0.0112034,-0.00118422,1.1029,0.00789335,0.0130576,1511,414,10.0995,59.4339
294,610,10.0713,-58.6708,0.00122193,0.00995026,0.00562139,0.0127027,-0.0015305,1.11547,0.00902201,0.0112048,1518,414,10.0713,58.6708
301,610,10.0582,-57.9412,0.0011117,0.0111188,0.00626581,0.0141337,-0.00190323,1.12232,0.0101167,0.0104796,1525,414,10.0582,57.9412
308,610,9.99084,-57.1364,0.0011202,0.0125981,0.00701686,0.0159241,-0.00220571,1.12817,0.0114225,0.0123052,1532,414,9.99086,57.1364
315,610,9.89185,-56.331,0.00125317,0.0143399,0.00788083,0.0180398,-0.00244665,1.13187,0.0129195,0.0137767,1539,414,9.89184,56.331
322,610,9.81543,-55.4965,0.00135364,0.0159224,0.00874563,0.02002,-0.0027439,1.13264,0.014349,0.0135443,1546,414,9.81545,55.4965
329,610,9.7467,-54.6567,0.00156035,0.0175301,0.00979382,0.0221815,-0.00309112,1.1274,0.0159184,0.0120095,1553,414,9.74672,54.6567
336,610,9.71375,-53.7919,0.001926,0.0194491,0.0109027,0.0246745,-0.00329938,1.12387,0.0176525,0.0117325,1560,414,9.71373,53.7919
343,610,9.62988,-52.9337,0.00227899,0.0211124,0.0119591,0.0269172,-0.00352584,1.11891,0.0192282,0.0170467,1567,414,9.62985,52.9337
350,610,9.53577,-52.0198,0.00280938,0.0231308,0.0133439,0.0297421,-0.00380192,1.11079,0.0212093,0.027856,1574,414,9.53571,52.0198
357,610,9.52905,-50.7909,0.0033216,0.0253916,0.0150426,0.0330127,-0.0042995,1.10185,0.0235727,0.0382779,1581,414,9.52906,50.7909
364,610,9.60754,-49.7516,0.00368321,0.0276175,0.0164819,0.0360186,-0.00471788,1.09941,0.0257296,0.0377761,1588,414,9.60752,49.7516
371,610,9.60522,-49.095,0,0,0,0,0,0,0,-1,1595,414,9.60524,49.095
378,610,9.68933,-48.2177,0,0,0,0,0,0,0,-1,1602,414,9.68935,48.2177
385,610,9.28003,-47.0623,0,0,0,0,0,0,0,-1,1609,414,9.28002,47.0623
392,610,1.99744,-1.83582,0,0,0,0,0,0,0,-1,1616,414,1.99741,1.8358
399,610,2.77136,-2.60333,0,0,0,0,0,0,0,-1,1623,414,2.77133,2.60332
406,610,8.62744,-44.9799,0,0,0,0,0,0,0,-1,1630,414,8.6275,44.9799
413,610,3.01929,-3.20306,0,0,0,0,0,0,0,-1,1637,414,3.01929,3.20306
420,610,4.78149,-3.64041,0,0,0,0,0,0,0,-1,1644,414,4.78152,3.64042
427,610,8.85168,-23.3853,0,0,0,0,0,0,0,-1,1651,414,8.85174,23.3853
434,610,8.73706,-22.6227,0,0,0,0,0,0,0,-1,1658,414,8.73703,22.6227
441,610,0,0,0,0,0,0,0,0,0,-1,1665,414,0,0
448,610,0,0,0,0,0,0,0,0,0,-1,1672,414,0,0
455,610,0,0,0,0,0,0,0,0,0,-1,1679,414,0,0
462,610,0,0,0,0,0,0,0,0,0,-1,1686,414,0,0
469,610,0,0,0,0,0,0,0,0,0,-1,1693,414,0,0
476,610,0,0,0,0,0,0,0,0,0,-1,1700,414,0,0
483,610,0,0,0,0,0,0,0,0,0,-1,1707,414,0,0
490,610,0,0,0,0,0,0,0,0,0,-1,1714,414,0,0
497,610,0,0,0,0,0,0,0,0,0,-1,1721,414,0,0
504,610,0,0,0,0,0,0,0,0,0,-1,1728,414,0,0
511,610,0,0,0,0,0,0,0,0,0,-1,1735,414,0,0
518,610,0,0,0,0,0,0,0,0,0,-1,1742,414,0,0
525,610,0,0,0,0,0,0,0,0,0,-1,1749,414,0,0
532,610,0,0,0,0,0,0,0,0,0,-1,1756,414,0,0
539,610,0,0,0,0,0,0,0,0,0,-1,1763,414,0,0
546,610,0,0,0,0,0,0,0,0,0,-1,1770,414,0,0
553,610,0,0,0,0,0,0,0,0,0,-1,1777,414,0,0
560,610,0,0,0,0,0,0,0,0,0,-1,1784,414,0,0
567,610,0,0,0,0,0,0,0,0,0,-1,1791,414,0,0
574,610,0,0,0,0,0,0,0,0,0,-1,1798,414,0,0
581,610,0,0,0,0,0,0,0,0,0,-1,1805,414,0,0
588,610,0,0,0,0,0,0,0,0,0,-1,1812,414,0,0
595,610,0,0,0,0,0,0,0,0,0,-1,1819,414,0,0
602,610,0,0,0,0,0,0,0,0,0,-1,1826,414,0,0
609,610,0,0,0,0,0,0,0,0,0,-1,1833,414,0,0
616,610,0,0,0,0,0,0,0,0,0,-1,1840,414,0,0
623,610,0,0,0,0,0,0,0,0,0,-1,1847,414,0,0
630,610,0,0,0,0,0,0,0,0,0,-1,1854,414,0,0
637,610,0,0,0,0,0,0,0,0,0,-1,1861,414,0,0
644,610,0,0,0,0,0,0,0,0,0,-1,1868,414,0,0
651,610,0,0,0,0,0,0,0,0,0,-1,1875,414,0,0
658,610,0,0,0,0,0,0,0,0,0,-1,1882,414,0,0
665,610,0,0,0,0,0,0,0,0,0,-1,1889,414,0,0
672,610,0,0,0,0,0,0,0,0,0,-1,1896,414,0,0
679,610,0,0,0,0,0,0,0,0,0,-1,1903,414,0,0
686,610,0,0,0,0,0,0,0,0,0,-1,1910,414,0,0
693,610,0,0,0,0,0,0,0,0,0,-1,1917,414,0,0
700,610,0,0,0,0,0,0,0,0,0,-1,1924,414,0,0
707,610,0,0,0,0,0,0,0,0,0,-1,1931,414,0,0
714,610,0,0,0,0,0,0,0,0,0,-1,1938,414,0,0
721,610,0,0,0,0,0,0,0,0,0,-1,1945,414,0,0
728,610,0,0,0,0,0,0,0,0,0,-1,1952,414,0,0
735,610,0,0,0,0,0,0,0,0,0,-1,1959,414,0,0
742,610,0,0,0,0,0,0,0,0,0,-1,1966,414,0,0
749,610,0,0,0,0,0,0,0,0,0,-1,1973,414,0,0
756,610,0,0,0,0,0,0,0,0,0,-1,1980,414,0,0
763,610,0,0,0,0,0,0,0,0,0,-1,1987,414,0,0
770,610,0,0,0,0,0,0,0,0,0,-1,1994,414,0,0
777,610,0,0,0,0,0,0,0,0,0,-1,2001,414,0,0
784,610,0,0,0,0,0,0,0,0,0,-1,2008,414,0,0
791,610,0,0,0,0,0,0,0,0,0,-1,2015,414,0,0
798,610,0,0,0,0,0,0,0,0,0,-1,2022,414,0,0
805,610,0,0,0,0,0,0,0,0,0,-1,2029,414,0,0
812,610,0,0,0,0,0,0,0,0,0,-1,2036,414,0,0
-700,603,0,0,0,0,0,0,0,0,0,-1,524,421,0,0
-693,603,0,0,0,0,0,0,0,0,0,-1,531,421,0,0
-686,603,0,0,0,0,0,0,0,0,0,-1,538,421,0,0
-679,603,0,0,0,0,0,0,0,0,0,-1,545,421,0,0
-672,603,0,0,0,0,0,0,0,0,0,-1,552,421,0,0
-665,603,0,0,0,0,0,0,0,0,0,-1,559,421,0,0
-658,603,0,0,0,0,0,0,0,0,0,-1,566,421,0,0
-651,603,0,0,0,0,0,0,0,0,0,-1,573,421,0,0
-644,603,0,0,0,0,0,0,0,0,0,-1,580,421,0,0
-637,603,0,0,0,0,0,0,0,0,0,-1,587,421,0,0
-630,603,0,0,0,0,0,0,0,0,0,-1,594,421,0,0
-623,603,0,0,0,0,0,0,0,0,0,-1,601,421,0,0
-616,603,0,0,0,0,0,0,0,0,0,-1,608,421,0,0
-609,603,0,0,0,0,0,0,0,0,0,-1,615,421,0,0
-602,603,0,0,0,0,0,0,0,0,0,-1,622,421,0,0
-595,603,0,0,0,0,0,0,0,0,0,-1,629,421,0,0
-588,603,0,0,0,0,0,0,0,0,0,-1,636,421,0,0
-581,603,0,0,0,0,0,0,0,0,0,-1,643,421,0,0
-574,603,0,0,0,0,0,0,0,0,0,-1,650,421,0,0
-567,603,0,0,0,0,0,0,0,0,0,-1,657,421,0,0
-560,603,0,0,0,0,0,0,0,0,0,-1,664,421,0,0
-553,603,0,0,0,0,0,0,0,0,0,-1,671,421,0,0
-546,603,0,0,0,0,0,0,0,0,0,-1,678,421,0,0
-539,603,0,0,0,0,0,0,0,0,0,-1,685,421,0,0
-532,603,0,0,0,0,0,0,0,0,0,-1,692,421,0,0
-525,603,0,0,0,0,0,0,0,0,0,-1,699,421,0,0
-518,603,0,0,0,0,0,0,0,0,0,-1,706,421,0,0
-511,603,0,0,0,0,0,0,0,0,0,-1,713,421,0,0
-504,603,0,0,0,0,0,0,0,0,0,-1,720,421,0,0
-497,603,0,0,0,0,0,0,0,0,0,-1,727,421,0,0
-490,603,0,0,0,0,0,0,0,0,0,-1,734,421,0,0
-483,603,0,0,0,0,0,0,0,0,0,-1,741,421,0,0
-476,603,0,0,0,0,0,0,0,0,0,-1,748,421,0,0
-469,603,0,0,0,0,0,0,0,0,0,-1,755,421,0,0
-462,603,0,0,0,0,0,0,0,0,0,-1,762,421,0,0
-455,603,0,0,0,0,0,0,0,0,0,-1,769,421,0,0
-448,603,0,0,0,0,0,0,0,0,0,-1,776,421,0,0
-441,603,0,0,0,0,0,0,0,0,0,-1,783,421,0,0
-434,603,0,0,0,0,0,0,0,0,0,-1,790,421,0,0
-427,603,0,0,0,0,0,0,0,0,0,-1,797,421,0,0
-420,603,0,0,0,0,0,0,0,0,0,-1,804,421,0,0
-413,603,0,0,0,0,0,0,0,0,0,-1,811,421,0,0
-406,603,0,0,0,0,0,0,0,0,0,-1,818,421,0,0
-399,603,0,0,0,0,0,0,0,0,0,-1,825,421,0,0
-392,603,0,0,0,0,0,0,0,0,0,-1,832,421,0,0
-385,603,0,0,0,0,0,0,0,0,0,-1,839,421,0,0
-378,603,0,0,0,0,0,0,0,0,0,-1,846,421,0,0
-371,603,0,0,0,0,0,0,0,0,0,-1,853,421,0,0
-364,603,0,0,0,0,0,0,0,0,0,-1,860,421,0,0
-357,603,0,0,0,0,0,0,0,0,0,-1,867,421,0,0
-350,603,0,0,0,0,0,0,0,0,0,-1,874,421,0,0
-343,603,0,0,0,0,0,0,0,0,0,-1,881,421,0,0
-336,603,0,0,0,0,0,0,0,0,0,-1,888,421,0,0
-329,603,4.09686,-17.9702,0,0,0,0,0,0,0,-1,895,421,4.09687,17.9702
-322,603,8.83179,-28.7376,0,0,0,0,0,0,0,-1,902,421,8.83179,28.7376
-315,603,5.99744,-20.4501,0,0,0,0,0,0,0,-1,909,421,5.99745,20.4501
-308,603,5.92249,-20.778,0,0,0,0,0,0,0,-1,916,421,5.92248,20.778
-301,603,2.72424,-20.9059,0,0,0,0,0,0,0,-1,923,421,2.72424,20.9059
-294,603,2.41553,-20.6767,0,0,0,0,0,0,0,-1,930,421,2.41554,20.6767
-287,603,1.91766,-21.2242,0,0,0,0,0,0,0,-1,937,421,1.91767,21.2242
-280,603,2.36121,-27.3314,0,0,0,0,0,0,0,-1,944,421,2.36119,27.3314
-273,603,7.96613,-34.8225,0,0,0,0,0,0,0,-1,951,421,7.96613,34.8225
-266,603,7.18787,-34.9736,0,0,0,0,0,0,0,-1,958,421,7.18788,34.9736
-259,603,5.44666,-36.8901,0,0,0,0,0,0,0,-1,965,421,5.44664,36.8901
-252,603,7.22589,-48.5223,0,0,0,0,0,0,0,-1,972,421,7.22586,48.5223
-245,603,7.13062,-49.3387,-0.00170331,0.0267691,-0.0122312,0.0313017,-0.00623599,-1.2159,0.0232272,0.0377099,979,421,7.13059,49.3387
-238,603,6.96606,-50.2716,-0.00170227,0.0242292,-0.0109407,0.0282284,-0.00570148,-1.22035,0.0209793,0.022306,986,421,6.96607,50.2716
-231,603,6.86731,-51.2725,-0.00160648,0.021733,-0.00975183,0.0252712,-0.00514467,-1.22274,0.0187985,0.0148882,993,421,6.86731,51.2725
-224,603,6.80603,-52.2111,-0.00127163,0.0191803,-0.0087432,0.0224085,-0.00449981,-1.2171,0.0166429,0.0156389,1000,421,6.80601,52.2111
-217,603,6.74493,-53.068,-0.00105639,0.0165924,-0.00770039,0.0194798,-0.00394379,-1.21205,0.0144813,0.01439,1007,421,6.74493,53.068
-210,603,6.69391,-53.9424,-0.000915366,0.0140892,-0.00675774,0.016684,-0.00351017,-1.20418,0.0124587,0.0122163,1014,421,6.69392,53.9424
-203,603,6.63599,-54.841,-0.000766134,0.0116075,-0.00585149,0.0139364,-0.00309499,-1.19202,0.0104761,0.0186559,1021,421,6.63601,54.841
-196,603,6.604,-55.7397,-0.000618906,0.00930622,-0.00501638,0.0113999,-0.00271262,-1.1754,0.00864717,0.0205558,1028,421,6.60406,55.7397
-189,603,6.56189,-56.4896,-0.000395293,0.00719256,-0.00435656,0.00917562,-0.00237835,-1.14364,0.00704498,0.0177532,1035,421,6.56188,56.4896
-182,603,6.4751,-57.2469,-0.000174045,0.00535915,-0.00367931,0.00719596,-0.00201086,-1.10777,0.00558949,0.0129612,1042,421,6.47509,57.2469
-175,603,6.41418,-58.0347,-2.6103e-05,0.00357555,-0.0029523,0.00523291,-0.00168346,-1.05926,0.00416476,0.0130802,1049,421,6.41422,58.0347
-168,603,6.34326,-58.8239,0.000189533,0.00228559,-0.00238715,0.00384463,-0.00136951,-0.992245,0.0031214,0.0156888,1056,421,6.34323,58.8238
-161,603,6.28406,-59.6067,0.000517366,0.00134752,-0.00191571,0.00289261,-0.00102772,-0.892084,0.00234721,0.0147983,1063,421,6.28409,59.6067
-154,603,6.26965,-60.3432,0.000913153,0.000630125,-0.00149415,0.00227248,-0.000729198,-0.738183,0.00180776,0.0137386,1070,421,6.26963,60.3432
-147,603,6.24658,-61.0576,0.00135766,0.000139483,-0.00110589,0.0020111,-0.000513961,-0.533682,0.0015409,0.0157359,1077,421,6.24664,61.0576
-140,603,6.23499,-61.7796,0.00187559,-0.000289424,-0.000764908,0.00211857,-0.0005324,-0.307574,0.00161929,0.0138249,1084,421,6.23501,61.7796
-133,603,6.20605,-62.493,0.0024172,-0.000492846,-0.000497608,0.00249993,-0.000575583,-0.164762,0.00188796,0.0138867,1091,421,6.20603,62.493
-126,603,6.18518,-63.143,0.00299555,-0.000507016,-0.000316199,0.00302386,-0.000535333,-0.0893142,0.00221601,0.0119551,1098,421,6.18521,63.143
-119,603,6.17261,-63.7939,0.00373304,-0.000497429,-0.00014465,0.00373798,-0.000502369,-0.0341393,0.00267521,0.0117681,1105,421,6.17256,63.7939
-112,603,6.16199,-64.4631,0.00451239,-0.000429966,3.6781e-05,0.00451267,-0.00043024,0.00744144,0.00316163,0.0167998,1112,421,6.16199,64.4631
-105,603,6.16833,-65.1053,0.00521534,-0.000350178,0.000152209,0.0052195,-0.000354338,0.0273214,0.00360359,0.0177779,1119,421,6.16833,65.1053
-98,603,6.17871,-65.6923,0.00588647,-0.000609304,0.000341127,0.00590433,-0.000627169,0.0523233,0.00416106,0.0150812,1126,421,6.17872,65.6923
-91,603,6.20276,-66.2908,0.00666731,-0.000997671,0.000624201,0.00671781,-0.00104817,0.0807266,0.00486571,0.0109282,1133,421,6.2028,66.2908
-84,603,6.24268,-66.8943,0.00783599,-0.00141242,0.000845038,0.00791257,-0.001489,0.090374,0.00583505,0.0121802,1140,421,6.24266,66.8943
-77,603,6.30872,-67.5026,0.00889885,-0.00243406,0.00119725,0.00902395,-0.00255916,0.104113,0.00702613,0.0181019,1147,421,6.30871,67.5026
-70,603,6.3385,-68.1089,0,0,0,0,0,0,0,-1,1154,421,6.33844,68.1089
-63,603,6.28723,-68.4079,0,0,0,0,0,0,0,-1,1161,421,6.28723,68.4079
-56,603,6.4458,-68.9352,0,0,0,0,0,0,0,-1,1168,421,6.4458,68.9352
-49,603,6.52661,-69.4117,0,0,0,0,0,0,0,-1,1175,421,6.52665,69.4117
-42,603,6.59143,-69.8177,0,0,0,0,0,0,0,-1,1182,421,6.59145,69.8177
-35,603,6.61877,-70.2095,0.0289518,-0.00881165,0.0100224,0.0314469,-0.0113068,0.243992,0.0255805,0.0452898,1189,421,6.61871,70.2095
-28,603,6.74365,-70.5374,0.0394033,-0.00906358,0.0131366,0.0427349,-0.0123951,0.248373,0.0333974,0.0331383,1196,421,6.74363,70.5375
-21,603,6.83887,-70.8878,0.0496515,-0.00767964,0.0127478,0.0523582,-0.0103864,0.209223,0.0388334,0.027748,1203,421,6.83883,70.8877
-14,603,6.927,-71.2276,0.057066,-0.00638688,0.0134527,0.0598003,-0.00912118,0.200521,0.0432292,0.0232938,1210,421,6.92701,71.2276
-7,603,7.03564,-71.5408,0.0627717,-0.00548364,0.013917,0.0655003,-0.00821218,0.193603,0.0466458,0.0278016,1217,421,7.0357,71.5408
0,603,7.17432,-71.8997,0.0645391,-0.00573453,0.0137245,0.0671244,-0.00831984,0.186189,0.047765,0.039068,1224,421,7.17438,71.8997
7,603,7.25073,-72.207,0,0,0,0,0,0,0,-1,1231,421,7.25072,72.207
14,603,7.54468,-71.9291,0,0,0,0,0,0,0,-1,1238,421,7.54468,71.9291
21,603,7.70361,-71.8125,0.0578998,-0.00699679,0.0112899,0.0598078,-0.00890478,0.167417,0.0431475,0.0497883,1245,421,7.70358,71.8125
28,603,7.79358,-72.168,0.0522464,-0.00670123,0.0104505,0.0540443,-0.00849912,0.17037,0.0391711,0.0493728,1252,421,7.79362,72.168
35,603,8.19751,-72.6454,0,0,0,0,0,0,0,-1,1259,421,8.19753,72.6454
42,603,8.06934,-72.2415,0.036981,-0.00421629,0.0100775,0.039314,-0.00654928,0.227498,0.0286431,0.0494775,1266,421,8.06938,72.2415
49,603,8.14246,-72.4564,0.0291737,-0.0021839,0.012005,0.0332419,-0.00625212,0.326732,0.0245126,0.0257415,1273,421,8.14244,72.4564
56,603,8.21619,-72.7686,0,0,0,0,0,0,0,-1,1280,421,8.2162,72.7687
63,603,8.30347,-73.0371,0,0,0,0,0,0,0,-1,1287,421,8.30352,73.0371
70,603,8.54895,-72.9725,0,0,0,0,0,0,0,-1,1294,421,8.549,72.9725
77,603,7.94226,-71.3788,0,0,0,0,0,0,0,-1,1301,421,7.94229,71.3788
84,603,9.02026,-73.0695,0,0,0,0,0,0,0,-1,1308,421,9.02026,73.0695
91,603,9.10986,-73.242,0,0,0,0,0,0,0,-1,1315,421,9.10987,73.242
98,603,9.38306,-73.1459,0,0,0,0,0,0,0,-1,1322,421,9.38303,73.1459
105,603,9.55591,-72.7458,0,0,0,0,0,0,0,-1,1329,421,9.55591,72.7458
112,603,9.82007,-72.2035,0.0275711,0.00648784,0.0440081,0.0622826,-0.0282236,0.667844,0.0534728,0.0474233,1336,421,9.82001,72.2035
119,603,10.0792,-72.0276,0.0338193,0.00394617,0.0453775,0.0666553,-0.0288899,0.626402,0.0565812,0.0484304,1343,421,10.0793,72.0276
126,603,10.2365,-71.6721,0,0,0,0,0,0,0,-1,1350,421,10.2364,71.6721
133,603,10.2544,-71.4158,0.0444643,-0.00166393,0.0447505,0.0717446,-0.0289443,0.547455,0.0598578,0.0489165,1357,421,10.2544,71.4158
140,603,10.387,-70.9798,0.0470785,-0.00435394,0.0424907,0.0710289,-0.0283044,0.513274,0.059092,0.0456162,1364,421,10.387,70.9798
147,603,10.2866,-70.9792,0,0,0,0,0,0,0,-1,1371,421,10.2866,70.9792
154,603,10.2269,-70.6073,0.0487635,-0.00893695,0.0300522,0.0615723,-0.0217457,0.402901,0.0499019,0.0431127,1378,421,10.2269,70.6073
161,603,10.5212,-70.2183,0.043111,-0.00884966,0.0232765,0.0520129,-0.0177516,0.365281,0.0418663,0.0369321,1385,421,10.5212,70.2183
168,603,10.6381,-69.8654,0,0,0,0,0,0,0,-1,1392,421,10.6381,69.8654
175,603,10.8557,-69.3946,0.0317633,-0.0089001,0.0125226,0.0353103,-0.0124471,0.276019,0.0286066,0.0444513,1399,421,10.8557,69.3946
182,603,10.937,-68.9431,0.0247325,-0.00735157,0.00512628,0.0255317,-0.00815072,0.154649,0.0202912,0.0497917,1406,421,10.937,68.943
189,603,10.8335,-68.4055,0.0197143,-0.00586011,0.0023758,0.0199331,-0.00607894,0.0918503,0.015712,0.0409476,1413,421,10.8335,68.4055
196,603,10.7991,-67.8988,0.0127975,-0.00576978,-0.00291082,0.0132431,-0.00621542,-0.151918,0.011476,0.0293392,1420,421,10.7991,67.8988
203,603,10.8141,-67.4278,0.010576,-0.00490041,-0.00281649,0.0110727,-0.00539703,-0.174533,0.00969516,0.016793,1427,421,10.8141,67.4278
210,603,10.873,-66.9809,0.00680651,-0.00385514,-0.0031997,0.00769306,-0.00474169,-0.270293,0.0072463,0.0143576,1434,421,10.873,66.9809
217,603,10.8865,-66.3379,0.00570322,-0.00236731,-0.00220602,0.00626686,-0.00293094,-0.250147,0.00542553,0.0143769,1441,421,10.8865,66.3379
224,603,10.9553,-65.7147,0.00511717,-0.00132542,-0.00146618,0.00543514,-0.0016434,-0.213565,0.00427778,0.0182414,1448,421,10.9553,65.7147
231,603,10.9871,-65.1161,0.00443059,-0.000396071,-0.000711954,0.00453342,-0.000498897,-0.143436,0.00320156,0.0161759,1455,421,10.9871,65.1161
238,603,10.9993,-64.4591,0.00395229,-5.92729e-06,-0.000272811,0.003971,-2.46419e-05,-0.0684911,0.00265559,0.011785,1462,421,10.9993,64.4591
245,603,11.0106,-63.7859,0.00353738,0.000196369,2.39571e-06,0.00353738,0.000196367,0.00071706,0.0022956,0.0119544,1469,421,11.0106,63.7858
252,603,11.0118,-63.1015,0.00308437,0.000497385,0.000377074,0.00313821,0.000443544,0.141827,0.00196109,0.0107117,1476,421,11.0118,63.1015
259,603,10.9802,-62.4097,0.00267253,0.000962515,0.000760293,0.00296167,0.00067337,0.363415,0.00179265,0.0110346,1483,421,10.9802,62.4097
266,603,10.9502,-61.6843,0.00234639,0.00154079,0.00119121,0.00320106,0.000686126,0.622362,0.00194607,0.0125785,1490,421,10.9502,61.6843
273,603,10.9617,-60.9383,0.00205977,0.00238625,0.00168109,0.00391201,0.000534007,0.833798,0.00244948,0.0114796,1497,421,10.9617,60.9383
280,603,10.9438,-60.1961,0.00181566,0.00330502,0.00224247,0.00492322,0.000197451,0.945709,0.00321835,0.0119037,1504,421,10.9438,60.1961
287,603,10.8879,-59.4172,0.00166405,0.00437856,0.00283817,0.00616731,-0.000124697,1.00843,0.00415373,0.01143,1511,421,10.888,59.4172
294,603,10.8269,-58.6602,0.0014655,0.00550381,0.00338612,0.00742709,-0.00045778,1.05425,0.00511082,0.0110121,1518,421,10.8269,58.6602
301,603,10.8137,-57.9068,0.001274,0.0066019,0.00396396,0.00871389,-0.000837992,1.08126,0.00610778,0.0127615,1525,421,10.8137,57.9068
308,603,10.7686,-57.1031,0.00119063,0.00797756,0.0046435,0.0103354,-0.00116722,1.10095,0.00731048,0.0173056,1532,421,10.7686,57.1031
315,603,10.6749,-56.3129,0.00121532,0.00957329,0.00541903,0.0122375,-0.00144892,1.11385,0.00868173,0.0155533,1539,421,10.6749,56.3129
322,603,10.6011,-55.4783,0.00119944,0.011032,0.00619406,0.0140237,-0.00179227,1.12084,0.0100002,0.0153452,1546,421,10.6011,55.4783
329,603,10.5438,-54.637,0.00129037,0.0125014,0.00713254,0.0159676,-0.00217576,1.11844,0.0114395,0.0113859,1553,421,10.5438,54.637
336,603,10.5038,-53.8084,0.00152036,0.0142034,0.0081314,0.0181738,-0.00244998,1.11657,0.0130096,0.00943514,1560,421,10.5038,53.8084
343,603,10.434,-52.9451,0.00172194,0.0157761,0.00913428,0.0202735,-0.00277552,1.11327,0.0145295,0.010981,1567,421,10.4339,52.9451
350,603,10.3752,-52.0685,0.00200771,0.0175337,0.0103024,0.0226704,-0.00312902,1.10827,0.0162573,0.0129462,1574,421,10.3753,52.0685
357,603,10.2947,-51.1686,0.00230207,0.0194198,0.0116786,0.02534,-0.00361816,1.10162,0.0182195,0.0144583,1581,421,10.2947,51.1686
364,603,10.2737,-50.1848,0.00251939,0.0212457,0.012869,0.0277973,-0.00403222,1.09989,0.0200115,0.0182239,1588,421,10.2737,50.1849
371,603,10.2631,-49.2386,0.00285782,0.0236677,0.0141715,0.0308438,-0.00431831,1.10206,0.0221428,0.0263425,1595,421,10.2631,49.2385
378,603,10.2291,-48.3569,0.0030006,0.0259866,0.0153927,0.0337036,-0.00471638,1.10608,0.0241949,0.0384144,1602,421,10.2291,48.3569
385,603,10.1041,-47.483,0,0,0,0,0,0,0,-1,1609,421,10.1042,47.483
392,603,10.2271,-46.544,0,0,0,0,0,0,0,-1,1616,421,10.227,46.544
399,603,9.85522,-45.469,0,0,0,0,0,0,0,-1,1623,421,9.85521,45.469
406,603,9.64258,-44.9151,0,0,0,0,0,0,0,-1,1630,421,9.64261,44.9151
413,603,9.70947,-44.3204,0,0,0,0,0,0,0,-1,1637,421,9.70951,44.3204
420,603,8.22217,-23.7068,0,0,0,0,0,0,0,-1,1644,421,8.22215,23.7068
427,603,8.20386,-23.1278,0,0,0,0,0,0,0,-1,1651,421,8.2039,23.1278
434,603,8.01489,-22.5655,0,0,0,0,0,0,0,-1,1658,421,8.01493,22.5655
441,603,8.00122,-22.3072,0,0,0,0,0,0,0,-1,1665,421,8.00116,22.3071
448,603,1.14355,-4.59842,0,0,0,0,0,0,0,-1,1672,421,1.14355,4.59841
455,603,0,0,0,0,0,0,0,0,0,-1,1679,421,0,0
462,603,0,0,0,0,0,0,0,0,0,-1,1686,421,0,0
469,603,0,0,0,0,0,0,0,0,0,-1,1693,421,0,0
476,603,0,0,0,0,0,0,0,0,0,-1,1700,421,0,0
483,603,0,0,0,0,0,0,0,0,0,-1,1707,421,0,0
490,603,0,0,0,0,0,0,0,0,0,-1,1714,421,0,0
497,603,0,0,0,0,0,0,0,0,0,-1,1721,421,0,0
504,603,0,0,0,0,0,0,0,0,0,-1,1728,421,0,0
511,603,0,0,0,0,0,0,0,0,0,-1,1735,421,0,0
518,603,0,0,0,0,0,0,0,0,0,-1,1742,421,0,0
525,603,0,0,0,0,0,0,0,0,0,-1,1749,421,0,0
532,603,0,0,0,0,0,0,0,0,0,-1,1756,421,0,0
539,603,0,0,0,0,0,0,0,0,0,-1,1763,421,0,0
546,603,0,0,0,0,0,0,0,0,0,-1,1770,421,0,0
553,603,0,0,0,0,0,0,0,0,0,-1,1777,421,0,0
560,603,0,0,0,0,0,0,0,0,0,-1,1784,421,0,0
567,603,0,0,0,0,0,0,0,0,0,-1,1791,421,0,0
574,603,0,0,0,0,0,0,0,0,0,-1,1798,421,0,0
581,603,0,0,0,0,0,0,0,0,0,-1,1805,421,0,0
588,603,0,0,0,0,0,0,0,0,0,-1,1812,421,0,0
595,603,0,0,0,0,0,0,0,0,0,-1,1819,421,0,0
602,603,0,0,0,0,0,0,0,0,0,-1,1826,421,0,0
609,603,0,0,0,0,0,0,0,0,0,-1,1833,421,0,0
616,603,0,0,0,0,0,0,0,0,0,-1,1840,421,0,0
623,603,0,0,0,0,0,0,0,0,0,-1,1847,421,0,0
630,603,0,0,0,0,0,0,0,0,0,-1,1854,421,0,0
637,603,0,0,0,0,0,0,0,0,0,-1,1861,421,0,0
644,603,0,0,0,0,0,0,0,0,0,-1,1868,421,0,0
651,603,0,0,0,0,0,0,0,0,0,-1,1875,421,0,0
658,603,0,0,0,0,0,0,0,0,0,-1,1882,421,0,0
665,603,0,0,0,0,0,0,0,0,0,-1,1889,421,0,0
672,603,0,0,0,0,0,0,0,0,0,-1,1896,421,0,0
679,603,0,0,0,0,0,0,0,0,0,-1,1903,421,0,0
686,603,0,0,0,0,0,0,0,0,0,-1,1910,421,0,0
693,603,0,0,0,0,0,0,0,0,0,-1,1917,421,0,0
700,603,0,0,0,0,0,0,0,0,0,-1,1924,421,0,0
707,603,0,0,0,0,0,0,0,0,0,-1,1931,421,0,0
714,603,0,0,0,0,0,0,0,0,0,-1,1938,421,0,0
721,603,0,0,0,0,0,0,0,0,0,-1,1945,421,0,0
728,603,0,0,0,0,0,0,0,0,0,-1,1952,421,0,0
735,603,0,0,0,0,0,0,0,0,0,-1,1959,421,0,0
742,603,0,0,0,0,0,0,0,0,0,-1,1966,421,0,0
749,603,0,0,0,0,0,0,0,0,0,-1,1973,421,0,0
756,603,0,0,0,0,0,0,0,0,0,-1,1980,421,0,0
763,603,0,0,0,0,0,0,0,0,0,-1,1987,421,0,0
770,603,0,0,0,0,0,0,0,0,0,-1,1994,421,0,0
777,603,0,0,0,0,0,0,0,0,0,-1,2001,421,0,0
784,603,0,0,0,0,0,0,0,0,0,-1,2008,421,0,0
791,603,0,0,0,0,0,0,0,0,0,-1,2015,421,0,0
798,603,0,0,0,0,0,0,0,0,0,-1,2022,421,0,0
805,603,0,0,0,0,0,0,0,0,0,-1,2029,421,0,0
812,603,0,0,0,0,0,0,0,0,0,-1,2036,421,0,0
-700,596,0,0,0,0,0,0,0,0,0,-1,524,428,0,0
-693,596,0,0,0,0,0,0,0,0,0,-1,531,428,0,0
-686,596,0,0,0,0,0,0,0,0,0,-1,538,428,0,0
-679,596,0,0,0,0,0,0,0,0,0,-1,545,428,0,0
-672,596,0,0,0,0,0,0,0,0,0,-1,552,428,0,0
-665,596,0,0,0,0,0,0,0,0,0,-1,559,428,0,0
-658,596,0,0,0,0,0,0,0,0,0,-1,566,428,0,0
-651,596,0,0,0,0,0,0,0,0,0,-1,573,428,0,0
-644,596,0,0,0,0,0,0,0,0,0,-1,580,428,0,0
-637,596,0,0,0,0,0,0,0,0,0,-1,587,428,0,0
-630,596,0,0,0,0,0,0,0,0,0,-1,594,428,0,0
-623,596,0,0,0,0,0,0,0,0,0,-1,601,428,0,0
-616,596,0,0,0,0,0,0,0,0,0,-1,608,428,0,0
-609,596,0,0,0,0,0,0,0,0,0,-1,615,428,0,0
-602,596,0,0,0,0,0,0,0,0,0,-1,622,428,0,0
-595,596,0,0,0,0,0,0,0,0,0,-1,629,428,0,0
-588,596,0,0,0,0,0,0,0,0,0,-1,636,428,0,0
-581,596,0,0,0,0,0,0,0,0,0,-1,643,428,0,0
-574,596,0,0,0,0,0,0,0,0,0,-1,650,428,0,0
-567,596,0,0,0,0,0,0,0,0,0,-1,657,428,0,0
-560,596,0,0,0,0,0,0,0,0,0,-1,664,428,0,0
-553,596,0,0,0,0,0,0,0,0,0,-1,671,428,0,0
-546,596,0,0,0,0,0,0,0,0,0,-1,678,428,0,0
-539,596,0,0,0,0,0,0,0,0,0,-1,685,428,0,0
-532,596,0,0,0,0,0,0,0,0,0,-1,692,428,0,0
-525,596,0,0,0,0,0,0,0,0,0,-1,699,428,0,0
-518,596,0,0,0,0,0,0,0,0,0,-1,706,428,0,0
-511,596,0,0,0,0,0,0,0,0,0,-1,713,428,0,0
-504,596,0,0,0,0,0,0,0,0,0,-1,720,428,0,0
-497,596,0,0,0,0,0,0,0,0,0,-1,727,428,0,0
-490,596,0,0,0,0,0,0,0,0,0,-1,734,428,0,0
-483,596,0,0,0,0,0,0,0,0,0,-1,741,428,0,0
-476,596,0,0,0,0,0,0,0,0,0,-1,748,428,0,0
-469,596,0,0,0,0,0,0,0,0,0,-1,755,428,0,0
-462,596,0,0,0,0,0,0,0,0,0,-1,762,428,0,0
-455,596,0,0,0,0,0,0,0,0,0,-1,769,428,0,0
-448,596,0,0,0,0,0,0,0,0,0,-1,776,428,0,0
-441,596,0,0,0,0,0,0,0,0,0,-1,783,428,0,0
-434,596,0,0,0,0,0,0,0,0,0,-1,790,428,0,0
-427,596,0,0,0,0,0,0,0,0,0,-1,797,428,0,0
-420,596,0,0,0,0,0,0,0,0,0,-1,804,428,0,0
-413,596,0,0,0,0,0,0,0,0,0,-1,811,428,0,0
-406,596,0,0,0,0,0,0,0,0,0,-1,818,428,0,0
-399,596,0,0,0,0,0,0,0,0,0,-1,825,428,0,0
-392,596,0,0,0,0,0,0,0,0,0,-1,832,428,0,0
-385,596,0,0,0,0,0,0,0,0,0,-1,839,428,0,0
-378,596,0,0,0,0,0,0,0,0,0,-1,846,428,0,0
-371,596,0,0,0,0,0,0,0,0,0,-1,853,428,0,0
-364,596,0,0,0,0,0,0,0,0,0,-1,860,428,0,0
-357,596,0,0,0,0,0,0,0,0,0,-1,867,428,0,0
-350,596,0,0,0,0,0,0,0,0,0,-1,874,428,0,0
-343,596,0,0,0,0,0,0,0,0,0,-1,881,428,0,0
-336,596,6.81445,-30.5258,0,0,0,0,0,0,0,-1,888,428,6.81446,30.5258
-329,596,6.84772,-28.9253,0,0,0,0,0,0,0,-1,895,428,6.84773,28.9253
-322,596,6.97449,-27.9047,0,0,0,0,0,0,0,-1,902,428,6.97451,27.9047
-315,596,7.10132,-26.8841,0,0,0,0,0,0,0,-1,909,428,7.10129,26.8841
-308,596,0.254761,-20.841,0,0,0,0,0,0,0,-1,916,428,0.254731,20.841
-301,596,3.43213,-26.756,0,0,0,0,0,0,0,-1,923,428,3.43214,26.756
-294,596,4.1767,-27.6454,0,0,0,0,0,0,0,-1,930,428,4.17667,27.6454
-287,596,4.36041,-27.6119,0,0,0,0,0,0,0,-1,937,428,4.3604,27.6119
-280,596,5.96619,-42.5634,0,0,0,0,0,0,0,-1,944,428,5.96616,42.5634
-273,596,6.46906,-45.6494,0,0,0,0,0,0,0,-1,951,428,6.46904,45.6494
-266,596,6.29803,-46.5655,0,0,0,0,0,0,0,-1,958,428,6.29804,46.5655
-259,596,6.34912,-47.4799,0,0,0,0,0,0,0,-1,965,428,6.3491,47.4799
-252,596,6.23682,-48.5511,-0.00164962,0.0221549,-0.0108496,0.0263579,-0.00585257,-1.20121,0.019813,0.0226115,972,428,6.23684,48.5511
-245,596,6.18439,-49.5502,-0.00138343,0.0202125,-0.00971984,0.0239428,-0.00511376,-1.20435,0.0179115,0.0141097,979,428,6.18439,49.5502
-238,596,6.12097,-50.4573,-0.00122546,0.018169,-0.00864515,0.0214631,-0.00451957,-1.20674,0.0160291,0.0125967,986,428,6.12097,50.4573
-231,596,6.04492,-51.3661,-0.00101153,0.0160796,-0.0076166,0.0189813,-0.00391321,-1.2068,0.0141402,0.0140403,993,428,6.0449,51.3661
-224,596,5.98602,-52.2442,-0.000655609,0.0138776,-0.0066861,0.0164855,-0.0032636,-1.19889,0.0122243,0.0150651,1000,428,5.98604,52.2442
-217,596,5.90637,-53.1,-0.000383561,0.0115945,-0.00573967,0.0139008,-0.00268985,-1.18873,0.0102818,0.0160035,1007,428,5.90639,53.1
-210,596,5.88422,-53.9487,-0.00014822,0.00934492,-0.00486432,0.0113948,-0.00219808,-1.17197,0.00842534,0.014805,1014,428,5.88425,53.9487
-203,596,5.84009,-54.7749,0.000123397,0.00716868,-0.00403895,0.00900534,-0.00171326,-1.14401,0.00664864,0.0191306,1021,428,5.84007,54.7749
-196,596,5.80103,-55.616,0.00039904,0.00517293,-0.00330714,0.00686455,-0.00129258,-1.09799,0.00506253,0.0186978,1028,428,5.80101,55.616
-189,596,5.75049,-56.4349,0.000696861,0.00330697,-0.00269681,0.0049979,-0.000994072,-1.01075,0.00370798,0.0151971,1035,428,5.75045,56.4349
-182,596,5.70447,-57.2043,0.00102155,0.00170347,-0.00209929,0.00348931,-0.000764292,-0.865903,0.00261842,0.0131392,1042,428,5.70447,57.2043
-175,596,5.65613,-57.9929,0.00129908,0.000244458,-0.00150118,0.00236287,-0.000819328,-0.616497,0.00190793,0.0155055,1049,428,5.65616,57.9929
-168,596,5.61389,-58.8003,0.0016128,-0.000755313,-0.00104364,0.00200709,-0.0011496,-0.361224,0.0018448,0.0184709,1056,428,5.61393,58.8003
-161,596,5.56384,-59.5629,0.00203028,-0.00141574,-0.000677638,0.00215875,-0.0015442,-0.187353,0.00214769,0.0160407,1063,428,5.56383,59.5629
-154,596,5.53589,-60.2976,0.0025056,-0.00183007,-0.000361259,0.00253549,-0.00185996,-0.082564,0.00254769,0.0131619,1070,428,5.53587,60.2976
-147,596,5.55054,-60.9979,0.00304822,-0.00197611,-0.000100864,0.00305024,-0.00197813,-0.0200643,0.00292505,0.0148541,1077,428,5.55048,60.9979
-140,596,5.54846,-61.713,0.00364569,-0.00209373,0.000169067,0.00365066,-0.0020987,0.0294232,0.00335947,0.0172801,1084,428,5.5484,61.713
-133,596,5.51245,-62.4696,0.00422779,-0.00200836,0.000369051,0.00424956,-0.00203012,0.0589051,0.00370029,0.0171324,1091,428,5.51244,62.4696
-126,596,5.51453,-63.1302,0.00487957,-0.00170376,0.000459214,0.00491145,-0.00173563,0.0693068,0.00398102,0.0125315,1098,428,5.51452,63.1302
-119,596,5.50049,-63.795,0.00575854,-0.00143635,0.00052681,0.00579691,-0.00147472,0.0727033,0.00443861,0.0154001,1105,428,5.50045,63.7951
-112,596,5.49561,-64.4627,0.00661765,-0.00120166,0.000689448,0.00667798,-0.00126198,0.0872752,0.00492682,0.0171302,1112,428,5.49564,64.4627
-105,596,5.5282,-65.0869,0.00736509,-0.000972699,0.000792084,0.00743967,-0.00104728,0.0938804,0.00534319,0.025964,1119,428,5.52825,65.0869
-98,596,5.59058,-65.737,0.00803754,-0.0013236,0.0010413,0.00815197,-0.00143803,0.109453,0.00597198,0.0368652,1126,428,5.59053,65.737
-91,596,5.51428,-66.4601,0,0,0,0,0,0,0,-1,1133,428,5.5143,66.4601
-84,596,5.6571,-66.884,0,0,0,0,0,0,0,-1,1140,428,5.65709,66.884
-77,596,5.81262,-67.5253,0,0,0,0,0,0,0,-1,1147,428,5.81258,67.5253
-70,596,3.50696,-32.137,0,0,0,0,0,0,0,-1,1154,428,3.50696,32.137
-63,596,1.95569,-12.2758,0,0,0,0,0,0,0,-1,1161,428,1.95563,12.2759
-56,596,1.60107,-10.5827,0,0,0,0,0,0,0,-1,1168,428,1.60108,10.5827
-49,596,1.59473,-10.0393,0,0,0,0,0,0,0,-1,1175,428,1.59472,10.0393
-42,596,1.99585,-6.6246,0,0,0,0,0,0,0,-1,1182,428,1.99586,6.62459
-35,596,5.98877,-69.8582,0,0,0,0,0,0,0,-1,1189,428,5.98875,69.8582
-28,596,6.35986,-70.3002,0,0,0,0,0,0,0,-1,1196,428,6.35982,70.3002
-21,596,6.39832,-70.6728,0,0,0,0,0,0,0,-1,1203,428,6.39832,70.6728
-14,596,6.13611,-70.6882,0,0,0,0,0,0,0,-1,1210,428,6.13606,70.6882
-7,596,6.61353,-71.3152,0,0,0,0,0,0,0,-1,1217,428,6.61356,71.3151
0,596,6.83289,-71.8055,0,0,0,0,0,0,0,-1,1224,428,6.83292,71.8055
7,596,2.54419,-83.8163,0,0,0,0,0,0,0,-1,1231,428,2.54417,83.8163
14,596,1.44055,-83.7331,0,0,0,0,0,0,0,-1,1238,428,1.44052,83.7331
21,596,7.51013,-70.6606,0,0,0,0,0,0,0,-1,1245,428,7.51017,70.6605
28,596,7.63879,-71.3821,0,0,0,0,0,0,0,-1,1252,428,7.63876,71.3822
35,596,8.63794,-70.9768,0,0,0,0,0,0,0,-1,1259,428,8.63789,70.9768
42,596,7.8689,-71.5866,0,0,0,0,0,0,0,-1,1266,428,7.8689,71.5866
49,596,8.48804,-72.1632,0.039319,-0.00107924,0.014935,0.0442408,-0.006001,0.318337,0.0316842,0.0462816,1273,428,8.48807,72.1632
56,596,8.16553,-72.0794,0.0296445,0.00139591,0.0178321,0.0382684,-0.007228,0.450455,0.0282317,0.0438623,1280,428,8.16556,72.0794
63,596,8.08228,-71.9148,0,0,0,0,0,0,0,-1,1287,428,8.08231,71.9148
70,596,7.98474,-71.8021,0.0144074,0.00776725,0.0256329,0.0369343,-0.0147597,0.720995,0.0307472,0.0472216,1294,428,7.9848,71.8021
77,596,7.72351,-71.7234,0.0117616,0.0103384,0.0317723,0.0428303,-0.0207303,0.774202,0.0374288,0.0451233,1301,428,7.72356,71.7234
84,596,7.52014,-71.562,0.0113875,0.0116971,0.0381151,0.0496577,-0.0265731,0.787429,0.0446795,0.0430608,1308,428,7.5201,71.5619
91,596,7.87061,-71.2286,0.0149944,0.0119911,0.0444813,0.0579994,-0.0310139,0.768525,0.0521731,0.0415203,1315,428,7.87066,71.2286
98,596,8.08765,-70.8656,0.0202815,0.0115804,0.0505081,0.0666261,-0.0347642,0.742436,0.0594934,0.0487787,1322,428,8.08763,70.8656
105,596,8.38306,-70.2815,0,0,0,0,0,0,0,-1,1329,428,8.38302,70.2815
112,596,10.2216,-71.8981,0,0,0,0,0,0,0,-1,1336,428,10.2215,71.8981
119,596,10.6692,-71.6213,0,0,0,0,0,0,0,-1,1343,428,10.6692,71.6213
126,596,9.96643,-68.5894,0,0,0,0,0,0,0,-1,1350,428,9.96646,68.5894
133,596,10.889,-70.9841,0,0,0,0,0,0,0,-1,1357,428,10.8891,70.9841
140,596,11.0497,-70.1653,0,0,0,0,0,0,0,-1,1364,428,11.0497,70.1653
147,596,10.8228,-70.0629,0,0,0,0,0,0,0,-1,1371,428,10.8227,70.0629
154,596,10.4387,-70.4007,0,0,0,0,0,0,0,-1,1378,428,10.4387,70.4007
161,596,11.0702,-69.9121,0,0,0,0,0,0,0,-1,1385,428,11.0701,69.9121
168,596,11.1904,-68.8212,0,0,0,0,0,0,0,-1,1392,428,11.1905,68.8212
175,596,11.4063,-68.9286,0,0,0,0,0,0,0,-1,1399,428,11.4063,68.9286
182,596,11.6266,-68.7582,0,0,0,0,0,0,0,-1,1406,428,11.6266,68.7582
189,596,11.4901,-68.2196,0,0,0,0,0,0,0,-1,1413,428,11.4901,68.2196
196,596,11.4292,-67.5555,0,0,0,0,0,0,0,-1,1420,428,11.4292,67.5555
203,596,11.4072,-67.1551,0,0,0,0,0,0,0,-1,1427,428,11.4072,67.1551
210,596,11.4275,-66.9909,0,0,0,0,0,0,0,-1,1434,428,11.4275,66.9909
217,596,11.4642,-66.3056,0,0,0,0,0,0,0,-1,1441,428,11.4643,66.3056
224,596,11.5963,-65.6909,0,0,0,0,0,0,0,-1,1448,428,11.5963,65.6909
231,596,11.6986,-65.1092,0.00589955,-0.00223647,-0.00179038,0.0062761,-0.00261303,-0.2073,0.00527539,0.0286511,1455,428,11.6986,65.1092
238,596,11.6643,-64.399,0.00533316,-0.00206532,-0.00139111,0.00558608,-0.00231824,-0.179847,0.00469176,0.017485,1462,428,11.6643,64.399
245,596,11.6786,-63.7448,0.00477526,-0.00229334,-0.00124233,0.00498725,-0.00250532,-0.169008,0.00440424,0.014223,1469,428,11.6786,63.7448
252,596,11.7026,-63.0728,0.00416208,-0.00239868,-0.00095371,0.0042979,-0.00253451,-0.141466,0.00398825,0.0105603,1476,428,11.7027,63.0728
259,596,11.6877,-62.3745,0.0035904,-0.00233503,-0.000739097,0.0036812,-0.00242583,-0.122238,0.00355064,0.00939161,1483,428,11.6877,62.3745
266,596,11.6661,-61.6521,0.00315677,-0.00200921,-0.000438477,0.00319372,-0.00204616,-0.0840764,0.00304933,0.0110793,1490,428,11.6662,61.6521
273,596,11.6792,-60.917,0.00277164,-0.00138194,-6.28356e-05,0.00277259,-0.00138289,-0.0151234,0.00244348,0.0128192,1497,428,11.6792,60.917
280,596,11.667,-60.1891,0.00241493,-0.000681839,0.000384168,0.00246188,-0.000728785,0.121599,0.00193059,0.0124292,1504,428,11.667,60.1891
287,596,11.6404,-59.4319,0.00215858,0.000191403,0.000858343,0.00248044,-0.000130458,0.358752,0.00169879,0.0116227,1511,428,11.6404,59.4319
294,596,11.5851,-58.6506,0.00188756,0.00123282,0.00133157,0.00293141,0.000188964,0.664863,0.00189443,0.0103996,1518,428,11.585,58.6506
301,596,11.5701,-57.8687,0.00162636,0.00233974,0.00185711,0.0038741,9.19955e-05,0.880276,0.00255262,0.0121913,1525,428,11.57,57.8687
308,596,11.5518,-57.0717,0.00145869,0.00367477,0.00247482,0.00527828,-0.00014481,0.995879,0.0035681,0.0183829,1532,428,11.5518,57.0717
315,596,11.4543,-56.2733,0.0013812,0.00519823,0.00317998,0.00699845,-0.000419025,1.05567,0.00481139,0.0165376,1539,428,11.4544,56.2733
322,596,11.4133,-55.4559,0.00126212,0.00661669,0.0038915,0.00866293,-0.000784111,1.08671,0.00605361,0.0136743,1546,428,11.4134,55.4559
329,596,11.3524,-54.6368,0.00124819,0.00805173,0.00475499,0.0104965,-0.00119657,1.09589,0.00742871,0.010647,1553,428,11.3524,54.6368
336,596,11.2894,-53.8048,0.00135501,0.00965519,0.00567135,0.0125327,-0.00152252,1.10126,0.00890614,0.0103109,1560,428,11.2895,53.8048
343,596,11.2577,-52.9389,0.00142869,0.0112061,0.00662262,0.014549,-0.00191416,1.10335,0.0103963,0.0123307,1567,428,11.2577,52.9389
350,596,11.2085,-52.0389,0.00155644,0.0128548,0.00766019,0.0167236,-0.00231235,1.10312,0.0119944,0.0120314,1574,428,11.2086,52.0389
357,596,11.1227,-51.1643,0.0017057,0.0145249,0.00882688,0.0190239,-0.00279326,1.09943,0.0137089,0.00981517,1581,428,11.1227,51.1643
364,596,11.0452,-50.2737,0.00181326,0.0160853,0.00985759,0.0211187,-0.00322014,1.0987,0.0152662,0.0103697,1588,428,11.0452,50.2737
371,596,10.9716,-49.3843,0.00195785,0.0179581,0.0109226,0.0234971,-0.00358108,1.10148,0.0169847,0.0120709,1595,428,10.9715,49.3843
378,596,10.8748,-48.4648,0.00194143,0.0197365,0.0118791,0.0256807,-0.0040028,1.10683,0.0185989,0.0171601,1602,428,10.8748,48.4648
385,596,10.9036,-47.3459,0.00168501,0.0209849,0.012392,0.0270411,-0.00437116,1.11622,0.0196472,0.0364875,1609,428,10.9035,47.346
392,596,10.9012,-46.3239,0.00140015,0.0218256,0.0127358,0.0279377,-0.00471197,1.12334,0.0203782,0.0456225,1616,428,10.9012,46.3239
399,596,10.7432,-45.3896,0.00109917,0.0227707,0.0130537,0.0289,-0.0050301,1.13181,0.0211438,0.0472186,1623,428,10.7431,45.3896
406,596,10.7084,-44.7939,0,0,0,0,0,0,0,-1,1630,428,10.7084,44.7939
413,596,10.7344,-44.1914,0,0,0,0,0,0,0,-1,1637,428,10.7344,44.1914
420,596,2.6344,-3.06308,0,0,0,0,0,0,0,-1,1644,428,2.63439,3.06308
427,596,7.61975,-22.7222,0,0,0,0,0,0,0,-1,1651,428,7.61974,22.7222
434,596,5.09753,-22.5213,0,0,0,0,0,0,0,-1,1658,428,5.09755,22.5213
441,596,7.19043,-22.087,0,0,0,0,0,0,0,-1,1665,428,7.19046,22.087
448,596,1.0769,0.0083313,0,0,0,0,0,0,0,-1,1672,428,1.07684,-0.00832231
455,596,2.00769,-1.43329,0,0,0,0,0,0,0,-1,1679,428,2.00765,1.4333
462,596,0,0,0,0,0,0,0,0,0,-1,1686,428,0,0
469,596,0,0,0,0,0,0,0,0,0,-1,1693,428,0,0
476,596,0,0,0,0,0,0,0,0,0,-1,1700,428,0,0
483,596,0,0,0,0,0,0,0,0,0,-1,1707,428,0,0
490,596,0,0,0,0,0,0,0,0,0,-1,1714,428,0,0
497,596,0,0,0,0,0,0,0,0,0,-1,1721,428,0,0
504,596,0,0,0,0,0,0,0,0,0,-1,1728,428,0,0
511,596,0,0,0,0,0,0,0,0,0,-1,1735,428,0,0
518,596,0,0,0,0,0,0,0,0,0,-1,1742,428,0,0
525,596,0,0,0,0,0,0,0,0,0,-1,1749,428,0,0
532,596,0,0,0,0,0,0,0,0,0,-1,1756,428,0,0
539,596,0,0,0,0,0,0,0,0,0,-1,1763,428,0,0
546,596,0,0,0,0,0,0,0,0,0,-1,1770,428,0,0
553,596,0,0,0,0,0,0,0,0,0,-1,1777,428,0,0
560,596,0,0,0,0,0,0,0,0,0,-1,1784,428,0,0
567,596,0,0,0,0,0,0,0,0,0,-1,1791,428,0,0
574,596,0,0,0,0,0,0,0,0,0,-1,1798,428,0,0
581,596,0,0,0,0,0,0,0,0,0,-1,1805,428,0,0
588,596,0,0,0,0,0,0,0,0,0,-1,1812,428,0,0
595,596,0,0,0,0,0,0,0,0,0,-1,1819,428,0,0
602,596,0,0,0,0,0,0,0,0,0,-1,1826,428,0,0
609,596,0,0,0,0,0,0,0,0,0,-1,1833,428,0,0
616,596,0,0,0,0,0,0,0,0,0,-1,1840,428,0,0
623,596,0,0,0,0,0,0,0,0,0,-1,1847,428,0,0
630,596,0,0,0,0,0,0,0,0,0,-1,1854,428,0,0
637,596,0,0,0,0,0,0,0,0,0,-1,1861,428,0,0
644,596,0,0,0,0,0,0,0,0,0,-1,1868,428,0,0
651,596,0,0,0,0,0,0,0,0,0,-1,1875,428,0,0
658,596,0,0,0,0,0,0,0,0,0,-1,1882,428,0,0
665,596,0,0,0,0,0,0,0,0,0,-1,1889,428,0,0
672,596,0,0,0,0,0,0,0,0,0,-1,1896,428,0,0
679,596,0,0,0,0,0,0,0,0,0,-1,1903,428,0,0
686,596,0,0,0,0,0,0,0,0,0,-1,1910,428,0,0
693,596,0,0,0,0,0,0,0,0,0,-1,1917,428,0,0
700,596,0,0,0,0,0,0,0,0,0,-1,1924,428,0,0
707,596,0,0,0,0,0,0,0,0,0,-1,1931,428,0,0
714,596,0,0,0,0,0,0,0,0,0,-1,1938,428,0,0
721,596,0,0,0,0,0,0,0,0,0,-1,1945,428,0,0
728,596,0,0,0,0,0,0,0,0,0,-1,1952,428,0,0
735,596,0,0,0,0,0,0,0,0,0,-1,1959,428,0,0
742,596,0,0,0,0,0,0,0,0,0,-1,1966,428,0,0
749,596,0,0,0,0,0,0,0,0,0,-1,1973,428,0,0
756,596,0,0,0,0,0,0,0,0,0,-1,1980,428,0,0
763,596,0,0,0,0,0,0,0,0,0,-1,1987,428,0,0
770,596,0,0,0,0,0,0,0,0,0,-1,1994,428,0,0
777,596,0,0,0,0,0,0,0,0,0,-1,2001,428,0,0
784,596,0,0,0,0,0,0,0,0,0,-1,2008,428,0,0
791,596,0,0,0,0,0,0,0,0,0,-1,2015,428,0,0
798,596,0,0,0,0,0,0,0,0,0,-1,2022,428,0,0
805,596,0,0,0,0,0,0,0,0,0,-1,2029,428,0,0
812,596,0,0,0,0,0,0,0,0,0,-1,2036,428,0,0
-700,589,0,0,0,0,0,0,0,0,0,-1,524,435,0,0
-693,589,0,0,0,0,0,0,0,0,0,-1,531,435,0,0
-686,589,0,0,0,0,0,0,0,0,0,-1,538,435,0,0
-679,589,0,0,0,0,0,0,0,0,0,-1,545,435,0,0
-672,589,0,0,0,0,0,0,0,0,0,-1,552,435,0,0
-665,589,0,0,0,0,0,0,0,0,0,-1,559,435,0,0
-658,589,0,0,0,0,0,0,0,0,0,-1,566,435,0,0
-651,589,0,0,0,0,0,0,0,0,0,-1,573,435,0,0
-644,589,0,0,0,0,0,0,0,0,0,-1,580,435,0,0
-637,589,0,0,0,0,0,0,0,0,0,-1,587,435,0,0
-630,589,0,0,0,0,0,0,0,0,0,-1,594,435,0,0
-623,589,0,0,0,0,0,0,0,0,0,-1,601,435,0,0
-616,589,0,0,0,0,0,0,0,0,0,-1,608,435,0,0
-609,589,0,0,0,0,0,0,0,0,0,-1,615,435,0,0
-602,589,0,0,0,0,0,0,0,0,0,-1,622,435,0,0
-595,589,0,0,0,0,0,0,0,0,0,-1,629,435,0,0
-588,589,0,0,0,0,0,0,0,0,0,-1,636,435,0,0
-581,589,0,0,0,0,0,0,0,0,0,-1,643,435,0,0
-574,589,0,0,0,0,0,0,0,0,0,-1,650,435,0,0
-567,589,0,0,0,0,0,0,0,0,0,-1,657,435,0,0
-560,589,0,0,0,0,0,0,0,0,0,-1,664,435,0,0
-553,589,0,0,0,0,0,0,0,0,0,-1,671,435,0,0
-546,589,0,0,0,0,0,0,0,0,0,-1,678,435,0,0
-539,589,0,0,0,0,0,0,0,0,0,-1,685,435,0,0
-532,589,0,0,0,0,0,0,0,0,0,-1,692,435,0,0
-525,589,0,0,0,0,0,0,0,0,0,-1,699,435,0,0
-518,589,0,0,0,0,0,0,0,0,0,-1,706,435,0,0
-511,589,0,0,0,0,0,0,0,0,0,-1,713,435,0,0
-504,589,0,0,0,0,0,0,0,0,0,-1,720,435,0,0
-497,589,0,0,0,0,0,0,0,0,0,-1,727,435,0,0
-490,589,0,0,0,0,0,0,0,0,0,-1,734,435,0,0
-483,589,0,0,0,0,0,0,0,0,0,-1,741,435,0,0
-476,589,0,0,0,0,0,0,0,0,0,-1,748,435,0,0
-469,589,0,0,0,0,0,0,0,0,0,-1,755,435,0,0
-462,589,0,0,0,0,0,0,0,0,0,-1,762,435,0,0
-455,589,0,0,0,0,0,0,0,0,0,-1,769,435,0,0
-448,589,0,0,0,0,0,0,0,0,0,-1,776,435,0,0
-441,589,0,0,0,0,0,0,0,0,0,-1,783,435,0,0
-434,589,0,0,0,0,0,0,0,0,0,-1,790,435,0,0
-427,589,0,0,0,0,0,0,0,0,0,-1,797,435,0,0
-420,589,0,0,0,0,0,0,0,0,0,-1,804,435,0,0
-413,589,0,0,0,0,0,0,0,0,0,-1,811,435,0,0
-406,589,0,0,0,0,0,0,0,0,0,-1,818,435,0,0
-399,589,0,0,0,0,0,0,0,0,0,-1,825,435,0,0
-392,589,0,0,0,0,0,0,0,0,0,-1,832,435,0,0
-385,589,0,0,0,0,0,0,0,0,0,-1,839,435,0,0
-378,589,0,0,0,0,0,0,0,0,0,-1,846,435,0,0
-371,589,0,0,0,0,0,0,0,0,0,-1,853,435,0,0
-364,589,0,0,0,0,0,0,0,0,0,-1,860,435,0,0
-357,589,0,0,0,0,0,0,0,0,0,-1,867,435,0,0
-350,589,-0.799927,-20.664,0,0,0,0,0,0,0,-1,874,435,-0.799952,20.664
-343,589,5.15289,-30.4847,0,0,0,0,0,0,0,-1,881,435,5.15291,30.4847
-336,589,5.07684,-29.2368,0,0,0,0,0,0,0,-1,888,435,5.07687,29.2368
-329,589,4.9624,-28.1366,0,0,0,0,0,0,0,-1,895,435,4.96242,28.1366
-322,589,5.10156,-27.065,0,0,0,0,0,0,0,-1,902,435,5.10155,27.065
-315,589,4.22705,-27.9655,0,0,0,0,0,0,0,-1,909,435,4.22705,27.9655
-308,589,4.46698,-29.037,0,0,0,0,0,0,0,-1,916,435,4.46696,29.037
-301,589,4.94867,-33.7458,0,0,0,0,0,0,0,-1,923,435,4.94869,33.7458
-294,589,4.1037,-31.2976,0,0,0,0,0,0,0,-1,930,435,4.10371,31.2976
-287,589,5.87372,-43.7746,0,0,0,0,0,0,0,-1,937,435,5.8737,43.7746
-280,589,5.70483,-44.5728,0,0,0,0,0,0,0,-1,944,435,5.70483,44.5728
-273,589,5.6297,-45.6333,-0.00180851,0.0223331,-0.0112522,0.0267643,-0.00623972,-1.19564,0.0202459,0.032275,951,435,5.62967,45.6333
-266,589,5.55469,-46.6658,-0.00164464,0.020432,-0.0103457,0.0245223,-0.00573501,-1.19429,0.0185577,0.0283456,958,435,5.55467,46.6658
-259,589,5.47754,-47.6873,-0.00148407,0.0184043,-0.0093831,0.0221323,-0.00521209,-1.19261,0.0167645,0.0217444,965,435,5.47752,47.6874
-252,589,5.4303,-48.6996,-0.00120472,0.0166031,-0.00844334,0.0199699,-0.00457149,-1.19137,0.01507,0.0116793,972,435,5.43027,48.6996
-245,589,5.37946,-49.6051,-0.00087468,0.0148662,-0.00747772,0.0178521,-0.00386058,-1.19089,0.0133753,0.0116068,979,435,5.37948,49.6051
-238,589,5.28467,-50.485,-0.000604459,0.0129796,-0.00651638,0.0156001,-0.00322491,-1.18845,0.0116251,0.0156968,986,435,5.28468,50.485
-231,589,5.22546,-51.3454,-0.000305267,0.0109742,-0.00556248,0.0132558,-0.00258688,-1.18155,0.00981382,0.0151424,993,435,5.22546,51.3454
-224,589,5.1709,-52.1997,6.97458e-05,0.00886237,-0.00465825,0.0108713,-0.00193916,-1.16364,0.00797291,0.0151402,1000,435,5.17091,52.1997
-217,589,5.09406,-53.0748,0.000385465,0.00666039,-0.00375581,0.00841678,-0.00137093,-1.13337,0.00611957,0.0167429,1007,435,5.09403,53.0748
-210,589,5.05084,-53.9207,0.000688131,0.00447916,-0.00291607,0.00606164,-0.000894351,-1.07359,0.00436983,0.0169626,1014,435,5.05083,53.9207
-203,589,5.02136,-54.7286,0.00105685,0.00245257,-0.00215052,0.00401563,-0.000506208,-0.942292,0.00286079,0.0132254,1021,435,5.02131,54.7286
-196,589,4.98743,-55.5532,0.00144575,0.000666347,-0.00151193,0.00261739,-0.000505292,-0.659267,0.00193547,0.0152479,1028,435,4.98738,55.5532
-189,589,4.93005,-56.418,0.00181024,-0.0010062,-0.000950803,0.00210117,-0.00129713,-0.296937,0.00198023,0.0190775,1035,435,4.9301,56.418
-182,589,4.91809,-57.1582,0.00223439,-0.00239318,-0.000442222,0.00227627,-0.00243507,-0.0944237,0.00272061,0.0142043,1042,435,4.91807,57.1582
-175,589,4.88843,-57.94,0.00264677,-0.00350922,1.2872e-05,0.0026468,-0.00350925,0.00209096,0.0035658,0.0174641,1049,435,4.88846,57.94
-168,589,4.86731,-58.7704,0.00307434,-0.00416615,0.000332009,0.00308953,-0.00418134,0.0457266,0.00421359,0.0144831,1056,435,4.86735,58.7704
-161,589,4.82935,-59.5159,0.00359504,-0.00448781,0.000549726,0.00363226,-0.00452503,0.0675965,0.00471901,0.0129594,1063,435,4.82936,59.5159
-154,589,4.79041,-60.2363,0.0041722,-0.00449312,0.000730649,0.00423337,-0.0045543,0.0835329,0.00507469,0.0132728,1070,435,4.79044,60.2363
-147,589,4.82141,-60.9667,0.00484543,-0.00422161,0.000829191,0.00492064,-0.00429682,0.0904512,0.00532576,0.014489,1077,435,4.82143,60.9667
-140,589,4.8363,-61.6663,0.00552126,-0.00397735,0.00101638,0.0056288,-0.00408489,0.105413,0.00563176,0.0170521,1084,435,4.83635,61.6663
-133,589,4.81311,-62.3853,0.00613446,-0.00353525,0.00114257,0.00626764,-0.00366842,0.116031,0.00580164,0.0166283,1091,435,4.81308,62.3853
-126,589,4.83618,-63.0723,0.00684784,-0.00280938,0.00113425,0.00697927,-0.00294081,0.115359,0.00588343,0.0136801,1098,435,4.83618,63.0723
-119,589,4.74377,-63.7621,0.00785212,-0.00226006,0.00110105,0.00797061,-0.00237856,0.10721,0.0062591,0.038754,1105,435,4.74379,63.7621
-112,589,4.6554,-64.4859,0,0,0,0,0,0,0,-1,1112,435,4.65534,64.4859
-105,589,4.89844,-65.0913,0,0,0,0,0,0,0,-1,1119,435,4.89838,65.0913
-98,589,4.89429,-66.075,0,0,0,0,0,0,0,-1,1126,435,4.89434,66.0751
-91,589,3.39563,-37.8231,0,0,0,0,0,0,0,-1,1133,435,3.39565,37.8231
-84,589,2.76538,-22.6013,0,0,0,0,0,0,0,-1,1140,435,2.76539,22.6014
-77,589,2.18152,-14.8023,0,0,0,0,0,0,0,-1,1147,435,2.18155,14.8023
-70,589,1.48267,-9.90961,0,0,0,0,0,0,0,-1,1154,435,1.48264,9.9096
-63,589,0.880127,-5.50586,0,0,0,0,0,0,0,-1,1161,435,0.880186,5.50587
-56,589,-2.78052,-7.28082,0,0,0,0,0,0,0,-1,1168,435,-2.78053,7.28082
-49,589,-0.525757,-2.76703,0,0,0,0,0,0,0,-1,1175,435,-0.525771,2.76702
-42,589,-2.7738,-2.87921,0,0,0,0,0,0,0,-1,1182,435,-2.77383,2.87922
-35,589,-2.55225,-3.27551,0,0,0,0,0,0,0,-1,1189,435,-2.55223,3.27552
-28,589,-0.0632324,-3.42938,0,0,0,0,0,0,0,-1,1196,435,-0.063241,3.42938
-21,589,5.95618,-82.6556,0,0,0,0,0,0,0,-1,1203,435,5.95622,82.6556
-14,589,5.38928,-70.2722,0,0,0,0,0,0,0,-1,1210,435,5.38932,70.2722
-7,589,6.63806,-81.6895,0,0,0,0,0,0,0,-1,1217,435,6.63812,81.6895
0,589,5.31519,-81.7922,0,0,0,0,0,0,0,-1,1224,435,5.31517,81.7922
7,589,4.09094,-81.9316,0,0,0,0,0,0,0,-1,1231,435,4.09089,81.9316
14,589,3.02673,-81.9575,0,0,0,0,0,0,0,-1,1238,435,3.02672,81.9575
21,589,6.58472,-77.7872,0,0,0,0,0,0,0,-1,1245,435,6.58472,77.7872
28,589,6.17993,-70.8548,0,0,0,0,0,0,0,-1,1252,435,6.17993,70.8548
35,589,7.58374,-71.0872,0,0,0,0,0,0,0,-1,1259,435,7.5837,71.0873
42,589,9.3916,-71.8615,0,0,0,0,0,0,0,-1,1266,435,9.39164,71.8615
49,589,8.84363,-71.8401,0.0511113,0.000731308,0.0178564,0.0567983,-0.00495568,0.308327,0.0396209,0.0457684,1273,435,8.84363,71.8401
56,589,8.36462,-71.6682,0.038199,0.00326744,0.0211573,0.0481683,-0.00670188,0.440343,0.0345634,0.0461494,1280,435,8.36457,71.6682
63,589,7.72839,-71.6264,0,0,0,0,0,0,0,-1,1287,435,7.7284,71.6264
70,589,7.88196,-72.1645,0.0181085,0.0103464,0.0308087,0.0452796,-0.0168247,0.722742,0.0370893,0.0484017,1294,435,7.88197,72.1645
77,589,7.65088,-71.9522,0.0147294,0.0130076,0.0386902,0.0525683,-0.0248313,0.774274,0.0456331,0.0449538,1301,435,7.65083,71.9522
84,589,7.5835,-71.6834,0.0145424,0.0143886,0.0470759,0.0615415,-0.0326104,0.784582,0.0552075,0.0409652,1308,435,7.58351,71.6834
91,589,7.46826,-71.4246,0.0197579,0.0147561,0.0556911,0.0730042,-0.0384901,0.76296,0.0653913,0.0433769,1315,435,7.46821,71.4245
98,589,6.55408,-70.9659,0.0272557,0.014138,0.0640207,0.0850527,-0.0436589,0.734352,0.0755818,0.0457752,1322,435,6.5541,70.9659
105,589,7.12463,-70.1808,0,0,0,0,0,0,0,-1,1329,435,7.12458,70.1809
112,589,7.7157,-69.3957,0,0,0,0,0,0,0,-1,1336,435,7.71569,69.3957
119,589,-8.23901,-82.183,0,0,0,0,0,0,0,-1,1343,435,-8.23899,82.183
126,589,-10.4412,-83.1826,0,0,0,0,0,0,0,-1,1350,435,-10.4412,83.1826
133,589,-4.98535,-78.3274,0,0,0,0,0,0,0,-1,1357,435,-4.9853,78.3274
140,589,12.1138,-66.2322,0,0,0,0,0,0,0,-1,1364,435,12.1138,66.2322
147,589,-7.98096,-81.8212,0,0,0,0,0,0,0,-1,1371,435,-7.98102,81.8212
154,589,4.68567,-73.8365,0,0,0,0,0,0,0,-1,1378,435,4.68563,73.8365
161,589,-5.66907,-75.1069,0,0,0,0,0,0,0,-1,1385,435,-5.66909,75.1069
168,589,20.0441,-47.9614,0,0,0,0,0,0,0,-1,1392,435,20.044,47.9613
175,589,8.66992,-7.65527,0,0,0,0,0,0,0,-1,1399,435,8.66994,7.65528
182,589,3.8136,-2.45389,0,0,0,0,0,0,0,-1,1406,435,3.81363,2.4539
189,589,3.69983,-3.68149,0,0,0,0,0,0,0,-1,1413,435,3.69987,3.68147
196,589,3.31055,-5.31677,0,0,0,0,0,0,0,-1,1420,435,3.31059,5.31678
203,589,2.72559,-8.84338,0,0,0,0,0,0,0,-1,1427,435,2.72558,8.84338
210,589,3.62378,-14.4032,0,0,0,0,0,0,0,-1,1434,435,3.62378,14.4032
217,589,4.65601,-22.3745,0,0,0,0,0,0,0,-1,1441,435,4.65607,22.3745
224,589,6.79028,-33.9412,0,0,0,0,0,0,0,-1,1448,435,6.79028,33.9412
231,589,12.3896,-65.145,0,0,0,0,0,0,0,-1,1455,435,12.3896,65.145
238,589,12.3099,-64.3795,0,0,0,0,0,0,0,-1,1462,435,12.3099,64.3796
245,589,12.5256,-63.6323,0,0,0,0,0,0,0,-1,1469,435,12.5256,63.6322
252,589,12.406,-62.9927,0.00522573,-0.00541882,-0.00219688,0.00566131,-0.0058544,-0.195734,0.00664891,0.0431304,1476,435,12.406,62.9927
259,589,12.4001,-62.3649,0.00453607,-0.00575843,-0.00215779,0.00497006,-0.00619242,-0.198479,0.00645753,0.015614,1483,435,12.4001,62.3649
266,589,12.3901,-61.6099,0.00401914,-0.00567809,-0.00198459,0.00440958,-0.00606853,-0.194253,0.00607476,0.0104401,1490,435,12.3902,61.6099
273,589,12.3984,-60.8972,0.00355324,-0.00524645,-0.00171414,0.00387536,-0.00556856,-0.18575,0.00548158,0.012238,1497,435,12.3984,60.8972
280,589,12.3799,-60.1653,0.00309763,-0.00474913,-0.00137967,0.00333314,-0.00498465,-0.169074,0.00483373,0.0130348,1504,435,12.3799,60.1654
287,589,12.3613,-59.4146,0.00274908,-0.00403334,-0.00102128,0.00289953,-0.00418378,-0.146258,0.00411189,0.0120368,1511,435,12.3613,59.4146
294,589,12.3488,-58.6141,0.00241681,-0.00301452,-0.000613224,0.00248519,-0.0030829,-0.111042,0.0032209,0.0109727,1518,435,12.3488,58.6141
301,589,12.338,-57.8214,0.0020974,-0.00183351,-0.000131836,0.00210182,-0.00183792,-0.0334882,0.00227631,0.0118224,1525,435,12.338,57.8214
308,589,12.3083,-57.0105,0.00182911,-0.000482841,0.000423062,0.0019041,-0.000557825,0.175419,0.00149055,0.0121326,1532,435,12.3084,57.0105
315,589,12.2667,-56.2083,0.00164123,0.00103884,0.00106996,0.00245158,0.000228487,0.648198,0.0015638,0.0112447,1539,435,12.2667,56.2083
322,589,12.2389,-55.4352,0.00142876,0.00249693,0.00174554,0.00378826,0.000137427,0.93386,0.00248097,0.0113709,1546,435,12.2389,55.4352
329,589,12.1921,-54.6083,0.00132216,0.00398421,0.00256807,0.0055457,-0.000239325,1.02449,0.00377943,0.0106901,1553,435,12.1922,54.6083
336,589,12.1401,-53.7686,0.00132143,0.00557945,0.00343237,0.00748948,-0.000588605,1.06299,0.00520031,0.0107476,1560,435,12.1401,53.7686
343,589,12.0935,-52.9307,0.00129608,0.00717019,0.00435376,0.00948495,-0.00101868,1.08214,0.00668877,0.0113534,1567,435,12.0935,52.9307
350,589,12.0265,-52.0547,0.00133827,0.00882722,0.00533641,0.0116018,-0.00143634,1.09133,0.00825508,0.0163571,1574,435,12.0265,52.0546
357,589,11.9709,-51.1456,0.0014083,0.0104004,0.00638531,0.0137138,-0.00190503,1.09214,0.00983919,0.0148131,1581,435,11.9709,51.1456
364,589,11.9233,-50.2704,0.00145779,0.011801,0.00734129,0.0156094,-0.00235059,1.09225,0.0112718,0.0118834,1588,435,11.9234,50.2703
371,589,11.8489,-49.3858,0.00151318,0.0133357,0.00828356,0.0176009,-0.00275202,1.0953,0.0127507,0.0116566,1595,435,11.8489,49.3858
378,589,11.7692,-48.4846,0.00143903,0.0147839,0.00909959,0.0193952,-0.00317233,1.10175,0.014107,0.0129231,1602,435,11.7691,48.4846
385,589,11.6948,-47.55,0.00118266,0.0158265,0.00952312,0.0205171,-0.00350793,1.11313,0.0149849,0.0220492,1609,435,11.6949,47.55
392,589,11.6218,-46.4675,0.00091846,0.0165125,0.00982016,0.0212546,-0.00382362,1.12093,0.0156012,0.0304992,1616,435,11.6218,46.4675
399,589,11.5844,-45.3468,0.000632359,0.0172492,0.0100853,0.0220077,-0.0041261,1.12995,0.016223,0.039387,1623,435,11.5844,45.3468
406,589,11.5238,-44.5298,0,0,0,0,0,0,0,-1,1630,435,11.5238,44.5298
413,589,5.61377,-19.0606,0,0,0,0,0,0,0,-1,1637,435,5.61372,19.0606
420,589,2.79724,-5.79956,0,0,0,0,0,0,0,-1,1644,435,2.7973,5.79955
427,589,10.4274,-41.8113,0,0,0,0,0,0,0,-1,1651,435,10.4274,41.8113
434,589,9.14709,-34.4435,0,0,0,0,0,0,0,-1,1658,435,9.1471,34.4435
441,589,7.85901,-29.8665,0,0,0,0,0,0,0,-1,1665,435,7.85898,29.8666
448,589,0.453735,-3.2868,0,0,0,0,0,0,0,-1,1672,435,0.453701,3.28681
455,589,0.664307,-3.46848,0,0,0,0,0,0,0,-1,1679,435,0.66425,3.46846
462,589,3.46716,-4.41891,0,0,0,0,0,0,0,-1,1686,435,3.4672,4.41891
469,589,0.0238037,-3.81497,0,0,0,0,0,0,0,-1,1693,435,0.0237965,3.81498
476,589,0,0,0,0,0,0,0,0,0,-1,1700,435,0,0
483,589,0,0,0,0,0,0,0,0,0,-1,1707,435,0,0
490,589,0,0,0,0,0,0,0,0,0,-1,1714,435,0,0
497,589,0,0,0,0,0,0,0,0,0,-1,1721,435,0,0
504,589,0,0,0,0,0,0,0,0,0,-1,1728,435,0,0
511,589,0,0,0,0,0,0,0,0,0,-1,1735,435,0,0
518,589,0,0,0,0,0,0,0,0,0,-1,1742,435,0,0
525,589,0,0,0,0,0,0,0,0,0,-1,1749,435,0,0
532,589,0,0,0,0,0,0,0,0,0,-1,1756,435,0,0
539,589,0,0,0,0,0,0,0,0,0,-1,1763,435,0,0
546,589,0,0,0,0,0,0,0,0,0,-1,1770,435,0,0
553,589,0,0,0,0,0,0,0,0,0,-1,1777,435,0,0
560,589,0,0,0,0,0,0,0,0,0,-1,1784,435,0,0
567,589,0,0,0,0,0,0,0,0,0,-1,1791,435,0,0
574,589,0,0,0,0,0,0,0,0,0,-1,1798,435,0,0
581,589,0,0,0,0,0,0,0,0,0,-1,1805,435,0,0
588,589,0,0,0,0,0,0,0,0,0,-1,1812,435,0,0
595,589,0,0,0,0,0,0,0,0,0,-1,1819,435,0,0
602,589,0,0,0,0,0,0,0,0,0,-1,1826,435,0,0
609,589,0,0,0,0,0,0,0,0,0,-1,1833,435,0,0
616,589,0,0,0,0,0,0,0,0,0,-1,1840,435,0,0
623,589,0,0,0,0,0,0,0,0,0,-1,1847,435,0,0
630,589,0,0,0,0,0,0,0,0,0,-1,1854,435,0,0
637,589,0,0,0,0,0,0,0,0,0,-1,1861,435,0,0
644,589,0,0,0,0,0,0,0,0,0,-1,1868,435,0,0
651,589,0,0,0,0,0,0,0,0,0,-1,1875,435,0,0
658,589,0,0,0,0,0,0,0,0,0,-1,1882,435,0,0
665,589,0,0,0,0,0,0,0,0,0,-1,1889,435,0,0
672,589,0,0,0,0,0,0,0,0,0,-1,1896,435,0,0
679,589,0,0,0,0,0,0,0,0,0,-1,1903,435,0,0
686,589,0,0,0,0,0,0,0,0,0,-1,1910,435,0,0
693,589,0,0,0,0,0,0,0,0,0,-1,1917,435,0,0
700,589,0,0,0,0,0,0,0,0,0,-1,1924,435,0,0
707,589,0,0,0,0,0,0,0,0,0,-1,1931,435,0,0
714,589,0,0,0,0,0,0,0,0,0,-1,1938,435,0,0
721,589,0,0,0,0,0,0,0,0,0,-1,1945,435,0,0
728,589,0,0,0,0,0,0,0,0,0,-1,1952,435,0,0
735,589,0,0,0,0,0,0,0,0,0,-1,1959,435,0,0
742,589,0,0,0,0,0,0,0,0,0,-1,1966,435,0,0
749,589,0,0,0,0,0,0,0,0,0,-1,1973,435,0,0
756,589,0,0,0,0,0,0,0,0,0,-1,1980,435,0,0
763,589,0,0,0,0,0,0,0,0,0,-1,1987,435,0,0
770,589,0,0,0,0,0,0,0,0,0,-1,1994,435,0,0
777,589,0,0,0,0,0,0,0,0,0,-1,2001,435,0,0
784,589,0,0,0,0,0,0,0,0,0,-1,2008,435,0,0
791,589,0,0,0,0,0,0,0,0,0,-1,2015,435,0,0
798,589,0,0,0,0,0,0,0,0,0,-1,2022,435,0,0
805,589,0,0,0,0,0,0,0,0,0,-1,2029,435,0,0
812,589,0,0,0,0,0,0,0,0,0,-1,2036,435,0,0
-700,582,0,0,0,0,0,0,0,0,0,-1,524,442,0,0
-693,582,0,0,0,0,0,0,0,0,0,-1,531,442,0,0
-686,582,0,0,0,0,0,0,0,0,0,-1,538,442,0,0
-679,582,0,0,0,0,0,0,0,0,0,-1,545,442,0,0
-672,582,0,0,0,0,0,0,0,0,0,-1,552,442,0,0
-665,582,0,0,0,0,0,0,0,0,0,-1,559,442,0,0
-658,582,0,0,0,0,0,0,0,0,0,-1,566,442,0,0
-651,582,0,0,0,0,0,0,0,0,0,-1,573,442,0,0
-644,582,0,0,0,0,0,0,0,0,0,-1,580,442,0,0
-637,582,0,0,0,0,0,0,0,0,0,-1,587,442,0,0
-630,582,0,0,0,0,0,0,0,0,0,-1,594,442,0,0
-623,582,0,0,0,0,0,0,0,0,0,-1,601,442,0,0
-616,582,0,0,0,0,0,0,0,0,0,-1,608,442,0,0
-609,582,0,0,0,0,0,0,0,0,0,-1,615,442,0,0
-602,582,0,0,0,0,0,0,0,0,0,-1,622,442,0,0
-595,582,0,0,0,0,0,0,0,0,0,-1,629,442,0,0
-588,582,0,0,0,0,0,0,0,0,0,-1,636,442,0,0
-581,582,0,0,0,0,0,0,0,0,0,-1,643,442,0,0
-574,582,0,0,0,0,0,0,0,0,0,-1,650,442,0,0
-567,582,0,0,0,0,0,0,0,0,0,-1,657,442,0,0
-560,582,0,0,0,0,0,0,0,0,0,-1,664,442,0,0
-553,582,0,0,0,0,0,0,0,0,0,-1,671,442,0,0
-546,582,0,0,0,0,0,0,0,0,0,-1,678,442,0,0
-539,582,0,0,0,0,0,0,0,0,0,-1,685,442,0,0
-532,582,0,0,0,0,0,0,0,0,0,-1,692,442,0,0
-525,582,0,0,0,0,0,0,0,0,0,-1,699,442,0,0
-518,582,0,0,0,0,0,0,0,0,0,-1,706,442,0,0
-511,582,0,0,0,0,0,0,0,0,0,-1,713,442,0,0
-504,582,0,0,0,0,0,0,0,0,0,-1,720,442,0,0
-497,582,0,0,0,0,0,0,0,0,0,-1,727,442,0,0
-490,582,0,0,0,0,0,0,0,0,0,-1,734,442,0,0
-483,582,0,0,0,0,0,0,0,0,0,-1,741,442,0,0
-476,582,0,0,0,0,0,0,0,0,0,-1,748,442,0,0
-469,582,0,0,0,0,0,0,0,0,0,-1,755,442,0,0
-462,582,0,0,0,0,0,0,0,0,0,-1,762,442,0,0
-455,582,0,0,0,0,0,0,0,0,0,-1,769,442,0,0
-448,582,0,0,0,0,0,0,0,0,0,-1,776,442,0,0
-441,582,0,0,0,0,0,0,0,0,0,-1,783,442,0,0
-434,582,0,0,0,0,0,0,0,0,0,-1,790,442,0,0
-427,582,0,0,0,0,0,0,0,0,0,-1,797,442,0,0
-420,582,0,0,0,0,0,0,0,0,0,-1,804,442,0,0
-413,582,0,0,0,0,0,0,0,0,0,-1,811,442,0,0
-406,582,0,0,0,0,0,0,0,0,0,-1,818,442,0,0
-399,582,0,0,0,0,0,0,0,0,0,-1,825,442,0,0
-392,582,0,0,0,0,0,0,0,0,0,-1,832,442,0,0
-385,582,0,0,0,0,0,0,0,0,0,-1,839,442,0,0
-378,582,0,0,0,0,0,0,0,0,0,-1,846,442,0,0
-371,582,0,0,0,0,0,0,0,0,0,-1,853,442,0,0
-364,582,0,0,0,0,0,0,0,0,0,-1,860,442,0,0
-357,582,-1.4903,-21.5295,0,0,0,0,0,0,0,-1,867,442,-1.49031,21.5295
-350,582,-0.880859,-19.7966,0,0,0,0,0,0,0,-1,874,442,-0.880885,19.7966
-343,582,0.939941,-19.1705,0,0,0,0,0,0,0,-1,881,442,0.939935,19.1705
-336,582,3.33929,-27.9479,0,0,0,0,0,0,0,-1,888,442,3.33928,27.9479
-329,582,3.63544,-26.4736,0,0,0,0,0,0,0,-1,895,442,3.63546,26.4736
-322,582,3.67145,-27.1796,0,0,0,0,0,0,0,-1,902,442,3.67143,27.1796
-315,582,3.90686,-27.6446,0,0,0,0,0,0,0,-1,909,442,3.90689,27.6446
-308,582,4.07587,-33.1895,0,0,0,0,0,0,0,-1,916,442,4.07588,33.1895
-301,582,5.08209,-41.7703,0,0,0,0,0,0,0,-1,923,442,5.08211,41.7703
-294,582,4.98804,-42.7608,0,0,0,0,0,0,0,-1,930,442,4.98805,42.7608
-287,582,4.91357,-43.7632,-0.00244466,0.0200914,-0.0102031,0.0240244,-0.00637765,-1.20288,0.018512,0.0414887,937,442,4.91358,43.7632
-280,582,4.83014,-44.7257,-0.00201859,0.0186644,-0.00943638,0.0223226,-0.0056768,-1.20096,0.0170912,0.0203172,944,442,4.83011,44.7257
-273,582,4.81952,-45.7923,-0.00156493,0.017235,-0.00875826,0.0206829,-0.00501278,-1.19576,0.0157281,0.0145238,951,442,4.81954,45.7923
-266,582,4.74213,-46.7623,-0.00129916,0.0155148,-0.00797126,0.018693,-0.00447745,-1.1914,0.0141919,0.0119252,958,442,4.74216,46.7623
-259,582,4.66046,-47.7162,-0.00102582,0.0135718,-0.00713488,0.0164798,-0.00393382,-1.18378,0.0125058,0.00914821,965,442,4.66047,47.7162
-252,582,4.57727,-48.6618,-0.000692018,0.0117831,-0.00626644,0.0143872,-0.00329614,-1.17694,0.0108583,0.00848908,972,442,4.57725,48.6618
-245,582,4.51971,-49.5403,-0.000320683,0.0100407,-0.00538213,0.0123304,-0.00261038,-1.16856,0.00921451,0.0123442,979,442,4.51971,49.5403
-238,582,4.44446,-50.3904,2.35804e-05,0.00810324,-0.00447676,0.0100935,-0.00196665,-1.15247,0.00747131,0.0170417,986,442,4.44446,50.3904
-231,582,4.37744,-51.2733,0.00038242,0.00598682,-0.0035552,0.0077114,-0.00134216,-1.11915,0.00564179,0.0134207,993,442,4.37742,51.2734
-224,582,4.32996,-52.1675,0.000775384,0.0038032,-0.0026579,0.0053481,-0.000769523,-1.04428,0.00384765,0.01076,1000,442,4.32994,52.1675
-217,582,4.2746,-53.0239,0.00112936,0.00154117,-0.00177638,0.00312354,-0.00045301,-0.843097,0.00224863,0.0134327,1007,442,4.27462,53.0239
-210,582,4.23682,-53.844,0.00148854,-0.00068658,-0.000959007,0.00185097,-0.00104901,-0.361333,0.00169551,0.0140926,1014,442,4.23683,53.844
-203,582,4.22266,-54.6743,0.00194925,-0.00266007,-0.000240955,0.00196181,-0.00267263,-0.0520865,0.00268617,0.0111946,1021,442,4.22264,54.6744
-196,582,4.16931,-55.5307,0.00246271,-0.00429648,0.000312199,0.0024771,-0.00431087,0.0460582,0.00396642,0.0176096,1028,442,4.16931,55.5307
-189,582,4.1228,-56.3651,0.00290872,-0.00581239,0.000822042,0.00298553,-0.0058892,0.0931654,0.00521444,0.0246292,1035,442,4.12286,56.3651
-182,582,4.14612,-57.1564,0.00343984,-0.006979,0.00123128,0.00358337,-0.00712254,0.116049,0.00629263,0.0172643,1042,442,4.14611,57.1564
-175,582,4.10144,-57.9013,0.00401685,-0.00767931,0.00155324,0.0042196,-0.00788206,0.129803,0.00709275,0.0148294,1049,442,4.10149,57.9013
-168,582,4.06921,-58.7044,0.00461535,-0.00791583,0.00170627,0.00484353,-0.008144,0.132938,0.00757863,0.012046,1056,442,4.06925,58.7044
-161,582,4.04663,-59.4582,0.00525924,-0.00786676,0.00175332,0.00548941,-0.00809693,0.130528,0.00789208,0.0137334,1063,442,4.04659,59.4582
-154,582,4.03125,-60.1831,0.00596079,-0.00741002,0.00176952,0.00619101,-0.00764024,0.129375,0.00800007,0.0133137,1070,442,4.03119,60.1831
-147,582,4.05811,-60.9166,0.0067755,-0.00664895,0.00167329,0.00698092,-0.00685438,0.122155,0.00798792,0.0133814,1077,442,4.05807,60.9166
-140,582,4.05481,-61.617,0.0075406,-0.00597751,0.00175751,0.00776536,-0.00620227,0.127195,0.00808103,0.0144909,1084,442,4.05481,61.617
-133,582,4.11987,-62.2728,0.00818859,-0.00508385,0.00179239,0.00842638,-0.00532165,0.131899,0.00800461,0.0200304,1091,442,4.11993,62.2728
-126,582,4.16455,-62.9941,0,0,0,0,0,0,0,-1,1098,442,4.16449,62.9941
-119,582,4.09814,-63.7235,0,0,0,0,0,0,0,-1,1105,442,4.0981,63.7235
-112,582,3.47888,-53.7394,0,0,0,0,0,0,0,-1,1112,442,3.47883,53.7394
-105,582,2.87219,-43.073,0,0,0,0,0,0,0,-1,1119,442,2.87217,43.073
-98,582,2.61938,-32.8673,0,0,0,0,0,0,0,-1,1126,442,2.61944,32.8673
-91,582,2.16492,-24.1119,0,0,0,0,0,0,0,-1,1133,442,2.16496,24.1119
-84,582,2.10278,-16.7533,0,0,0,0,0,0,0,-1,1140,442,2.10279,16.7533
-77,582,2.30212,-11.4907,0,0,0,0,0,0,0,-1,1147,442,2.30207,11.4907
-70,582,1.49255,-6.36548,0,0,0,0,0,0,0,-1,1154,442,1.49251,6.36549
-63,582,-4.62915,-4.0347,0,0,0,0,0,0,0,-1,1161,442,-4.6292,4.03471
-56,582,-5.81714,-5.24149,0,0,0,0,0,0,0,-1,1168,442,-5.81718,5.24149
-49,582,-3.88672,-10.1064,0,0,0,0,0,0,0,-1,1175,442,-3.88678,10.1064
-42,582,-0.948975,1.13968,0,0,0,0,0,0,0,-1,1182,442,-0.949003,-1.13969
-35,582,-2.58435,-3.86911,0,0,0,0,0,0,0,-1,1189,442,-2.58437,3.86912
-28,582,-0.825317,-3.45941,0,0,0,0,0,0,0,-1,1196,442,-0.825377,3.45942
-21,582,7.69849,-80.8943,0,0,0,0,0,0,0,-1,1203,442,7.69846,80.8943
-14,582,7.38611,-80.7114,0,0,0,0,0,0,0,-1,1210,442,7.38615,80.7114
-7,582,7.1698,-80.6975,0,0,0,0,0,0,0,-1,1217,442,7.16986,80.6975
0,582,6.67053,-80.3596,0,0,0,0,0,0,0,-1,1224,442,6.67053,80.3595
7,582,5.81982,-79.9426,0,0,0,0,0,0,0,-1,1231,442,5.81978,79.9426
14,582,8.71277,-77.123,0,0,0,0,0,0,0,-1,1238,442,8.71271,77.123
21,582,7.70313,-76.6219,0,0,0,0,0,0,0,-1,1245,442,7.70318,76.6219
28,582,5.15088,-71.007,0,0,0,0,0,0,0,-1,1252,442,5.15091,71.007
35,582,6.51672,-71.2028,0.102658,0.000518556,0.0205914,0.106653,-0.00347644,0.191632,0.0722886,0.0461709,1259,442,6.51671,71.2028
42,582,7.6145,-71.1387,0.0832001,0.0013648,0.0192878,0.0875182,-0.0029533,0.220245,0.0593544,0.0444503,1266,442,7.61453,71.1387
49,582,8.9375,-71.526,0,0,0,0,0,0,0,-1,1273,442,8.93745,71.526
56,582,8.53748,-71.2786,0,0,0,0,0,0,0,-1,1280,442,8.53743,71.2786
63,582,8.21045,-72.7928,0,0,0,0,0,0,0,-1,1287,442,8.21046,72.7928
70,582,7.79443,-72.472,0.0225064,0.0132112,0.0357672,0.0539267,-0.0182091,0.72079,0.043316,0.0457761,1294,442,7.79448,72.472
77,582,7.41541,-72.3704,0.0184339,0.0158013,0.0455592,0.0626958,-0.0284606,0.770957,0.0538522,0.0458216,1301,442,7.41546,72.3704
84,582,7.65503,-72.5176,0.0186335,0.0170984,0.0562499,0.0741211,-0.0383893,0.778576,0.0660408,0.0423873,1308,442,7.65502,72.5176
91,582,4.33582,-71.7795,0.0258437,0.0175432,0.0674444,0.0892654,-0.0458785,0.754669,0.0793544,0.0444647,1315,442,4.33584,71.7795
98,582,5.04675,-71.0544,0.0360268,0.0167086,0.0784906,0.10545,-0.052715,0.724176,0.0929933,0.0433126,1322,442,5.04676,71.0544
105,582,5.6106,-70.3141,0,0,0,0,0,0,0,-1,1329,442,5.61057,70.3141
112,582,6.20776,-69.5112,0,0,0,0,0,0,0,-1,1336,442,6.20774,69.5112
119,582,7.14722,-68.4763,0,0,0,0,0,0,0,-1,1343,442,7.14725,68.4763
126,582,8.59387,-67.0993,0,0,0,0,0,0,0,-1,1350,442,8.59382,67.0993
133,582,9.85449,-66.3329,0,0,0,0,0,0,0,-1,1357,442,9.85446,66.3329
140,582,11.1376,-65.7326,0,0,0,0,0,0,0,-1,1364,442,11.1376,65.7326
147,582,12.7788,-65.0764,0,0,0,0,0,0,0,-1,1371,442,12.7788,65.0764
154,582,12.7017,-64.1859,0,0,0,0,0,0,0,-1,1378,442,12.7017,64.1859
161,582,3.44678,-73.7075,0,0,0,0,0,0,0,-1,1385,442,3.44676,73.7075
168,582,0.081665,-40.4535,0,0,0,0,0,0,0,-1,1392,442,0.0816215,40.4535
175,582,6.50549,-2.00424,0,0,0,0,0,0,0,-1,1399,442,6.50546,2.00425
182,582,5.18958,-2.18652,0,0,0,0,0,0,0,-1,1406,442,5.1896,2.18652
189,582,6.19751,-0.880951,0,0,0,0,0,0,0,-1,1413,442,6.19754,0.88096
196,582,4.87354,-2.22327,0,0,0,0,0,0,0,-1,1420,442,4.87348,2.22325
203,582,3.11401,-4.48257,0,0,0,0,0,0,0,-1,1427,442,3.11404,4.48259
210,582,2.93115,-11.0731,0,0,0,0,0,0,0,-1,1434,442,2.93113,11.0731
217,582,4.94092,-16.5476,0,0,0,0,0,0,0,-1,1441,442,4.94087,16.5476
224,582,5.21008,-20.9908,0,0,0,0,0,0,0,-1,1448,442,5.21006,20.9908
231,582,5.70032,-25.622,0,0,0,0,0,0,0,-1,1455,442,5.70026,25.6221
238,582,6.44189,-30.7028,0,0,0,0,0,0,0,-1,1462,442,6.44195,30.7028
245,582,10.0378,-45.1569,0,0,0,0,0,0,0,-1,1469,442,10.0379,45.1568
252,582,13.1688,-63.1928,0,0,0,0,0,0,0,-1,1476,442,13.1688,63.1928
259,582,13.0216,-62.5825,0,0,0,0,0,0,0,-1,1483,442,13.0216,62.5825
266,582,13.0929,-61.6833,0.0052993,-0.00937626,-0.00315319,0.00594811,-0.0100251,-0.202931,0.00932171,0.0267122,1490,442,13.0929,61.6833
273,582,13.1582,-60.8509,0.00464628,-0.00918898,-0.00307367,0.0052984,-0.00984109,-0.209062,0.00887098,0.0139092,1497,442,13.1582,60.8509
280,582,13.1477,-60.1413,0.00399037,-0.0089433,-0.00294228,0.00462825,-0.00958118,-0.213494,0.0083683,0.0126723,1504,442,13.1477,60.1413
287,582,13.1437,-59.375,0.00347331,-0.00838508,-0.0027689,0.00408798,-0.00899975,-0.218448,0.00773155,0.0119411,1511,442,13.1437,59.375
294,582,13.1375,-58.5707,0.00303267,-0.00735767,-0.00246993,0.00358992,-0.00791492,-0.221899,0.00679698,0.00949595,1518,442,13.1375,58.5707
301,582,13.1261,-57.7629,0.00263235,-0.00603996,-0.00205455,0.00309446,-0.00650208,-0.221242,0.0056558,0.0103986,1525,442,13.126,57.763
308,582,13.1091,-56.9542,0.00225427,-0.00460776,-0.0015703,0.00259654,-0.00495003,-0.21461,0.00442708,0.0136745,1532,442,13.1091,56.9542
315,582,13.0811,-56.1648,0.00195654,-0.00301075,-0.000971139,0.00213965,-0.00319387,-0.186368,0.0030993,0.013873,1539,442,13.0811,56.1648
322,582,13.0471,-55.3633,0.00165976,-0.00143955,-0.000311156,0.00169069,-0.00147048,-0.0990779,0.00182658,0.0104094,1546,442,13.0471,55.3634
329,582,13.0157,-54.5474,0.00147284,0.000169375,0.000493415,0.00163855,3.66423e-06,0.324009,0.00109115,0.0110988,1553,442,13.0157,54.5474
336,582,12.9885,-53.7204,0.00137421,0.001825,0.00133049,0.00294905,0.000250157,0.869306,0.00188818,0.0118316,1560,442,12.9885,53.7204
343,582,12.9353,-52.8586,0.00126328,0.00352034,0.00225028,0.00490922,-0.00012559,1.01782,0.00331547,0.0132764,1567,442,12.9353,52.8586
350,582,12.8721,-51.9853,0.00123901,0.00525128,0.003211,0.00703132,-0.000541028,1.06461,0.0048779,0.016134,1574,442,12.8721,51.9853
357,582,12.8273,-51.0911,0.00123347,0.00678186,0.00417799,0.00902282,-0.00100749,1.07848,0.00637762,0.014574,1581,442,12.8273,51.0911
364,582,12.7706,-50.2289,0.00121652,0.00806756,0.00509083,0.0107781,-0.00149398,1.08154,0.00773163,0.0113765,1588,442,12.7706,50.2288
371,582,12.7128,-49.3531,0.00120775,0.00937761,0.00595949,0.0125178,-0.00193243,1.08584,0.00905831,0.0153625,1595,442,12.7128,49.3531
378,582,12.6381,-48.4641,0.00110339,0.0106179,0.00669365,0.0140726,-0.00235133,1.09434,0.0102558,0.0167542,1602,442,12.638,48.4641
385,582,12.5693,-47.5583,0.000867907,0.0115719,0.00709159,0.0151044,-0.00266461,1.10865,0.0110653,0.0124079,1609,442,12.5693,47.5583
392,582,12.496,-46.6268,0.000638496,0.0121859,0.00738493,0.0157862,-0.00296185,1.11718,0.0116378,0.0110375,1616,442,12.4959,46.6268
399,582,12.4211,-45.7211,0.000387805,0.0127987,0.00763742,0.0164339,-0.00324736,1.12656,0.0121835,0.0192801,1623,442,12.4211,45.7211
406,582,12.3771,-44.6527,-2.08558e-06,0.0133652,0.00770301,0.01688,-0.00351685,1.14273,0.0125904,0.0337912,1630,442,12.3771,44.6527
413,582,12.2426,-43.8028,0,0,0,0,0,0,0,-1,1637,442,12.2425,43.8028
420,582,12.1531,-42.7687,0,0,0,0,0,0,0,-1,1644,442,12.1531,42.7687
427,582,11.9628,-41.7733,0,0,0,0,0,0,0,-1,1651,442,11.9628,41.7733
434,582,11.5229,-40.9302,0,0,0,0,0,0,0,-1,1658,442,11.5229,40.9302
441,582,10.8484,-36.2891,0,0,0,0,0,0,0,-1,1665,442,10.8484,36.2891
448,582,11.2651,-32.8669,0,0,0,0,0,0,0,-1,1672,442,11.2651,32.8668
455,582,6.4585,-19.4734,0,0,0,0,0,0,0,-1,1679,442,6.45854,19.4734
462,582,5.35022,-19.2616,0,0,0,0,0,0,0,-1,1686,442,5.35025,19.2616
469,582,6.28601,-21.5695,0,0,0,0,0,0,0,-1,1693,442,6.28597,21.5695
476,582,1.93579,-8.53891,0,0,0,0,0,0,0,-1,1700,442,1.93579,8.53892
483,582,0,0,0,0,0,0,0,0,0,-1,1707,442,0,0
490,582,0,0,0,0,0,0,0,0,0,-1,1714,442,0,0
497,582,0,0,0,0,0,0,0,0,0,-1,1721,442,0,0
504,582,0,0,0,0,0,0,0,0,0,-1,1728,442,0,0
511,582,0,0,0,0,0,0,0,0,0,-1,1735,442,0,0
518,582,0,0,0,0,0,0,0,0,0,-1,1742,442,0,0
525,582,0,0,0,0,0,0,0,0,0,-1,1749,442,0,0
532,582,0,0,0,0,0,0,0,0,0,-1,1756,442,0,0
539,582,0,0,0,0,0,0,0,0,0,-1,1763,442,0,0
546,582,0,0,0,0,0,0,0,0,0,-1,1770,442,0,0
553,582,0,0,0,0,0,0,0,0,0,-1,1777,442,0,0
560,582,0,0,0,0,0,0,0,0,0,-1,1784,442,0,0
567,582,0,0,0,0,0,0,0,0,0,-1,1791,442,0,0
574,582,0,0,0,0,0,0,0,0,0,-1,1798,442,0,0
581,582,0,0,0,0,0,0,0,0,0,-1,1805,442,0,0
588,582,0,0,0,0,0,0,0,0,0,-1,1812,442,0,0
595,582,0,0,0,0,0,0,0,0,0,-1,1819,442,0,0
602,582,0,0,0,0,0,0,0,0,0,-1,1826,442,0,0
609,582,0,0,0,0,0,0,0,0,0,-1,1833,442,0,0
616,582,0,0,0,0,0,0,0,0,0,-1,1840,442,0,0
623,582,0,0,0,0,0,0,0,0,0,-1,1847,442,0,0
630,582,0,0,0,0,0,0,0,0,0,-1,1854,442,0,0
637,582,0,0,0,0,0,0,0,0,0,-1,1861,442,0,0
644,582,0,0,0,0,0,0,0,0,0,-1,1868,442,0,0
651,582,0,0,0,0,0,0,0,0,0,-1,1875,442,0,0
658,582,0,0,0,0,0,0,0,0,0,-1,1882,442,0,0
665,582,0,0,0,0,0,0,0,0,0,-1,1889,442,0,0
672,582,0,0,0,0,0,0,0,0,0,-1,1896,442,0,0
679,582,0,0,0,0,0,0,0,0,0,-1,1903,442,0,0
686,582,0,0,0,0,0,0,0,0,0,-1,1910,442,0,0
693,582,0,0,0,0,0,0,0,0,0,-1,1917,442,0,0
700,582,0,0,0,0,0,0,0,0,0,-1,1924,442,0,0
707,582,0,0,0,0,0,0,0,0,0,-1,1931,442,0,0
714,582,0,0,0,0,0,0,0,0,0,-1,1938,442,0,0
721,582,0,0,0,0,0,0,0,0,0,-1,1945,442,0,0
728,582,0,0,0,0,0,0,0,0,0,-1,1952,442,0,0
735,582,0,0,0,0,0,0,0,0,0,-1,1959,442,0,0
742,582,0,0,0,0,0,0,0,0,0,-1,1966,442,0,0
749,582,0,0,0,0,0,0,0,0,0,-1,1973,442,0,0
756,582,0,0,0,0,0,0,0,0,0,-1,1980,442,0,0
763,582,0,0,0,0,0,0,0,0,0,-1,1987,442,0,0
770,582,0,0,0,0,0,0,0,0,0,-1,1994,442,0,0
777,582,0,0,0,0,0,0,0,0,0,-1,2001,442,0,0
784,582,0,0,0,0,0,0,0,0,0,-1,2008,442,0,0
791,582,0,0,0,0,0,0,0,0,0,-1,2015,442,0,0
798,582,0,0,0,0,0,0,0,0,0,-1,2022,442,0,0
805,582,0,0,0,0,0,0,0,0,0,-1,2029,442,0,0
812,582,0,0,0,0,0,0,0,0,0,-1,2036,442,0,0
-700,575,0,0,0,0,0,0,0,0,0,-1,524,449,0,0
-693,575,0,0,0,0,0,0,0,0,0,-1,531,449,0,0
-686,575,0,0,0,0,0,0,0,0,0,-1,538,449,0,0
-679,575,0,0,0,0,0,0,0,0,0,-1,545,449,0,0
-672,575,0,0,0,0,0,0,0,0,0,-1,552,449,0,0
-665,575,0,0,0,0,0,0,0,0,0,-1,559,449,0,0
-658,575,0,0,0,0,0,0,0,0,0,-1,566,449,0,0
-651,575,0,0,0,0,0,0,0,0,0,-1,573,449,0,0
-644,575,0,0,0,0,0,0,0,0,0,-1,580,449,0,0
-637,575,0,0,0,0,0,0,0,0,0,-1,587,449,0,0
-630,575,0,0,0,0,0,0,0,0,0,-1,594,449,0,0
-623,575,0,0,0,0,0,0,0,0,0,-1,601,449,0,0
-616,575,0,0,0,0,0,0,0,0,0,-1,608,449,0,0
-609,575,0,0,0,0,0,0,0,0,0,-1,615,449,0,0
-602,575,0,0,0,0,0,0,0,0,0,-1,622,449,0,0
-595,575,0,0,0,0,0,0,0,0,0,-1,629,449,0,0
-588,575,0,0,0,0,0,0,0,0,0,-1,636,449,0,0
-581,575,0,0,0,0,0,0,0,0,0,-1,643,449,0,0
-574,575,0,0,0,0,0,0,0,0,0,-1,650,449,0,0
-567,575,0,0,0,0,0,0,0,0,0,-1,657,449,0,0
-560,575,0,0,0,0,0,0,0,0,0,-1,664,449,0,0
-553,575,0,0,0,0,0,0,0,0,0,-1,671,449,0,0
-546,575,0,0,0,0,0,0,0,0,0,-1,678,449,0,0
-539,575,0,0,0,0,0,0,0,0,0,-1,685,449,0,0
-532,575,0,0,0,0,0,0,0,0,0,-1,692,449,0,0
-525,575,0,0,0,0,0,0,0,0,0,-1,699,449,0,0
-518,575,0,0,0,0,0,0,0,0,0,-1,706,449,0,0
-511,575,0,0,0,0,0,0,0,0,0,-1,713,449,0,0
-504,575,0,0,0,0,0,0,0,0,0,-1,720,449,0,0
-497,575,0,0,0,0,0,0,0,0,0,-1,727,449,0,0
-490,575,0,0,0,0,0,0,0,0,0,-1,734,449,0,0
-483,575,0,0,0,0,0,0,0,0,0,-1,741,449,0,0
-476,575,0,0,0,0,0,0,0,0,0,-1,748,449,0,0
-469,575,0,0,0,0,0,0,0,0,0,-1,755,449,0,0
-462,575,0,0,0,0,0,0,0,0,0,-1,762,449,0,0
-455,575,0,0,0,0,0,0,0,0,0,-1,769,449,0,0
-448,575,0,0,0,0,0,0,0,0,0,-1,776,449,0,0
-441,575,0,0,0,0,0,0,0,0,0,-1,783,449,0,0
-434,575,0,0,0,0,0,0,0,0,0,-1,790,449,0,0
-427,575,0,0,0,0,0,0,0,0,0,-1,797,449,0,0
-420,575,0,0,0,0,0,0,0,0,0,-1,804,449,0,0
-413,575,0,0,0,0,0,0,0,0,0,-1,811,449,0,0
-406,575,0,0,0,0,0,0,0,0,0,-1,818,449,0,0
-399,575,0,0,0,0,0,0,0,0,0,-1,825,449,0,0
-392,575,0,0,0,0,0,0,0,0,0,-1,832,449,0,0
-385,575,0,0,0,0,0,0,0,0,0,-1,839,449,0,0
-378,575,0,0,0,0,0,0,0,0,0,-1,846,449,0,0
-371,575,0.56897,-3.52304,0,0,0,0,0,0,0,-1,853,449,0.568955,3.52306
-364,575,1.49805,-4.67191,0,0,0,0,0,0,0,-1,860,449,1.49803,4.6719
-357,575,3.15521,-8.29892,0,0,0,0,0,0,0,-1,867,449,3.15521,8.29891
-350,575,-0.825928,-18.5347,0,0,0,0,0,0,0,-1,874,449,-0.825948,18.5347
-343,575,0.465393,-16.3569,0,0,0,0,0,0,0,-1,881,449,0.465397,16.3569
-336,575,3.1994,-17.5725,0,0,0,0,0,0,0,-1,888,449,3.19941,17.5725
-329,575,2.81946,-29.1576,0,0,0,0,0,0,0,-1,895,449,2.81945,29.1576
-322,575,4.28943,-27.9487,0,0,0,0,0,0,0,-1,902,449,4.28944,27.9487
-315,575,6.13507,-35.9424,0,0,0,0,0,0,0,-1,909,449,6.13508,35.9424
-308,575,4.22192,-40.8956,0,0,0,0,0,0,0,-1,916,449,4.22191,40.8956
-301,575,4.22455,-41.8694,-0.00261609,0.0204196,-0.00990557,0.0240932,-0.00628973,-1.21565,0.0185183,0.0407886,923,449,4.22454,41.8694
-294,575,4.11334,-42.8352,-0.00235821,0.0176822,-0.00879938,0.0209974,-0.00567343,-1.21049,0.0162235,0.0261257,930,449,4.11336,42.8352
-287,575,4.04401,-43.8548,-0.00219749,0.015545,-0.00789746,0.018551,-0.00520348,-1.2071,0.0144183,0.0170424,937,449,4.04402,43.8548
-280,575,4.01154,-44.8507,-0.00176247,0.0141607,-0.00723442,0.0169566,-0.00455837,-1.20201,0.0130911,0.0128953,944,449,4.01154,44.8507
-273,575,3.95007,-45.796,-0.0012786,0.0127818,-0.00663529,0.0154186,-0.0039154,-1.19254,0.0118027,0.0125006,951,449,3.95008,45.796
-266,575,3.88416,-46.7431,-0.000935083,0.011132,-0.00591609,0.0135485,-0.00335162,-1.18301,0.0103324,0.0144583,958,449,3.88413,46.7431
-259,575,3.77118,-47.675,-0.000577077,0.00917428,-0.00514696,0.0113883,-0.00279107,-1.16457,0.00867355,0.0138853,965,449,3.77116,47.675
-252,575,3.66296,-48.5783,-0.000188523,0.00730808,-0.00430372,0.00926694,-0.00214739,-1.14366,0.00700435,0.0120758,972,449,3.66296,48.5783
-245,575,3.59882,-49.4669,0.000228326,0.00548185,-0.0034541,0.00719452,-0.00148435,-1.11048,0.00536009,0.0153342,979,449,3.59879,49.4669
-238,575,3.57538,-50.337,0.00064457,0.00341937,-0.00256203,0.00494554,-0.000881594,-1.03355,0.00362678,0.0154849,986,449,3.57535,50.337
-231,575,3.51752,-51.2171,0.00106976,0.00110685,-0.00163117,0.00271957,-0.000542971,-0.791083,0.00201853,0.0134006,993,449,3.51753,51.2171
-224,575,3.45319,-52.0929,0.00149705,-0.00122705,-0.000707072,0.00166964,-0.00139964,-0.239414,0.00177434,0.0130922,1000,449,3.45319,52.0929
-217,575,3.4267,-52.9443,0.00189959,-0.00364065,0.000194928,0.00190644,-0.0036475,0.0351262,0.00325866,0.0114656,1007,449,3.4267,52.9443
-210,575,3.44122,-53.799,0.00231874,-0.00600949,0.00102612,0.00244331,-0.00613406,0.120803,0.00510267,0.00999512,1014,449,3.44125,53.799
-203,575,3.41956,-54.6367,0.00286813,-0.00802754,0.0017279,0.00313559,-0.008295,0.153568,0.00681986,0.0133212,1021,449,3.41959,54.6367
-196,575,3.35938,-55.4743,0.00351186,-0.00958112,0.00220984,0.00387478,-0.00994404,0.162776,0.0082308,0.0182236,1028,449,3.35937,55.4743
-189,575,3.32898,-56.2961,0.00404845,-0.0110042,0.00267686,0.00451032,-0.011466,0.170857,0.00951089,0.0194102,1035,449,3.32904,56.2961
-182,575,3.30798,-57.0804,0.00469332,-0.0120057,0.00298827,0.00521197,-0.0125243,0.171847,0.0105261,0.0166978,1042,449,3.30797,57.0804
-175,575,3.29944,-57.8405,0.00543911,-0.0123526,0.00317098,0.00598738,-0.0129009,0.171207,0.011146,0.0133203,1049,449,3.29943,57.8405
-168,575,3.26709,-58.6154,0.00622188,-0.0122155,0.00314131,0.0067424,-0.012736,0.164207,0.0114219,0.0115388,1056,449,3.26705,58.6154
-161,575,3.24805,-59.3788,0.00701174,-0.0118055,0.00297869,0.007472,-0.0122657,0.153304,0.0115071,0.0157922,1063,449,3.24808,59.3788
-154,575,3.27161,-60.116,0.00786788,-0.0108353,0.00277884,0.00827201,-0.0112394,0.144421,0.0113083,0.0166589,1070,449,3.27158,60.116
-147,575,3.30823,-60.7973,0.00886081,-0.00950512,0.0024046,0.00917042,-0.00981473,0.128052,0.0109632,0.0159634,1077,449,3.30827,60.7973
-140,575,3.26294,-61.4546,0.00973504,-0.00831573,0.00233287,0.0100317,-0.00861236,0.126471,0.0107745,0.0240264,1084,449,3.26291,61.4546
-133,575,3.37231,-62.0884,0,0,0,0,0,0,0,-1,1091,449,3.37226,62.0884
-126,575,3.56506,-62.5804,0,0,0,0,0,0,0,-1,1098,449,3.56505,62.5804
-119,575,3.00208,-52.3971,0,0,0,0,0,0,0,-1,1105,449,3.00204,52.3971
-112,575,2.70337,-43.3701,0,0,0,0,0,0,0,-1,1112,449,2.70333,43.3701
-105,575,2.18347,-36.5414,0,0,0,0,0,0,0,-1,1119,449,2.18351,36.5414
-98,575,1.521,-25.6961,0,0,0,0,0,0,0,-1,1126,449,1.52105,25.6961
-91,575,1.60803,-16.4247,0,0,0,0,0,0,0,-1,1133,449,1.60802,16.4247
-84,575,1.16553,-11.9056,0,0,0,0,0,0,0,-1,1140,449,1.16558,11.9056
-77,575,0.205078,-11.2584,0,0,0,0,0,0,0,-1,1147,449,0.205117,11.2584
-70,575,-4.2467,-1.78738,0,0,0,0,0,0,0,-1,1154,449,-4.24674,1.78739
-63,575,-4.52209,-3.48798,0,0,0,0,0,0,0,-1,1161,449,-4.5221,3.48796
-56,575,-5.5968,-5.4928,0,0,0,0,0,0,0,-1,1168,449,-5.59683,5.49281
-49,575,-5.96863,-7.17612,0,0,0,0,0,0,0,-1,1175,449,-5.96868,7.1761
-42,575,-0.830322,0.773499,0,0,0,0,0,0,0,-1,1182,449,-0.83038,-0.77351
-35,575,-0.62085,0.205139,0,0,0,0,0,0,0,-1,1189,449,-0.620855,-0.205126
-28,575,0.49292,-3.87988,0,0,0,0,0,0,0,-1,1196,449,0.492941,3.87989
-21,575,9.63037,-78.8977,0,0,0,0,0,0,0,-1,1203,449,9.63041,78.8977
-14,575,9.32629,-78.6948,0,0,0,0,0,0,0,-1,1210,449,9.32631,78.6948
-7,575,8.74744,-78.4022,0,0,0,0,0,0,0,-1,1217,449,8.74741,78.4022
0,575,8.23352,-78.0217,0,0,0,0,0,0,0,-1,1224,449,8.23355,78.0217
7,575,7.75647,-77.5959,0,0,0,0,0,0,0,-1,1231,449,7.75645,77.5959
14,575,1.01855,-70.0268,0,0,0,0,0,0,0,-1,1238,449,1.01856,70.0268
21,575,2.57227,-70.4022,0,0,0,0,0,0,0,-1,1245,449,2.57221,70.4022
28,575,3.9314,-70.6675,0.147218,0.00570886,0.0289036,0.152894,3.2872e-05,0.193909,0.101918,0.0416574,1252,449,3.93136,70.6675
35,575,5.31519,-70.951,0.126479,0.00433261,0.0247671,0.131309,-0.000498235,0.192633,0.0877062,0.0426824,1259,449,5.31514,70.9511
42,575,6.76001,-71.2822,0.10226,0.00464712,0.0223449,0.107132,-0.00022475,0.214671,0.0714965,0.0430125,1266,449,6.75999,71.2822
49,575,8.07312,-72.6703,0,0,0,0,0,0,0,-1,1273,449,8.07308,72.6703
56,575,7.78333,-72.7286,0.0583144,0.00842995,0.0268652,0.0700308,-0.00328643,0.411249,0.0478203,0.0414465,1280,449,7.78338,72.7287
63,575,7.56226,-72.7978,0.0403432,0.0123502,0.032068,0.061336,-0.00864269,0.579628,0.0440551,0.041623,1287,449,7.5622,72.7978
70,575,7.44067,-72.8116,0.027884,0.0161078,0.04003,0.0624567,-0.0184649,0.712376,0.0489673,0.0429508,1294,449,7.44067,72.8116
77,575,6.98145,-72.7083,0.023285,0.0184221,0.0517878,0.0726984,-0.0309913,0.76194,0.0614584,0.045881,1301,449,6.98148,72.7083
84,575,6.59766,-72.6091,0,0,0,0,0,0,0,-1,1308,449,6.59769,72.6091
91,575,2.8407,-71.8431,0,0,0,0,0,0,0,-1,1315,449,2.84066,71.8431
98,575,3.56812,-71.0875,0.0468504,0.0190823,0.0931425,0.127138,-0.0612053,0.711412,0.110939,0.0432954,1322,449,3.56806,71.0875
105,575,4.46277,-70.0448,0.0651474,0.016232,0.104062,0.147587,-0.0662076,0.669978,0.12638,0.0411118,1329,449,4.46278,70.0448
112,575,5.32849,-69.0715,0,0,0,0,0,0,0,-1,1336,449,5.32843,69.0715
119,575,6.31702,-67.8925,0.102858,0.00809912,0.121683,0.18606,-0.0751027,0.599744,0.155252,0.0418692,1343,449,6.31702,67.8925
126,575,7.50659,-66.9219,0.119374,0.00367649,0.125657,0.199859,-0.0768083,0.569676,0.164916,0.0473162,1350,449,7.50655,66.9219
133,575,8.74817,-65.9857,0,0,0,0,0,0,0,-1,1357,449,8.74818,65.9857
140,575,10.0714,-65.1381,0,0,0,0,0,0,0,-1,1364,449,10.0714,65.1381
147,575,11.5708,-64.3607,0,0,0,0,0,0,0,-1,1371,449,11.5708,64.3606
154,575,12.5941,-63.9639,0,0,0,0,0,0,0,-1,1378,449,12.5942,63.9639
161,575,14.4192,-63.1218,0,0,0,0,0,0,0,-1,1385,449,14.4192,63.1217
168,575,-4.97888,-77.9566,0,0,0,0,0,0,0,-1,1392,449,-4.97891,77.9566
175,575,4.32617,1.93634,0,0,0,0,0,0,0,-1,1399,449,4.32612,-1.93634
182,575,6.3147,-2.88345,0,0,0,0,0,0,0,-1,1406,449,6.31466,2.88346
189,575,6.10449,-1.30817,0,0,0,0,0,0,0,-1,1413,449,6.10455,1.30817
196,575,5.79895,0.818359,0,0,0,0,0,0,0,-1,1420,449,5.79895,-0.81837
203,575,3.29724,-1.46378,0,0,0,0,0,0,0,-1,1427,449,3.29722,1.46377
210,575,2.32739,-7.74503,0,0,0,0,0,0,0,-1,1434,449,2.32741,7.74502
217,575,3.33618,-11.5521,0,0,0,0,0,0,0,-1,1441,449,3.3362,11.5521
224,575,5.51709,-16.3903,0,0,0,0,0,0,0,-1,1448,449,5.51713,16.3903
231,575,5.48572,-20.4595,0,0,0,0,0,0,0,-1,1455,449,5.48571,20.4595
238,575,5.33484,-22.3575,0,0,0,0,0,0,0,-1,1462,449,5.33478,22.3575
245,575,5.59741,-23.513,0,0,0,0,0,0,0,-1,1469,449,5.5974,23.513
252,575,10.5602,-44.9309,0,0,0,0,0,0,0,-1,1476,449,10.5602,44.9309
259,575,12.6493,-57.551,0,0,0,0,0,0,0,-1,1483,449,12.6493,57.551
266,575,13.7997,-61.855,0,0,0,0,0,0,0,-1,1490,449,13.7996,61.855
273,575,13.9958,-60.7769,0.00557335,-0.0132506,-0.00440213,0.00655195,-0.0142292,-0.218744,0.0122679,0.027287,1497,449,13.9959,60.777
280,575,13.9602,-59.9991,0.00483764,-0.0132672,-0.00445161,0.005873,-0.0143025,-0.228517,0.0119824,0.0174392,1504,449,13.9601,59.9991
287,575,13.9171,-59.3105,0.00423785,-0.0128307,-0.00444266,0.00532495,-0.0139179,-0.239982,0.0114731,0.0152447,1511,449,13.9172,59.3105
294,575,13.9447,-58.5267,0.00374262,-0.0117302,-0.00423142,0.0048242,-0.0128118,-0.250249,0.0105245,0.0120005,1518,449,13.9447,58.5267
301,575,13.9553,-57.7387,0.00329311,-0.0101944,-0.00386326,0.0043213,-0.0112226,-0.260114,0.00926441,0.0102716,1525,449,13.9554,57.7387
308,575,13.9421,-56.9272,0.00279906,-0.00863254,-0.00344704,0.00375802,-0.0095915,-0.271338,0.00794885,0.011014,1532,449,13.9422,56.9272
315,575,13.9012,-56.1402,0.00237829,-0.00690918,-0.00288593,0.00320199,-0.00773288,-0.278028,0.00649139,0.0112088,1539,449,13.9013,56.1402
322,575,13.8722,-55.321,0.00199089,-0.00517979,-0.00222913,0.00262737,-0.00581626,-0.278124,0.00498947,0.0103766,1546,449,13.8722,55.3211
329,575,13.8409,-54.5088,0.00170832,-0.00341347,-0.0014331,0.00208204,-0.00378719,-0.255096,0.00343594,0.0112313,1553,449,13.8409,54.5088
336,575,13.8185,-53.6729,0.00149328,-0.00166829,-0.000629151,0.00161388,-0.00178889,-0.18939,0.00196546,0.012595,1560,449,13.8184,53.673
343,575,13.7865,-52.7613,0.00127914,0.000124992,0.000265427,0.00133726,6.68766e-05,0.21555,0.000870069,0.0142555,1567,449,13.7865,52.7613
350,575,13.7278,-51.8864,0.0012247,0.00200662,0.00125086,0.0029262,0.000305128,0.936865,0.00185746,0.0130055,1574,449,13.7278,51.8864
357,575,13.6703,-51.0357,0.00117311,0.00356287,0.00217728,0.00485159,-0.000115607,1.03636,0.00327361,0.0114136,1581,449,13.6703,51.0357
364,575,13.61,-50.185,0.00111744,0.00480874,0.0030889,0.00656139,-0.000635209,1.05469,0.00460063,0.0109947,1588,449,13.61,50.185
371,575,13.5874,-49.3072,0.00107297,0.00597713,0.00392011,0.0081489,-0.0010988,1.06488,0.00583346,0.020112,1595,449,13.5875,49.3072
378,575,13.5344,-48.3972,0.000962292,0.00709874,0.00461068,0.00956878,-0.00150775,1.07898,0.00693661,0.0197788,1602,449,13.5344,48.3971
385,575,13.4487,-47.4894,0.000757119,0.00806045,0.00502675,0.0106219,-0.00180433,1.09953,0.00775302,0.012668,1609,449,13.4487,47.4894
392,575,13.3784,-46.6046,0.000553661,0.00867956,0.00534266,0.0113287,-0.00209544,1.11048,0.00833914,0.0104225,1616,449,13.3784,46.6046
399,575,13.2806,-45.7322,0.000322376,0.00925377,0.00560456,0.0119542,-0.00237807,1.12179,0.00886908,0.0109268,1623,449,13.2807,45.7323
406,575,13.2314,-44.7528,-2.78127e-05,0.00977868,0.00572351,0.012412,-0.00266117,1.13958,0.00928968,0.0126301,1630,449,13.2315,44.7528
413,575,13.1748,-43.7891,-0.000845228,0.00980908,0.00554943,0.0121744,-0.00321059,1.16788,0.00937163,0.0146758,1637,449,13.1748,43.7891
420,575,13.0789,-42.8058,-0.00217767,0.00950634,0.00516419,0.0114616,-0.00413297,1.20885,0.00932907,0.0155233,1644,449,13.0788,42.8058
427,575,12.9435,-41.8147,-0.00378789,0.00902613,0.00458229,0.0104961,-0.00525788,1.26037,0.00926166,0.0214049,1651,449,12.9434,41.8147
434,575,12.7711,-40.9326,-0.00543637,0.00872788,0.00394182,0.00975096,-0.00645946,1.31685,0.00942318,0.0370335,1658,449,12.7711,40.9327
441,575,12.6915,-40.1967,0,0,0,0,0,0,0,-1,1665,449,12.6916,40.1968
448,575,13.4359,-38.2149,0,0,0,0,0,0,0,-1,1672,449,13.4359,38.2149
455,575,11.7931,-31.6917,0,0,0,0,0,0,0,-1,1679,449,11.793,31.6917
462,575,7.12781,-21.7179,0,0,0,0,0,0,0,-1,1686,449,7.12778,21.7178
469,575,12.7227,-35.6647,0,0,0,0,0,0,0,-1,1693,449,12.7226,35.6647
476,575,10.3063,-31.0265,0,0,0,0,0,0,0,-1,1700,449,10.3063,31.0265
483,575,8.44177,-29.4231,0,0,0,0,0,0,0,-1,1707,449,8.44173,29.4231
490,575,7.42871,-25.5027,0,0,0,0,0,0,0,-1,1714,449,7.42869,25.5027
497,575,0,0,0,0,0,0,0,0,0,-1,1721,449,0,0
504,575,0,0,0,0,0,0,0,0,0,-1,1728,449,0,0
511,575,0,0,0,0,0,0,0,0,0,-1,1735,449,0,0
518,575,0,0,0,0,0,0,0,0,0,-1,1742,449,0,0
525,575,0,0,0,0,0,0,0,0,0,-1,1749,449,0,0
532,575,0,0,0,0,0,0,0,0,0,-1,1756,449,0,0
539,575,0,0,0,0,0,0,0,0,0,-1,1763,449,0,0
546,575,0,0,0,0,0,0,0,0,0,-1,1770,449,0,0
553,575,0,0,0,0,0,0,0,0,0,-1,1777,449,0,0
560,575,0,0,0,0,0,0,0,0,0,-1,1784,449,0,0
567,575,0,0,0,0,0,0,0,0,0,-1,1791,449,0,0
574,575,0,0,0,0,0,0,0,0,0,-1,1798,449,0,0
581,575,0,0,0,0,0,0,0,0,0,-1,1805,449,0,0
588,575,0,0,0,0,0,0,0,0,0,-1,1812,449,0,0
595,575,0,0,0,0,0,0,0,0,0,-1,1819,449,0,0
602,575,0,0,0,0,0,0,0,0,0,-1,1826,449,0,0
609,575,0,0,0,0,0,0,0,0,0,-1,1833,449,0,0
616,575,0,0,0,0,0,0,0,0,0,-1,1840,449,0,0
623,575,0,0,0,0,0,0,0,0,0,-1,1847,449,0,0
630,575,0,0,0,0,0,0,0,0,0,-1,1854,449,0,0
637,575,0,0,0,0,0,0,0,0,0,-1,1861,449,0,0
644,575,0,0,0,0,0,0,0,0,0,-1,1868,449,0,0
651,575,0,0,0,0,0,0,0,0,0,-1,1875,449,0,0
658,575,0,0,0,0,0,0,0,0,0,-1,1882,449,0,0
665,575,0,0,0,0,0,0,0,0,0,-1,1889,449,0,0
672,575,0,0,0,0,0,0,0,0,0,-1,1896,449,0,0
679,575,0,0,0,0,0,0,0,0,0,-1,1903,449,0,0
686,575,0,0,0,0,0,0,0,0,0,-1,1910,449,0,0
693,575,0,0,0,0,0,0,0,0,0,-1,1917,449,0,0
700,575,0,0,0,0,0,0,0,0,0,-1,1924,449,0,0
707,575,0,0,0,0,0,0,0,0,0,-1,1931,449,0,0
714,575,0,0,0,0,0,0,0,0,0,-1,1938,449,0,0
721,575,0,0,0,0,0,0,0,0,0,-1,1945,449,0,0
728,575,0,0,0,0,0,0,0,0,0,-1,1952,449,0,0
735,575,0,0,0,0,0,0,0,0,0,-1,1959,449,0,0
742,575,0,0,0,0,0,0,0,0,0,-1,1966,449,0,0
749,575,0,0,0,0,0,0,0,0,0,-1,1973,449,0,0
756,575,0,0,0,0,0,0,0,0,0,-1,1980,449,0,0
763,575,0,0,0,0,0,0,0,0,0,-1,1987,449,0,0
770,575,0,0,0,0,0,0,0,0,0,-1,1994,449,0,0
777,575,0,0,0,0,0,0,0,0,0,-1,2001,449,0,0
784,575,0,0,0,0,0,0,0,0,0,-1,2008,449,0,0
791,575,0,0,0,0,0,0,0,0,0,-1,2015,449,0,0
798,575,0,0,0,0,0,0,0,0,0,-1,2022,449,0,0
805,575,0,0,0,0,0,0,0,0,0,-1,2029,449,0,0
812,575,0,0,0,0,0,0,0,0,0,-1,2036,449,0,0
-700,568,0,0,0,0,0,0,0,0,0,-1,524,456,0,0
-693,568,0,0,0,0,0,0,0,0,0,-1,531,456,0,0
-686,568,0,0,0,0,0,0,0,0,0,-1,538,456,0,0
-679,568,0,0,0,0,0,0,0,0,0,-1,545,456,0,0
-672,568,0,0,0,0,0,0,0,0,0,-1,552,456,0,0
-665,568,0,0,0,0,0,0,0,0,0,-1,559,456,0,0
-658,568,0,0,0,0,0,0,0,0,0,-1,566,456,0,0
-651,568,0,0,0,0,0,0,0,0,0,-1,573,456,0,0
-644,568,0,0,0,0,0,0,0,0,0,-1,580,456,0,0
-637,568,0,0,0,0,0,0,0,0,0,-1,587,456,0,0
-630,568,0,0,0,0,0,0,0,0,0,-1,594,456,0,0
-623,568,0,0,0,0,0,0,0,0,0,-1,601,456,0,0
-616,568,0,0,0,0,0,0,0,0,0,-1,608,456,0,0
-609,568,0,0,0,0,0,0,0,0,0,-1,615,456,0,0
-602,568,0,0,0,0,0,0,0,0,0,-1,622,456,0,0
-595,568,0,0,0,0,0,0,0,0,0,-1,629,456,0,0
-588,568,0,0,0,0,0,0,0,0,0,-1,636,456,0,0
-581,568,0,0,0,0,0,0,0,0,0,-1,643,456,0,0
-574,568,0,0,0,0,0,0,0,0,0,-1,650,456,0,0
-567,568,0,0,0,0,0,0,0,0,0,-1,657,456,0,0
-560,568,0,0,0,0,0,0,0,0,0,-1,664,456,0,0
-553,568,0,0,0,0,0,0,0,0,0,-1,671,456,0,0
-546,568,0,0,0,0,0,0,0,0,0,-1,678,456,0,0
-539,568,0,0,0,0,0,0,0,0,0,-1,685,456,0,0
-532,568,0,0,0,0,0,0,0,0,0,-1,692,456,0,0
-525,568,0,0,0,0,0,0,0,0,0,-1,699,456,0,0
-518,568,0,0,0,0,0,0,0,0,0,-1,706,456,0,0
-511,568,0,0,0,0,0,0,0,0,0,-1,713,456,0,0
-504,568,0,0,0,0,0,0,0,0,0,-1,720,456,0,0
-497,568,0,0,0,0,0,0,0,0,0,-1,727,456,0,0
-490,568,0,0,0,0,0,0,0,0,0,-1,734,456,0,0
-483,568,0,0,0,0,0,0,0,0,0,-1,741,456,0,0
-476,568,0,0,0,0,0,0,0,0,0,-1,748,456,0,0
-469,568,0,0,0,0,0,0,0,0,0,-1,755,456,0,0
-462,568,0,0,0,0,0,0,0,0,0,-1,762,456,0,0
-455,568,0,0,0,0,0,0,0,0,0,-1,769,456,0,0
-448,568,0,0,0,0,0,0,0,0,0,-1,776,456,0,0
-441,568,0,0,0,0,0,0,0,0,0,-1,783,456,0,0
-434,568,0,0,0,0,0,0,0,0,0,-1,790,456,0,0
-427,568,0,0,0,0,0,0,0,0,0,-1,797,456,0,0
-420,568,0,0,0,0,0,0,0,0,0,-1,804,456,0,0
-413,568,0,0,0,0,0,0,0,0,0,-1,811,456,0,0
-406,568,0,0,0,0,0,0,0,0,0,-1,818,456,0,0
-399,568,0,0,0,0,0,0,0,0,0,-1,825,456,0,0
-392,568,0,0,0,0,0,0,0,0,0,-1,832,456,0,0
-385,568,0,0,0,0,0,0,0,0,0,-1,839,456,0,0
-378,568,0.321777,-7.29929,0,0,0,0,0,0,0,-1,846,456,0.321806,7.29927
-371,568,1.09595,-7.46707,0,0,0,0,0,0,0,-1,853,456,1.09597,7.46707
-364,568,2.70746,-23.4782,0,0,0,0,0,0,0,-1,860,456,2.70746,23.4782
-357,568,2.14166,-7.67645,0,0,0,0,0,0,0,-1,867,456,2.14167,7.67646
-350,568,2.7467,-11.2507,0,0,0,0,0,0,0,-1,874,456,2.7467,11.2507
-343,568,2.16516,-11.3762,0,0,0,0,0,0,0,-1,881,456,2.16514,11.3762
-336,568,1.14984,-29.3232,0,0,0,0,0,0,0,-1,888,456,1.14984,29.3231
-329,568,2.80359,-32.459,0,0,0,0,0,0,0,-1,895,456,2.80357,32.4591
-322,568,4.67688,-35.653,0,0,0,0,0,0,0,-1,902,456,4.67686,35.653
-315,568,4.02814,-39.0529,0,0,0,0,0,0,0,-1,909,456,4.02816,39.0528
-308,568,3.34985,-40.987,0,0,0,0,0,0,0,-1,916,456,3.34983,40.987
-301,568,3.3493,-41.9879,-0.00213195,0.0160772,-0.00781201,0.0189693,-0.00502408,-1.21623,0.0146117,0.0240307,923,456,3.34932,41.9879
-294,568,3.24139,-42.9294,-0.00188635,0.0137032,-0.00681013,0.0162591,-0.00444224,-1.21176,0.0125843,0.0139919,930,456,3.2414,42.9293
-287,568,3.17059,-43.899,-0.00169663,0.0118567,-0.00598973,0.0141243,-0.00396431,-1.20888,0.0109789,0.0119502,937,456,3.17056,43.899
-280,568,3.12488,-44.8697,-0.00130135,0.0104795,-0.0053857,0.0125705,-0.00339233,-1.20046,0.00971067,0.0117622,944,456,3.12487,44.8697
-273,568,3.04382,-45.8041,-0.000847014,0.00906525,-0.00481276,0.0110175,-0.00279927,-1.18544,0.00843439,0.0130819,951,456,3.04382,45.8041
-266,568,2.96509,-46.7167,-0.000474755,0.00738985,-0.00411042,0.00914601,-0.00223091,-1.16703,0.00696117,0.0128915,958,456,2.9651,46.7168
-259,568,2.87317,-47.6271,-7.80309e-05,0.00530826,-0.00335472,0.00691711,-0.00168688,-1.12362,0.00526457,0.0136528,965,456,2.87314,47.6271
-252,568,2.77777,-48.5106,0.0003404,0.00323988,-0.0024923,0.00467342,-0.00109314,-1.04882,0.00353676,0.0136753,972,456,2.77776,48.5106
-245,568,2.72327,-49.3692,0.000785384,0.00120467,-0.00163705,0.00264545,-0.000655391,-0.849083,0.00201789,0.0156229,979,456,2.72324,49.3692
-238,568,2.70404,-50.2627,0.00125505,-0.0011109,-0.000719501,0.00145667,-0.00131252,-0.273219,0.00159951,0.0148106,986,456,2.70405,50.2627
-231,568,2.64972,-51.1548,0.00174012,-0.00375386,0.000259015,0.00175231,-0.00376604,0.0470062,0.00325596,0.0128982,993,456,2.64972,51.1548
-224,568,2.57947,-52.0088,0.00219909,-0.00637514,0.00124985,0.00237756,-0.00655361,0.141838,0.005341,0.0139081,1000,456,2.5795,52.0088
-217,568,2.58246,-52.8588,0.00264586,-0.00905617,0.00220964,0.0030492,-0.0094595,0.180547,0.00753137,0.0118124,1007,456,2.58243,52.8588
-210,568,2.58606,-53.724,0.0031198,-0.0116806,0.00308436,0.00373684,-0.0122976,0.19745,0.00968734,0.012115,1014,456,2.58609,53.724
-203,568,2.55353,-54.5768,0.00375244,-0.0138651,0.00379752,0.00453615,-0.0146488,0.203516,0.011578,0.0112907,1021,456,2.55353,54.5768
-196,568,2.52551,-55.3861,0.00453261,-0.0154426,0.00423105,0.00539185,-0.0163019,0.200354,0.0130422,0.0159471,1028,456,2.52557,55.3861
-189,568,2.48181,-56.1795,0.00518271,-0.0168701,0.00466217,0.00612783,-0.0178152,0.200011,0.014362,0.0159673,1035,456,2.48186,56.1795
-182,568,2.49048,-56.9985,0.00597141,-0.0177735,0.00486829,0.00693077,-0.0187329,0.19457,0.0153303,0.0157705,1042,456,2.49053,56.9985
-175,568,2.49426,-57.7584,0.00694351,-0.0177796,0.00490478,0.00788101,-0.0187171,0.188862,0.0157755,0.0168129,1049,456,2.49431,57.7584
-168,568,2.50464,-58.4192,0.00801495,-0.0172408,0.00463681,0.00883933,-0.0180651,0.175952,0.0158348,0.0240544,1056,456,2.50462,58.4192
-161,568,2.46179,-59.1619,0.00905181,-0.0164191,0.00417094,0.00971742,-0.0170847,0.158249,0.0156679,0.0332323,1063,456,2.46179,59.1618
-154,568,2.57703,-60.1435,0.0101919,-0.014759,0.00363782,0.0107115,-0.0152786,0.141866,0.0150824,0.0360762,1070,456,2.57707,60.1435
-147,568,2.78003,-60.9387,0.0115158,-0.0126326,0.0028119,0.0118389,-0.0129557,0.114404,0.01432,0.0455358,1077,456,2.78004,60.9386
-140,568,2.5459,-61.1644,0,0,0,0,0,0,0,-1,1084,456,2.54585,61.1644
-133,568,2.48999,-60.2435,0,0,0,0,0,0,0,-1,1091,456,2.49001,60.2435
-126,568,2.47339,-55.9059,0,0,0,0,0,0,0,-1,1098,456,2.47343,55.9059
-119,568,1.89978,-50.8443,0,0,0,0,0,0,0,-1,1105,456,1.89978,50.8443
-112,568,1.98242,-35.0942,0,0,0,0,0,0,0,-1,1112,456,1.98247,35.0942
-105,568,2.02454,-25.038,0,0,0,0,0,0,0,-1,1119,456,2.02459,25.038
-98,568,1.58618,-14.7874,0,0,0,0,0,0,0,-1,1126,456,1.58617,14.7874
-91,568,1.11621,-11.1853,0,0,0,0,0,0,0,-1,1133,456,1.11626,11.1853
-84,568,0.461792,-9.7959,0,0,0,0,0,0,0,-1,1140,456,0.461793,9.7959
-77,568,-1.13806,-8.57822,0,0,0,0,0,0,0,-1,1147,456,-1.13807,8.57821
-70,568,-4.09766,-1.42911,0,0,0,0,0,0,0,-1,1154,456,-4.09767,1.4291
-63,568,-5.92273,-3.70752,0,0,0,0,0,0,0,-1,1161,456,-5.92272,3.70751
-56,568,-5.24158,-6.01385,0,0,0,0,0,0,0,-1,1168,456,-5.24161,6.01386
-49,568,-5.24365,-8.33557,0,0,0,0,0,0,0,-1,1175,456,-5.24371,8.33557
-42,568,-0.664795,0.521973,0,0,0,0,0,0,0,-1,1182,456,-0.664829,-0.521984
-35,568,-0.153076,-1.67731,0,0,0,0,0,0,0,-1,1189,456,-0.153068,1.67731
-28,568,1.25439,-4.48798,0,0,0,0,0,0,0,-1,1196,456,1.2544,4.48797
-21,568,9.85217,-75.9526,0,0,0,0,0,0,0,-1,1203,456,9.85213,75.9526
-14,568,9.66882,-75.739,0,0,0,0,0,0,0,-1,1210,456,9.66885,75.7389
-7,568,9.50916,-75.7017,0,0,0,0,0,0,0,-1,1217,456,9.50917,75.7017
0,568,9.68201,-75.6111,0,0,0,0,0,0,0,-1,1224,456,9.68205,75.6111
7,568,-2.09546,-69.6138,0,0,0,0,0,0,0,-1,1231,456,-2.09547,69.6138
14,568,-0.261597,-70.0497,0.213017,0.0181728,0.0477081,0.224071,0.00711853,0.227689,0.147065,0.0441691,1238,456,-0.261586,70.0497
21,568,1.62,-70.4821,0.198813,0.0141709,0.0408635,0.207452,0.00553157,0.208352,0.136495,0.0410591,1245,456,1.61995,70.482
28,568,3.23145,-70.7004,0.177648,0.0111081,0.0344488,0.184493,0.00426367,0.19613,0.121599,0.0420254,1252,456,3.23141,70.7004
35,568,5.03101,-71.7462,0.151484,0.00897253,0.0287903,0.15708,0.00337604,0.191994,0.103613,0.0442625,1259,456,5.03102,71.7462
42,568,6.07593,-71.6644,0.122054,0.0085854,0.024879,0.12727,0.00337019,0.206631,0.0837457,0.0426478,1266,456,6.07589,71.6645
49,568,7.68457,-72.1268,0.0931609,0.00963214,0.0245227,0.0998282,0.00296486,0.265465,0.0655862,0.0469602,1273,456,7.68451,72.1268
56,568,7.36523,-72.4046,0.0694838,0.0113977,0.0283099,0.0809988,-0.000117231,0.386308,0.0540383,0.0438823,1280,456,7.36526,72.4046
63,568,7.39648,-72.7787,0.0489421,0.0151593,0.0338008,0.0698371,-0.00573569,0.55368,0.048583,0.0443612,1287,456,7.39652,72.7787
70,568,7.1709,-72.8306,0.0347086,0.0187518,0.0426712,0.0701409,-0.0166804,0.692979,0.0531997,0.0442533,1294,456,7.17093,72.8307
77,568,6.58521,-72.6243,0.0299608,0.0205293,0.0562619,0.0817043,-0.0312142,0.743587,0.0673308,0.0483789,1301,456,6.58522,72.6243
84,568,6.39087,-72.8256,0,0,0,0,0,0,0,-1,1308,456,6.39084,72.8256
91,568,7.61536,-73.3873,0.0438209,0.0219786,0.0888897,0.122458,-0.0566584,0.724274,0.105713,0.0400272,1315,456,7.61534,73.3873
98,568,2.05664,-71.1191,0.0601806,0.0209316,0.106469,0.148819,-0.0677068,0.694261,0.127902,0.0453848,1322,456,2.05669,71.1191
105,568,3.12598,-69.7484,0.0820454,0.0177585,0.119966,0.174099,-0.0742953,0.654503,0.147219,0.0435414,1329,456,3.12599,69.7484
112,568,4.43054,-68.5784,0,0,0,0,0,0,0,-1,1336,456,4.43054,68.5784
119,568,5.41968,-67.9211,0.127336,0.00892236,0.142756,0.222676,-0.0864175,0.588823,0.184144,0.0420082,1343,456,5.4197,67.9211
126,568,6.11743,-66.5471,0.147543,0.00393109,0.147937,0.24018,-0.0887056,0.559455,0.196481,0.0454304,1350,456,6.11748,66.5471
133,568,7.06128,-65.5305,0,0,0,0,0,0,0,-1,1357,456,7.06129,65.5304
140,568,9.02295,-64.6738,0.173604,-0.00308674,0.146435,0.25628,-0.0857626,0.513975,0.205495,0.0494832,1364,456,9.02292,64.6737
147,568,10.719,-64.17,0,0,0,0,0,0,0,-1,1371,456,10.719,64.17
154,568,12.5149,-63.719,0,0,0,0,0,0,0,-1,1378,456,12.5149,63.719
161,568,14.3098,-62.9078,0,0,0,0,0,0,0,-1,1385,456,14.3098,62.9078
168,568,-11.53,-55.4321,0,0,0,0,0,0,0,-1,1392,456,-11.53,55.4321
175,568,10.5151,0.747498,0,0,0,0,0,0,0,-1,1399,456,10.5152,-0.747501
182,568,6.35095,-3.63361,0,0,0,0,0,0,0,-1,1406,456,6.35093,3.63359
189,568,6.17493,-1.70911,0,0,0,0,0,0,0,-1,1413,456,6.17497,1.70911
196,568,6.04724,0.200836,0,0,0,0,0,0,0,-1,1420,456,6.04724,-0.200835
203,568,5.9281,2.08649,0,0,0,0,0,0,0,-1,1427,456,5.92812,-2.08648
210,568,1.46216,-2.50446,0,0,0,0,0,0,0,-1,1434,456,1.46219,2.50446
217,568,2.62366,-7.86703,0,0,0,0,0,0,0,-1,1441,456,2.62365,7.86704
224,568,3.43494,-12.1555,0,0,0,0,0,0,0,-1,1448,456,3.43492,12.1555
231,568,4.38245,-9.3205,0,0,0,0,0,0,0,-1,1455,456,4.38244,9.32048
238,568,5.88879,-20.7448,0,0,0,0,0,0,0,-1,1462,456,5.88876,20.7449
245,568,3.34387,-10.6774,0,0,0,0,0,0,0,-1,1469,456,3.34389,10.6774
252,568,3.56946,-9.28928,0,0,0,0,0,0,0,-1,1476,456,3.56948,9.28928
259,568,3.38843,-8.73068,0,0,0,0,0,0,0,-1,1483,456,3.38842,8.73068
266,568,14.0127,-59.903,0,0,0,0,0,0,0,-1,1490,456,14.0127,59.9029
273,568,14.7894,-60.7532,0,0,0,0,0,0,0,-1,1497,456,14.7895,60.7532
280,568,14.7201,-59.9042,0.00537288,-0.0187901,-0.00628762,0.0069111,-0.0203283,-0.23993,0.0163503,0.0423669,1504,456,14.72,59.9042
287,568,14.7174,-59.0314,0.0047444,-0.0182031,-0.00639999,0.00640864,-0.0198673,-0.254404,0.0158199,0.0301527,1511,456,14.7174,59.0314
294,568,14.7904,-58.3356,0.00425655,-0.0167448,-0.00621262,0.00595673,-0.018445,-0.267125,0.0146904,0.0262173,1518,456,14.7904,58.3356
301,568,14.7751,-57.6266,0.00382912,-0.0146908,-0.00581147,0.00550169,-0.0163634,-0.28023,0.0131327,0.0216162,1525,456,14.7752,57.6266
308,568,14.7435,-56.8679,0.00324642,-0.0127843,-0.00540591,0.00489905,-0.0144369,-0.296684,0.0116075,0.0143646,1532,456,14.7436,56.8679
315,568,14.73,-56.0988,0.00273236,-0.0107598,-0.00481901,0.00427679,-0.0123042,-0.310144,0.00993997,0.00850818,1539,456,14.73,56.0988
322,568,14.71,-55.2826,0.00229602,-0.00874006,-0.00410502,0.00365548,-0.0100995,-0.319802,0.00822682,0.0103939,1546,456,14.71,55.2826
329,568,14.681,-54.4403,0.00195124,-0.0067322,-0.00327703,0.00304914,-0.0078301,-0.323275,0.00648015,0.0114143,1553,456,14.6811,54.4403
336,568,14.6558,-53.5815,0.00164604,-0.00484719,-0.00247906,0.00248431,-0.00568545,-0.326069,0.004836,0.0117058,1560,456,14.6558,53.5814
343,568,14.6461,-52.6927,0.00135666,-0.00293512,-0.00158993,0.00188148,-0.00345994,-0.318832,0.00312844,0.0142319,1567,456,14.6461,52.6927
350,568,14.6017,-51.8555,0.00130078,-0.000876169,-0.000557959,0.00143546,-0.00101084,-0.23684,0.00141945,0.0125072,1574,456,14.6017,51.8555
357,568,14.547,-51.0114,0.00120509,0.000720463,0.000346999,0.00138601,0.000539547,0.4806,0.000806727,0.0102243,1581,456,14.547,51.0113
364,568,14.527,-50.1353,0.00109394,0.0019427,0.00127299,0.00286018,0.000176461,0.94629,0.00185077,0.0124442,1588,456,14.527,50.1353
371,568,14.4713,-49.243,0.0010385,0.00304032,0.00209898,0.00436482,-0.000286001,1.00788,0.00300975,0.0219654,1595,456,14.4713,49.243
378,568,14.4037,-48.315,0.000943843,0.0041098,0.0027806,0.00572644,-0.0006728,1.04417,0.00406052,0.0197494,1602,456,14.4037,48.315
385,568,14.3481,-47.4314,0.000786962,0.00514753,0.0032617,0.00689055,-0.000956061,1.08002,0.0049433,0.0105825,1609,456,14.3482,47.4314
392,568,14.2466,-46.5757,0.000624973,0.00582592,0.00364045,0.00769929,-0.0012484,1.09554,0.00559561,0.011897,1616,456,14.2466,46.5757
399,568,14.1689,-45.7272,0.000433339,0.0064221,0.00395338,0.00838711,-0.00153167,1.10952,0.00616571,0.0192874,1623,456,14.1689,45.7272
406,568,14.1425,-44.7449,0.000141852,0.00696136,0.00416094,0.00893118,-0.00182797,1.12865,0.00664776,0.0169745,1630,456,14.1425,44.7449
413,568,14.101,-43.7392,-0.000509171,0.00716143,0.00416567,0.00898849,-0.00233623,1.15746,0.00690411,0.0129651,1637,456,14.1009,43.7392
420,568,14.0084,-42.7935,-0.00158336,0.00707194,0.0039849,0.00862715,-0.00313856,1.1987,0.007035,0.0126463,1644,456,14.0084,42.7935
427,568,13.9183,-41.8217,-0.00291095,0.00675538,0.003614,0.00795715,-0.00411273,1.24977,0.0070854,0.0165201,1651,456,13.9184,41.8217
434,568,13.8832,-40.8554,-0.00421402,0.00658506,0.00326684,0.00749641,-0.00512536,1.29874,0.00732992,0.0256272,1658,456,13.8832,40.8554
441,568,13.8622,-39.9915,-0.00600424,0.00614301,0.00282331,0.00676714,-0.00662838,1.35323,0.00773405,0.0367827,1665,456,13.8622,39.9916
448,568,13.8914,-39.0388,0,0,0,0,0,0,0,-1,1672,456,13.8913,39.0388
455,568,13.8977,-37.6493,0,0,0,0,0,0,0,-1,1679,456,13.8978,37.6493
462,568,13.6899,-36.7502,0,0,0,0,0,0,0,-1,1686,456,13.6899,36.7502
469,568,13.5056,-35.8497,0,0,0,0,0,0,0,-1,1693,456,13.5057,35.8497
476,568,13.0331,-35.3653,0,0,0,0,0,0,0,-1,1700,456,13.0331,35.3653
483,568,10.9017,-29.747,0,0,0,0,0,0,0,-1,1707,456,10.9018,29.747
490,568,9.21021,-25.4427,0,0,0,0,0,0,0,-1,1714,456,9.21025,25.4427
497,568,9.19275,-22.8114,0,0,0,0,0,0,0,-1,1721,456,9.19273,22.8114
504,568,0,0,0,0,0,0,0,0,0,-1,1728,456,0,0
511,568,0,0,0,0,0,0,0,0,0,-1,1735,456,0,0
518,568,0,0,0,0,0,0,0,0,0,-1,1742,456,0,0
525,568,0,0,0,0,0,0,0,0,0,-1,1749,456,0,0
532,568,0,0,0,0,0,0,0,0,0,-1,1756,456,0,0
539,568,0,0,0,0,0,0,0,0,0,-1,1763,456,0,0
546,568,0,0,0,0,0,0,0,0,0,-1,1770,456,0,0
553,568,0,0,0,0,0,0,0,0,0,-1,1777,456,0,0
560,568,0,0,0,0,0,0,0,0,0,-1,1784,456,0,0
567,568,0,0,0,0,0,0,0,0,0,-1,1791,456,0,0
574,568,0,0,0,0,0,0,0,0,0,-1,1798,456,0,0
581,568,0,0,0,0,0,0,0,0,0,-1,1805,456,0,0
588,568,0,0,0,0,0,0,0,0,0,-1,1812,456,0,0
595,568,0,0,0,0,0,0,0,0,0,-1,1819,456,0,0
602,568,0,0,0,0,0,0,0,0,0,-1,1826,456,0,0
609,568,0,0,0,0,0,0,0,0,0,-1,1833,456,0,0
616,568,0,0,0,0,0,0,0,0,0,-1,1840,456,0,0
623,568,0,0,0,0,0,0,0,0,0,-1,1847,456,0,0
630,568,0,0,0,0,0,0,0,0,0,-1,1854,456,0,0
637,568,0,0,0,0,0,0,0,0,0,-1,1861,456,0,0
644,568,0,0,0,0,0,0,0,0,0,-1,1868,456,0,0
651,568,0,0,0,0,0,0,0,0,0,-1,1875,456,0,0
658,568,0,0,0,0,0,0,0,0,0,-1,1882,456,0,0
665,568,0,0,0,0,0,0,0,0,0,-1,1889,456,0,0
672,568,0,0,0,0,0,0,0,0,0,-1,1896,456,0,0
679,568,0,0,0,0,0,0,0,0,0,-1,1903,456,0,0
686,568,0,0,0,0,0,0,0,0,0,-1,1910,456,0,0
693,568,0,0,0,0,0,0,0,0,0,-1,1917,456,0,0
700,568,0,0,0,0,0,0,0,0,0,-1,1924,456,0,0
707,568,0,0,0,0,0,0,0,0,0,-1,1931,456,0,0
714,568,0,0,0,0,0,0,0,0,0,-1,1938,456,0,0
721,568,0,0,0,0,0,0,0,0,0,-1,1945,456,0,0
728,568,0,0,0,0,0,0,0,0,0,-1,1952,456,0,0
735,568,0,0,0,0,0,0,0,0,0,-1,1959,456,0,0
742,568,0,0,0,0,0,0,0,0,0,-1,1966,456,0,0
749,568,0,0,0,0,0,0,0,0,0,-1,1973,456,0,0
756,568,0,0,0,0,0,0,0,0,0,-1,1980,456,0,0
763,568,0,0,0,0,0,0,0,0,0,-1,1987,456,0,0
770,568,0,0,0,0,0,0,0,0,0,-1,1994,456,0,0
777,568,0,0,0,0,0,0,0,0,0,-1,2001,456,0,0
784,568,0,0,0,0,0,0,0,0,0,-1,2008,456,0,0
791,568,0,0,0,0,0,0,0,0,0,-1,2015,456,0,0
798,568,0,0,0,0,0,0,0,0,0,-1,2022,456,0,0
805,568,0,0,0,0,0,0,0,0,0,-1,2029,456,0,0
812,568,0,0,0,0,0,0,0,0,0,-1,2036,456,0,0
-700,561,0,0,0,0,0,0,0,0,0,-1,524,463,0,0
-693,561,0,0,0,0,0,0,0,0,0,-1,531,463,0,0
-686,561,0,0,0,0,0,0,0,0,0,-1,538,463,0,0
-679,561,0,0,0,0,0,0,0,0,0,-1,545,463,0,0
-672,561,0,0,0,0,0,0,0,0,0,-1,552,463,0,0
-665,561,0,0,0,0,0,0,0,0,0,-1,559,463,0,0
-658,561,0,0,0,0,0,0,0,0,0,-1,566,463,0,0
-651,561,0,0,0,0,0,0,0,0,0,-1,573,463,0,0
-644,561,0,0,0,0,0,0,0,0,0,-1,580,463,0,0
-637,561,0,0,0,0,0,0,0,0,0,-1,587,463,0,0
-630,561,0,0,0,0,0,0,0,0,0,-1,594,463,0,0
-623,561,0,0,0,0,0,0,0,0,0,-1,601,463,0,0
-616,561,0,0,0,0,0,0,0,0,0,-1,608,463,0,0
-609,561,0,0,0,0,0,0,0,0,0,-1,615,463,0,0
-602,561,0,0,0,0,0,0,0,0,0,-1,622,463,0,0
-595,561,0,0,0,0,0,0,0,0,0,-1,629,463,0,0
-588,561,0,0,0,0,0,0,0,0,0,-1,636,463,0,0
-581,561,0,0,0,0,0,0,0,0,0,-1,643,463,0,0
-574,561,0,0,0,0,0,0,0,0,0,-1,650,463,0,0
-567,561,0,0,0,0,0,0,0,0,0,-1,657,463,0,0
-560,561,0,0,0,0,0,0,0,0,0,-1,664,463,0,0
-553,561,0,0,0,0,0,0,0,0,0,-1,671,463,0,0
-546,561,0,0,0,0,0,0,0,0,0,-1,678,463,0,0
-539,561,0,0,0,0,0,0,0,0,0,-1,685,463,0,0
-532,561,0,0,0,0,0,0,0,0,0,-1,692,463,0,0
-525,561,0,0,0,0,0,0,0,0,0,-1,699,463,0,0
-518,561,0,0,0,0,0,0,0,0,0,-1,706,463,0,0
-511,561,0,0,0,0,0,0,0,0,0,-1,713,463,0,0
-504,561,0,0,0,0,0,0,0,0,0,-1,720,463,0,0
-497,561,0,0,0,0,0,0,0,0,0,-1,727,463,0,0
-490,561,0,0,0,0,0,0,0,0,0,-1,734,463,0,0
-483,561,0,0,0,0,0,0,0,0,0,-1,741,463,0,0
-476,561,0,0,0,0,0,0,0,0,0,-1,748,463,0,0
-469,561,0,0,0,0,0,0,0,0,0,-1,755,463,0,0
-462,561,0,0,0,0,0,0,0,0,0,-1,762,463,0,0
-455,561,0,0,0,0,0,0,0,0,0,-1,769,463,0,0
-448,561,0,0,0,0,0,0,0,0,0,-1,776,463,0,0
-441,561,0,0,0,0,0,0,0,0,0,-1,783,463,0,0
-434,561,0,0,0,0,0,0,0,0,0,-1,790,463,0,0
-427,561,0,0,0,0,0,0,0,0,0,-1,797,463,0,0
-420,561,0,0,0,0,0,0,0,0,0,-1,804,463,0,0
-413,561,0,0,0,0,0,0,0,0,0,-1,811,463,0,0
-406,561,0,0,0,0,0,0,0,0,0,-1,818,463,0,0
-399,561,0,0,0,0,0,0,0,0,0,-1,825,463,0,0
-392,561,4.92407,-2.54578,0,0,0,0,0,0,0,-1,832,463,4.92408,2.54576
-385,561,5.55634,-1.02338,0,0,0,0,0,0,0,-1,839,463,5.55634,1.02338
-378,561,0.160522,-4.51785,0,0,0,0,0,0,0,-1,846,463,0.160542,4.51785
-371,561,2.62524,-27.795,0,0,0,0,0,0,0,-1,853,463,2.62525,27.7949
-364,561,3.72833,-30.5013,0,0,0,0,0,0,0,-1,860,463,3.72835,30.5013
-357,561,2.16742,-23.5582,0,0,0,0,0,0,0,-1,867,463,2.1674,23.5582
-350,561,1.33124,-11.9406,0,0,0,0,0,0,0,-1,874,463,1.33127,11.9406
-343,561,1.13214,-14.1837,0,0,0,0,0,0,0,-1,881,463,1.13217,14.1837
-336,561,2.91016,-36.595,0,0,0,0,0,0,0,-1,888,463,2.91014,36.595
-329,561,2.64795,-38.235,0,0,0,0,0,0,0,-1,895,463,2.64797,38.235
-322,561,2.44006,-39.0532,0,0,0,0,0,0,0,-1,902,463,2.44005,39.0532
-315,561,2.72113,-39.636,-0.00202299,0.0167839,-0.00798317,0.0197156,-0.00495469,-1.21885,0.0150693,0.0447158,909,463,2.72115,39.6359
-308,561,2.55231,-40.7711,-0.0019606,0.0144943,-0.00689355,0.0170006,-0.00446683,-1.22209,0.0130794,0.0306986,916,463,2.55229,40.7711
-301,561,2.4342,-41.9773,-0.00168707,0.0124012,-0.00602614,0.0146272,-0.003913,-1.21696,0.0112842,0.0174989,923,463,2.43418,41.9773
-294,561,2.34406,-42.9301,-0.00142622,0.010331,-0.00509184,0.0122296,-0.00332482,-1.21389,0.00945818,0.0128031,930,463,2.34404,42.9301
-287,561,2.27643,-43.852,-0.00118288,0.00870965,-0.00431971,0.0103304,-0.00280361,-1.21185,0.0079872,0.0110429,937,463,2.2764,43.852
-280,561,2.19617,-44.7856,-0.000799098,0.00731111,-0.00375934,0.00878561,-0.0022736,-1.19701,0.00674392,0.0131485,944,463,2.19617,44.7856
-273,561,2.08618,-45.7129,-0.000370611,0.00580654,-0.00318787,0.00715664,-0.00172071,-1.17019,0.00543621,0.0157753,951,463,2.08621,45.7129
-266,561,2.04126,-46.6257,3.17566e-05,0.00405266,-0.00247612,0.00523173,-0.00114732,-1.12639,0.00392654,0.0106378,958,463,2.04126,46.6257
-259,561,1.99121,-47.5578,0.000465472,0.00178285,-0.00170587,0.00295278,-0.000704461,-0.969645,0.00224056,0.0107605,965,463,1.99121,47.5578
-252,561,1.91748,-48.4413,0.000909746,-0.000567602,-0.000798769,0.00125904,-0.000916895,-0.412233,0.00126144,0.0158249,972,463,1.91751,48.4413
-245,561,1.8598,-49.3026,0.00137427,-0.002916,9.01037e-05,0.00137617,-0.00291789,0.0209895,0.00253188,0.0174102,979,463,1.8598,49.3026
-238,561,1.83691,-50.2117,0.00188004,-0.00559504,0.00106617,0.00202914,-0.00574414,0.13894,0.00465561,0.0141303,986,463,1.83694,50.2117
-231,561,1.77625,-51.1121,0.00241328,-0.00867405,0.00212616,0.00280703,-0.00906779,0.183114,0.00716652,0.0128041,993,463,1.77625,51.1121
-224,561,1.73529,-51.9757,0.00291047,-0.0116882,0.0032056,0.00358335,-0.012361,0.206904,0.0096593,0.0121194,1000,463,1.73528,51.9757
-217,561,1.73291,-52.8254,0.00340084,-0.0147677,0.0042622,0.00435102,-0.0157179,0.219346,0.0121906,0.0130713,1007,463,1.7329,52.8255
-210,561,1.72479,-53.6821,0.00391623,-0.0177925,0.00522547,0.00510856,-0.0189848,0.224335,0.0146592,0.0137715,1014,463,1.72482,53.6821
-203,561,1.69391,-54.5034,0.0046083,-0.0203189,0.00600452,0.00597928,-0.0216899,0.224476,0.0168113,0.0150439,1021,463,1.69393,54.5033
-196,561,1.58325,-55.2691,0.00550578,-0.0220981,0.0064431,0.00693562,-0.0235279,0.218379,0.0184372,0.017416,1028,463,1.5833,55.2691
-189,561,1.6283,-56.0416,0.00625406,-0.0237166,0.00688541,0.00776021,-0.0252228,0.215353,0.0199125,0.022358,1035,463,1.62834,56.0416
-182,561,1.72656,-56.7853,0.00716236,-0.0246789,0.00701916,0.00864101,-0.0261576,0.207624,0.0209222,0.0256483,1042,463,1.72654,56.7853
-175,561,1.6571,-57.5219,0.00836114,-0.0244039,0.00694621,0.00977291,-0.0258157,0.200512,0.0212316,0.0446407,1049,463,1.65711,57.5219
-168,561,1.55212,-58.2415,0,0,0,0,0,0,0,-1,1056,463,1.55211,58.2415
-161,561,1.71802,-58.9194,0,0,0,0,0,0,0,-1,1063,463,1.71801,58.9194
-154,561,1.98853,-60.294,0,0,0,0,0,0,0,-1,1070,463,1.9885,60.294
-147,561,2.27454,-61.1595,0,0,0,0,0,0,0,-1,1077,463,2.27457,61.1595
-140,561,2.1239,-59.8181,0,0,0,0,0,0,0,-1,1084,463,2.12391,59.818
-133,561,1.37939,-55.0099,0,0,0,0,0,0,0,-1,1091,463,1.37945,55.01
-126,561,1.77014,-49.4318,0,0,0,0,0,0,0,-1,1098,463,1.7702,49.4318
-119,561,-0.336304,-35.422,0,0,0,0,0,0,0,-1,1105,463,-0.336245,35.422
-112,561,1.24365,-29.1982,0,0,0,0,0,0,0,-1,1112,463,1.2437,29.1981
-105,561,0.530518,-13.5379,0,0,0,0,0,0,0,-1,1119,463,0.530477,13.5379
-98,561,1.5387,-7.54352,0,0,0,0,0,0,0,-1,1126,463,1.53871,7.54351
-91,561,1.29553,-6.57968,0,0,0,0,0,0,0,-1,1133,463,1.29549,6.5797
-84,561,1.23364,-5.84555,0,0,0,0,0,0,0,-1,1140,463,1.23363,5.84556
-77,561,-2.36023,1.00204,0,0,0,0,0,0,0,-1,1147,463,-2.3602,-1.00205
-70,561,-3.90015,-1.41541,0,0,0,0,0,0,0,-1,1154,463,-3.90009,1.4154
-63,561,-6.95691,-4.02756,0,0,0,0,0,0,0,-1,1161,463,-6.95696,4.02756
-56,561,-5.37988,-6.66855,0,0,0,0,0,0,0,-1,1168,463,-5.37988,6.66854
-49,561,-5.7439,-9.11029,0,0,0,0,0,0,0,-1,1175,463,-5.74387,9.1103
-42,561,-1.72644,-5.63065,0,0,0,0,0,0,0,-1,1182,463,-1.72648,5.63064
-35,561,-1.65674,-4.87994,0,0,0,0,0,0,0,-1,1189,463,-1.6567,4.87993
-28,561,-1.91418,-3.86896,0,0,0,0,0,0,0,-1,1196,463,-1.91414,3.86895
-21,561,10.5345,-74.36,0,0,0,0,0,0,0,-1,1203,463,10.5346,74.36
-14,561,10.616,-74.0719,0,0,0,0,0,0,0,-1,1210,463,10.6159,74.0719
-7,561,-8.10559,-70.0397,0,0,0,0,0,0,0,-1,1217,463,-8.10559,70.0397
0,561,-4.54724,-68.9276,0,0,0,0,0,0,0,-1,1224,463,-4.54728,68.9275
7,561,-3.03076,-69.5208,0.265314,0.0296561,0.0679731,0.283515,0.0114556,0.261622,0.185309,0.0458411,1231,463,-3.03076,69.5208
14,561,-1.55713,-70.0477,0.254363,0.0266794,0.0585199,0.268523,0.0125191,0.237411,0.174992,0.0414531,1238,463,-1.55713,70.0476
21,561,0.138062,-70.4783,0.235423,0.0213711,0.048459,0.245883,0.0109116,0.212581,0.160408,0.0430323,1245,463,0.138042,70.4783
28,561,4.02014,-71.5815,0.207988,0.0174017,0.0394156,0.215817,0.00957177,0.196099,0.140796,0.0451312,1252,463,4.02013,71.5816
35,561,4.78784,-71.7055,0.175593,0.0143517,0.0317388,0.181616,0.00832921,0.187523,0.118398,0.0417802,1259,463,4.78778,71.7055
42,561,5.53687,-71.8357,0.140995,0.0129319,0.0258036,0.145998,0.00792819,0.191538,0.0948002,0.04204,1266,463,5.53682,71.8357
49,561,6.23828,-71.9245,0.106997,0.0131053,0.0237354,0.112656,0.00744616,0.234056,0.0727491,0.043769,1273,463,6.23828,71.9245
56,561,6.73792,-72.1408,0.080956,0.0139551,0.0271049,0.0905479,0.0043631,0.34013,0.0589648,0.0419743,1280,463,6.73791,72.1408
63,561,7.06042,-72.668,0.0591025,0.0172056,0.0324766,0.0768007,-0.000492644,0.498961,0.0513655,0.0443528,1287,463,7.06038,72.668
70,561,6.97852,-72.8621,0.0438983,0.0202608,0.0417449,0.0754652,-0.0113061,0.647449,0.0544714,0.0481524,1294,463,6.9785,72.8621
77,561,6.43567,-72.5446,0.0397674,0.0211038,0.0566661,0.087865,-0.0269938,0.70379,0.0693485,0.0478088,1301,463,6.43563,72.5445
84,561,7.07202,-73.2904,0.0430594,0.0211553,0.0742547,0.107165,-0.0429507,0.712179,0.0892737,0.0447335,1308,463,7.07203,73.2904
91,561,7.29285,-73.7019,0.0578593,0.0221428,0.0940987,0.135779,-0.0557772,0.691622,0.113765,0.0407946,1315,463,7.29283,73.7019
98,561,7.47876,-74.055,0,0,0,0,0,0,0,-1,1322,463,7.47875,74.055
105,561,1.427,-69.6198,0.101925,0.0179647,0.131106,0.197607,-0.077718,0.630456,0.163906,0.0490477,1329,463,1.42699,69.6197
112,561,3.00647,-68.2814,0.127893,0.0139365,0.147695,0.229219,-0.0873897,0.601303,0.188809,0.0488827,1336,463,3.00646,68.2814
119,561,4.57654,-66.9341,0,0,0,0,0,0,0,-1,1343,463,4.57657,66.9342
126,561,4.87415,-65.9276,0.178473,0.00428426,0.168472,0.281032,-0.0982745,0.546834,0.227308,0.0413586,1350,463,4.87413,65.9276
133,561,5.84546,-65.2524,0.197599,-0.00079773,0.170291,0.295478,-0.0986764,0.521663,0.236832,0.0469678,1357,463,5.84542,65.2524
140,561,6.98511,-64.6786,0.210598,-0.00361143,0.165403,0.300546,-0.0935593,0.498078,0.237767,0.0477645,1364,463,6.98516,64.6786
147,561,9.76074,-63.7693,0,0,0,0,0,0,0,-1,1371,463,9.76074,63.7693
154,561,12.4769,-63.5789,0,0,0,0,0,0,0,-1,1378,463,12.477,63.5789
161,561,14.0837,-62.8703,0,0,0,0,0,0,0,-1,1385,463,14.0837,62.8703
168,561,-22.2305,-91.5089,0,0,0,0,0,0,0,-1,1392,463,-22.2305,91.5088
175,561,10.4185,0.276398,0,0,0,0,0,0,0,-1,1399,463,10.4185,-0.276394
182,561,6.45703,-4.02127,0,0,0,0,0,0,0,-1,1406,463,6.45704,4.02127
189,561,6.50854,-2.08685,0,0,0,0,0,0,0,-1,1413,463,6.50851,2.08686
196,561,6.44775,-0.27182,0,0,0,0,0,0,0,-1,1420,463,6.44773,0.271814
203,561,6.18591,1.1301,0,0,0,0,0,0,0,-1,1427,463,6.18592,-1.13009
210,561,5.68713,2.68427,0,0,0,0,0,0,0,-1,1434,463,5.6871,-2.68425
217,561,3.61743,-7.33582,0,0,0,0,0,0,0,-1,1441,463,3.61738,7.33581
224,561,4.27466,-8.59171,0,0,0,0,0,0,0,-1,1448,463,4.27466,8.59171
231,561,4.93188,-9.8476,0,0,0,0,0,0,0,-1,1455,463,4.93193,9.84761
238,561,2.18018,-5.18359,0,0,0,0,0,0,0,-1,1462,463,2.18023,5.18359
245,561,3.07568,-3.50238,0,0,0,0,0,0,0,-1,1469,463,3.0757,3.50238
252,561,3.47412,-3.71109,0,0,0,0,0,0,0,-1,1476,463,3.47413,3.71109
259,561,3.42212,-3.2334,0,0,0,0,0,0,0,-1,1483,463,3.42214,3.2334
266,561,4.44373,-5.90027,0,0,0,0,0,0,0,-1,1490,463,4.44372,5.90026
273,561,15.1434,-59.8598,0,0,0,0,0,0,0,-1,1497,463,15.1434,59.8598
280,561,15.4901,-59.7977,0,0,0,0,0,0,0,-1,1504,463,15.4901,59.7976
287,561,15.5441,-58.6381,0,0,0,0,0,0,0,-1,1511,463,15.5441,58.6381
294,561,15.63,-57.6742,0.00443958,-0.0234104,-0.00847013,0.00681331,-0.0257842,-0.273238,0.0198541,0.0444917,1518,463,15.6301,57.6742
301,561,15.4143,-57.1463,0.0041404,-0.0202937,-0.00794271,0.00649534,-0.0226487,-0.288234,0.0176668,0.0407962,1525,463,15.4143,57.1463
308,561,15.6102,-56.6794,0.00349472,-0.0176457,-0.00749124,0.00588013,-0.0200311,-0.308275,0.0156859,0.0336163,1532,463,15.6102,56.6794
315,561,15.6185,-56.0612,0.00292034,-0.0149958,-0.00680932,0.00521456,-0.01729,-0.324977,0.0136022,0.0232831,1539,463,15.6185,56.0611
322,561,15.5931,-55.3001,0.00248888,-0.0124317,-0.00597333,0.00458561,-0.0145285,-0.337578,0.0115225,0.023686,1546,463,15.5931,55.3001
329,561,15.532,-54.3804,0.00212444,-0.010008,-0.00507409,0.00396678,-0.0118504,-0.348287,0.00950263,0.0157228,1553,463,15.532,54.3804
336,561,15.5217,-53.5157,0.00175932,-0.00787391,-0.00425694,0.00337087,-0.00948546,-0.361897,0.00769736,0.0118152,1560,463,15.5217,53.5157
343,561,15.4944,-52.6844,0.00142281,-0.00576986,-0.00335129,0.00274224,-0.00708929,-0.375071,0.00585827,0.0117253,1567,463,15.4943,52.6844
350,561,15.4515,-51.8271,0.0013999,-0.00347701,-0.00224911,0.00227876,-0.00435587,-0.372514,0.00389257,0.0113589,1574,463,15.4516,51.8271
357,561,15.4188,-50.9493,0.00127791,-0.00180708,-0.00134591,0.00178255,-0.00231172,-0.358721,0.0023704,0.0106179,1581,463,15.4188,50.9494
364,561,15.3906,-50.093,0.0011256,-0.000585879,-0.000387916,0.00120942,-0.000669697,-0.212802,0.00109972,0.00952454,1588,463,15.3906,50.093
371,561,15.3241,-49.193,0.00107474,0.000514287,0.000458286,0.00133168,0.000257342,0.510994,0.000815655,0.0164694,1595,463,15.3241,49.193
378,561,15.2476,-48.2976,0.00100737,0.00160791,0.00116251,0.00250831,0.000106974,0.911782,0.00163771,0.0125235,1602,463,15.2476,48.2976
385,561,15.207,-47.3847,0.000902524,0.00278156,0.00174435,0.00382331,-0.000139234,1.03242,0.00259653,0.0114132,1609,463,15.207,47.3847
392,561,15.1461,-46.4886,0.000780683,0.00357055,0.00221049,0.00478945,-0.00043821,1.06687,0.00334861,0.0152612,1616,463,15.1461,46.4886
399,561,15.1139,-45.5984,0.000618604,0.00422664,0.00258529,0.00557512,-0.000729873,1.09002,0.00398239,0.0208657,1623,463,15.1139,45.5984
406,561,15.0778,-44.6428,0.000369075,0.00480397,0.00287952,0.0062209,-0.00104786,1.11351,0.00453707,0.0193487,1630,463,15.0777,44.6428
413,561,15.0256,-43.67,-0.000134744,0.00516299,0.00304297,0.00654849,-0.00152025,1.14353,0.00495083,0.0174506,1637,463,15.0256,43.67
420,561,14.9178,-42.757,-0.000988903,0.00524137,0.0030266,0.00646955,-0.00221708,1.1853,0.00521169,0.0138163,1644,463,14.9179,42.757
427,561,14.8574,-41.7926,-0.00206839,0.00507403,0.00283266,0.00606106,-0.00305541,1.23551,0.0053579,0.0110795,1651,463,14.8575,41.7926
434,561,14.8065,-40.8235,-0.00308845,0.0050021,0.0027004,0.00582062,-0.00390696,1.27649,0.00565233,0.0149885,1658,463,14.8065,40.8235
441,561,14.757,-39.9053,-0.00445274,0.00479481,0.00253143,0.00544242,-0.00510034,1.32034,0.00608793,0.0193339,1665,463,14.7569,39.9053
448,561,14.7052,-38.8817,-0.00610236,0.00444653,0.00227775,0.00491733,-0.00657317,1.36697,0.00665697,0.024481,1672,463,14.7051,38.8817
455,561,14.693,-37.8035,-0.00809264,0.00404227,0.00208376,0.00439011,-0.00844048,1.40539,0.00752978,0.0435572,1679,463,14.6929,37.8035
462,561,14.5608,-36.924,-0.0103134,0.00366035,0.00185313,0.00390193,-0.0105549,1.44117,0.00863626,0.0409261,1686,463,14.5608,36.924
469,561,14.2714,-36.0644,-0.0127778,0.0033097,0.00169735,0.00348683,-0.0129549,1.46681,0.0100035,0.0248007,1693,463,14.2714,36.0644
476,561,13.9392,-35.2563,-0.0155191,0.00270596,0.00138639,0.00281082,-0.015624,1.49531,0.0114683,0.0433805,1700,463,13.9392,35.2563
483,561,13.6047,-34.4468,0,0,0,0,0,0,0,-1,1707,463,13.6048,34.4468
490,561,10.2549,-20.4551,0,0,0,0,0,0,0,-1,1714,463,10.2548,20.4551
497,561,11.7618,-20.3894,0,0,0,0,0,0,0,-1,1721,463,11.7618,20.3894
504,561,12.9351,-20.1285,0,0,0,0,0,0,0,-1,1728,463,12.935,20.1285
511,561,0,0,0,0,0,0,0,0,0,-1,1735,463,0,0
518,561,0,0,0,0,0,0,0,0,0,-1,1742,463,0,0
525,561,0,0,0,0,0,0,0,0,0,-1,1749,463,0,0
532,561,0,0,0,0,0,0,0,0,0,-1,1756,463,0,0
539,561,0,0,0,0,0,0,0,0,0,-1,1763,463,0,0
546,561,0,0,0,0,0,0,0,0,0,-1,1770,463,0,0
553,561,0,0,0,0,0,0,0,0,0,-1,1777,463,0,0
560,561,0,0,0,0,0,0,0,0,0,-1,1784,463,0,0
567,561,0,0,0,0,0,0,0,0,0,-1,1791,463,0,0
574,561,0,0,0,0,0,0,0,0,0,-1,1798,463,0,0
581,561,0,0,0,0,0,0,0,0,0,-1,1805,463,0,0
588,561,0,0,0,0,0,0,0,0,0,-1,1812,463,0,0
595,561,0,0,0,0,0,0,0,0,0,-1,1819,463,0,0
602,561,0,0,0,0,0,0,0,0,0,-1,1826,463,0,0
609,561,0,0,0,0,0,0,0,0,0,-1,1833,463,0,0
616,561,0,0,0,0,0,0,0,0,0,-1,1840,463,0,0
623,561,0,0,0,0,0,0,0,0,0,-1,1847,463,0,0
630,561,0,0,0,0,0,0,0,0,0,-1,1854,463,0,0
637,561,0,0,0,0,0,0,0,0,0,-1,1861,463,0,0
644,561,0,0,0,0,0,0,0,0,0,-1,1868,463,0,0
651,561,0,0,0,0,0,0,0,0,0,-1,1875,463,0,0
658,561,0,0,0,0,0,0,0,0,0,-1,1882,463,0,0
665,561,0,0,0,0,0,0,0,0,0,-1,1889,463,0,0
672,561,0,0,0,0,0,0,0,0,0,-1,1896,463,0,0
679,561,0,0,0,0,0,0,0,0,0,-1,1903,463,0,0
686,561,0,0,0,0,0,0,0,0,0,-1,1910,463,0,0
693,561,0,0,0,0,0,0,0,0,0,-1,1917,463,0,0
700,561,0,0,0,0,0,0,0,0,0,-1,1924,463,0,0
707,561,0,0,0,0,0,0,0,0,0,-1,1931,463,0,0
714,561,0,0,0,0,0,0,0,0,0,-1,1938,463,0,0
721,561,0,0,0,0,0,0,0,0,0,-1,1945,463,0,0
728,561,0,0,0,0,0,0,0,0,0,-1,1952,463,0,0
735,561,0,0,0,0,0,0,0,0,0,-1,1959,463,0,0
742,561,0,0,0,0,0,0,0,0,0,-1,1966,463,0,0
749,561,0,0,0,0,0,0,0,0,0,-1,1973,463,0,0
756,561,0,0,0,0,0,0,0,0,0,-1,1980,463,0,0
763,561,0,0,0,0,0,0,0,0,0,-1,1987,463,0,0
770,561,0,0,0,0,0,0,0,0,0,-1,1994,463,0,0
777,561,0,0,0,0,0,0,0,0,0,-1,2001,463,0,0
784,561,0,0,0,0,0,0,0,0,0,-1,2008,463,0,0
791,561,0,0,0,0,0,0,0,0,0,-1,2015,463,0,0
798,561,0,0,0,0,0,0,0,0,0,-1,2022,463,0,0
805,561,0,0,0,0,0,0,0,0,0,-1,2029,463,0,0
812,561,0,0,0,0,0,0,0,0,0,-1,2036,463,0,0
-700,554,0,0,0,0,0,0,0,0,0,-1,524,470,0,0
-693,554,0,0,0,0,0,0,0,0,0,-1,531,470,0,0
-686,554,0,0,0,0,0,0,0,0,0,-1,538,470,0,0
-679,554,0,0,0,0,0,0,0,0,0,-1,545,470,0,0
-672,554,0,0,0,0,0,0,0,0,0,-1,552,470,0,0
-665,554,0,0,0,0,0,0,0,0,0,-1,559,470,0,0
-658,554,0,0,0,0,0,0,0,0,0,-1,566,470,0,0
-651,554,0,0,0,0,0,0,0,0,0,-1,573,470,0,0
-644,554,0,0,0,0,0,0,0,0,0,-1,580,470,0,0
-637,554,0,0,0,0,0,0,0,0,0,-1,587,470,0,0
-630,554,0,0,0,0,0,0,0,0,0,-1,594,470,0,0
-623,554,0,0,0,0,0,0,0,0,0,-1,601,470,0,0
-616,554,0,0,0,0,0,0,0,0,0,-1,608,470,0,0
-609,554,0,0,0,0,0,0,0,0,0,-1,615,470,0,0
-602,554,0,0,0,0,0,0,0,0,0,-1,622,470,0,0
-595,554,0,0,0,0,0,0,0,0,0,-1,629,470,0,0
-588,554,0,0,0,0,0,0,0,0,0,-1,636,470,0,0
-581,554,0,0,0,0,0,0,0,0,0,-1,643,470,0,0
-574,554,0,0,0,0,0,0,0,0,0,-1,650,470,0,0
-567,554,0,0,0,0,0,0,0,0,0,-1,657,470,0,0
-560,554,0,0,0,0,0,0,0,0,0,-1,664,470,0,0
-553,554,0,0,0,0,0,0,0,0,0,-1,671,470,0,0
-546,554,0,0,0,0,0,0,0,0,0,-1,678,470,0,0
-539,554,0,0,0,0,0,0,0,0,0,-1,685,470,0,0
-532,554,0,0,0,0,0,0,0,0,0,-1,692,470,0,0
-525,554,0,0,0,0,0,0,0,0,0,-1,699,470,0,0
-518,554,0,0,0,0,0,0,0,0,0,-1,706,470,0,0
-511,554,0,0,0,0,0,0,0,0,0,-1,713,470,0,0
-504,554,0,0,0,0,0,0,0,0,0,-1,720,470,0,0
-497,554,0,0,0,0,0,0,0,0,0,-1,727,470,0,0
-490,554,0,0,0,0,0,0,0,0,0,-1,734,470,0,0
-483,554,0,0,0,0,0,0,0,0,0,-1,741,470,0,0
-476,554,0,0,0,0,0,0,0,0,0,-1,748,470,0,0
-469,554,0,0,0,0,0,0,0,0,0,-1,755,470,0,0
-462,554,0,0,0,0,0,0,0,0,0,-1,762,470,0,0
-455,554,0,0,0,0,0,0,0,0,0,-1,769,470,0,0
-448,554,0,0,0,0,0,0,0,0,0,-1,776,470,0,0
-441,554,0,0,0,0,0,0,0,0,0,-1,783,470,0,0
-434,554,0,0,0,0,0,0,0,0,0,-1,790,470,0,0
-427,554,0,0,0,0,0,0,0,0,0,-1,797,470,0,0
-420,554,0,0,0,0,0,0,0,0,0,-1,804,470,0,0
-413,554,0,0,0,0,0,0,0,0,0,-1,811,470,0,0
-406,554,0,0,0,0,0,0,0,0,0,-1,818,470,0,0
-399,554,-1.32275,-3.95142,0,0,0,0,0,0,0,-1,825,470,-1.32275,3.95141
-392,554,-1.35632,-3.7406,0,0,0,0,0,0,0,-1,832,470,-1.35632,3.7406
-385,554,1.54614,-28.7236,0,0,0,0,0,0,0,-1,839,470,1.54616,28.7236
-378,554,1.92175,-29.1808,0,0,0,0,0,0,0,-1,846,470,1.92174,29.1808
-371,554,2.90704,-29.4795,0,0,0,0,0,0,0,-1,853,470,2.90703,29.4795
-364,554,2.69928,-30.6884,0,0,0,0,0,0,0,-1,860,470,2.69926,30.6884
-357,554,2.43024,-31.9178,0,0,0,0,0,0,0,-1,867,470,2.43024,31.9178
-350,554,1.17157,-18.1341,0,0,0,0,0,0,0,-1,874,470,1.17156,18.1341
-343,554,1.95825,-35.7383,0,0,0,0,0,0,0,-1,881,470,1.95825,35.7382
-336,554,2.01953,-36.9591,0,0,0,0,0,0,0,-1,888,470,2.01955,36.9591
-329,554,1.7793,-38.099,-0.000738378,0.0177253,-0.00936106,0.0216409,-0.00465402,-1.17462,0.016203,0.0281932,895,470,1.77931,38.099
-322,554,1.63611,-39.0374,-0.00131288,0.0150681,-0.00752397,0.0179994,-0.00424418,-1.19929,0.0136363,0.0208533,902,470,1.63609,39.0374
-315,554,1.61444,-39.9707,-0.00146498,0.012967,-0.00628798,0.0153223,-0.00382026,-1.2124,0.0116981,0.0185928,909,470,1.61447,39.9707
-308,554,1.55609,-40.9507,-0.00141028,0.0110416,-0.00527271,0.0129743,-0.00334301,-1.21945,0.00995282,0.0157132,916,470,1.5561,40.9506
-301,554,1.49762,-41.9529,-0.00118241,0.00924464,-0.00445931,0.0108916,-0.00282937,-1.21701,0.00836524,0.0155328,923,470,1.49762,41.9529
-294,554,1.41211,-42.887,-0.000905046,0.00744427,-0.00359261,0.00877731,-0.00223808,-1.2155,0.00672291,0.0142349,930,470,1.41211,42.8869
-287,554,1.33936,-43.8106,-0.000605752,0.00600127,-0.00285966,0.00706706,-0.00167154,-1.21404,0.00535622,0.0134951,937,470,1.33937,43.8106
-280,554,1.25018,-44.7399,-0.000237756,0.00451241,-0.00232197,0.00545885,-0.0011842,-1.18375,0.0040915,0.0120089,944,470,1.25021,44.7399
-273,554,1.15796,-45.6763,0.000142524,0.00284049,-0.0017192,0.00367678,-0.000693767,-1.11805,0.00271218,0.0163216,951,470,1.15797,45.6763
-266,554,1.11285,-46.6031,0.000560536,0.000951977,-0.000966684,0.00174256,-0.000230042,-0.885281,0.00124549,0.013589,958,470,1.11285,46.6031
-259,554,1.08496,-47.4567,0.00100843,-0.00155336,-0.000149972,0.00101718,-0.00156211,-0.0582763,0.00150019,0.013003,965,470,1.08496,47.4567
-252,554,1.00665,-48.3433,0.00146483,-0.00424706,0.000826093,0.0015819,-0.00436414,0.140785,0.00355601,0.0158099,972,470,1.00666,48.3432
-245,554,0.957886,-49.2433,0.00193536,-0.00698997,0.00177796,0.0022765,-0.0073311,0.189566,0.00579719,0.016396,979,470,0.957857,49.2433
-238,554,0.962158,-50.1646,0.00245904,-0.0101132,0.00283065,0.00306697,-0.0107211,0.211552,0.00835942,0.0119579,986,470,0.962138,50.1646
-231,554,0.919556,-51.0648,0.00303509,-0.0137326,0.00399324,0.00393751,-0.0146351,0.222254,0.0113002,0.0111963,993,470,0.91958,51.0648
-224,554,0.893066,-51.9121,0.00357787,-0.017268,0.00518189,0.00479493,-0.0184851,0.230688,0.0141943,0.0109696,1000,470,0.893088,51.9121
-217,554,0.880859,-52.7623,0.00412359,-0.0208961,0.00636639,0.00565038,-0.0224229,0.235375,0.0171453,0.0116936,1007,470,0.880836,52.7623
-210,554,0.869873,-53.5886,0.00469682,-0.0244934,0.00745196,0.00648917,-0.0262858,0.236037,0.0200402,0.0154848,1014,470,0.869884,53.5887
-203,554,0.831909,-54.3429,0.00546027,-0.0275701,0.0083381,0.00744577,-0.0295556,0.23377,0.0225983,0.0244385,1021,470,0.83192,54.3429
-196,554,0.873291,-55.0178,0.00650626,-0.0297551,0.00881425,0.00853525,-0.0317841,0.226254,0.0245345,0.0323932,1028,470,0.873242,55.0178
-189,554,0.934448,-55.6459,0.00739995,-0.0317825,0.00928966,0.00949083,-0.0338734,0.221387,0.0263225,0.0368463,1035,470,0.9344,55.646
-182,554,0.991455,-56.1349,0.00846607,-0.0330015,0.00935608,0.0104793,-0.0350147,0.211946,0.0275098,0.0449004,1042,470,0.991433,56.1349
-175,554,0.825684,-57.2318,0,0,0,0,0,0,0,-1,1049,470,0.825646,57.2318
-168,554,1.8866,-48.7592,0,0,0,0,0,0,0,-1,1056,470,1.88665,48.7591
-161,554,1.09583,-42.015,0,0,0,0,0,0,0,-1,1063,470,1.09577,42.015
-154,554,1.03186,-42.7216,0,0,0,0,0,0,0,-1,1070,470,1.03187,42.7216
-147,554,1.4552,-41.5187,0,0,0,0,0,0,0,-1,1077,470,1.45525,41.5187
-140,554,0.428101,-38.9893,0,0,0,0,0,0,0,-1,1084,470,0.428152,38.9893
-133,554,2.67163,-32.8187,0,0,0,0,0,0,0,-1,1091,470,2.67161,32.8187
-126,554,0.851929,-33.5393,0,0,0,0,0,0,0,-1,1098,470,0.851942,33.5393
-119,554,-1.03479,-32.1628,0,0,0,0,0,0,0,-1,1105,470,-1.03476,32.1628
-112,554,1.03162,-24.5784,0,0,0,0,0,0,0,-1,1112,470,1.03156,24.5784
-105,554,0.608765,-21.0475,0,0,0,0,0,0,0,-1,1119,470,0.608728,21.0475
-98,554,1.51929,-7.3624,0,0,0,0,0,0,0,-1,1126,470,1.51928,7.36241
-91,554,1.41089,-6.5864,0,0,0,0,0,0,0,-1,1133,470,1.41093,6.58638
-84,554,1.62305,-5.87186,0,0,0,0,0,0,0,-1,1140,470,1.62299,5.87186
-77,554,-2.56958,1.33258,0,0,0,0,0,0,0,-1,1147,470,-2.56959,-1.33257
-70,554,-3.68164,-1.18332,0,0,0,0,0,0,0,-1,1154,470,-3.68158,1.18331
-63,554,-4.86853,-3.88708,0,0,0,0,0,0,0,-1,1161,470,-4.86853,3.88708
-56,554,-5.69958,-6.45422,0,0,0,0,0,0,0,-1,1168,470,-5.69955,6.45422
-49,554,-6.23645,-8.8569,0,0,0,0,0,0,0,-1,1175,470,-6.23643,8.85689
-42,554,-6.62524,-11.5382,0,0,0,0,0,0,0,-1,1182,470,-6.62522,11.5382
-35,554,-2.40173,-4.59482,0,0,0,0,0,0,0,-1,1189,470,-2.40169,4.59481
-28,554,-0.760132,-1.65555,0,0,0,0,0,0,0,-1,1196,470,-0.760095,1.65556
-21,554,6.35388,-60.5687,0,0,0,0,0,0,0,-1,1203,470,6.35392,60.5687
-14,554,-11.1489,-68.798,0,0,0,0,0,0,0,-1,1210,470,-11.1489,68.798
-7,554,-9.21252,-69.2849,0,0,0,0,0,0,0,-1,1217,470,-9.21255,69.2848
0,554,-6.57068,-68.97,0,0,0,0,0,0,0,-1,1224,470,-6.57062,68.97
7,554,-4.90149,-69.4948,0.310321,0.0369548,0.0834223,0.333768,0.0135081,0.273991,0.218149,0.0483078,1231,470,-4.90152,69.4948
14,554,-3.21313,-70.0325,0.293736,0.0343551,0.0688411,0.310874,0.0172167,0.243996,0.201756,0.0438806,1238,470,-3.21313,70.0325
21,554,3.51599,-71.6074,0,0,0,0,0,0,0,-1,1245,470,3.51604,71.6074
28,554,4.28308,-71.6174,0.229404,0.022222,0.0407287,0.237123,0.014503,0.187302,0.153476,0.0441352,1252,470,4.2831,71.6174
35,554,4.87244,-71.574,0.191143,0.0177761,0.0305901,0.196382,0.0125369,0.169626,0.126949,0.0409065,1259,470,4.87246,71.574
42,554,5.44629,-71.7252,0.153599,0.0146725,0.0220657,0.15702,0.011252,0.153789,0.101138,0.042229,1266,470,5.44632,71.7251
49,554,6.08142,-71.8848,0.116167,0.013352,0.0173993,0.119032,0.0104874,0.163178,0.0760999,0.0441395,1273,470,6.0814,71.8848
56,554,6.60999,-72.1451,0.0909786,0.0127557,0.0199513,0.0957734,0.00796091,0.235853,0.0613676,0.0427723,1280,470,6.60996,72.1451
63,554,6.6908,-72.4608,0.0709696,0.0152501,0.0247,0.0803423,0.00587735,0.362677,0.0517139,0.0431643,1287,470,6.69084,72.4608
70,554,6.60144,-72.9237,0.056782,0.0174455,0.0333675,0.0758465,-0.00161901,0.519088,0.0511126,0.0479834,1294,470,6.60144,72.9237
77,554,6.53735,-73.0069,0.0549724,0.0170435,0.0482121,0.0878158,-0.0157999,0.598016,0.0644592,0.0460103,1301,470,6.53741,73.0069
84,554,6.55652,-73.4568,0.0608208,0.0161389,0.0660484,0.108204,-0.0312447,0.622313,0.0844992,0.0424712,1308,470,6.55654,73.4568
91,554,7.00537,-73.8531,0.0783303,0.0173768,0.0870054,0.140042,-0.0443352,0.616933,0.111128,0.0413362,1315,470,7.00542,73.8531
98,554,7.81982,-74.1363,0,0,0,0,0,0,0,-1,1322,470,7.81981,74.1363
105,554,8.54614,-74.3385,0,0,0,0,0,0,0,-1,1329,470,8.5462,74.3385
112,554,1.06824,-69.2762,0,0,0,0,0,0,0,-1,1336,470,1.06822,69.2762
119,554,2.62195,-67.9114,0,0,0,0,0,0,0,-1,1343,470,2.62195,67.9114
126,554,5.42041,-66.5612,0,0,0,0,0,0,0,-1,1350,470,5.42044,66.5612
133,554,5.06299,-64.6213,0,0,0,0,0,0,0,-1,1357,470,5.063,64.6213
140,554,6.03418,-64.1188,0,0,0,0,0,0,0,-1,1364,470,6.03414,64.1188
147,554,10.3219,-64.233,0,0,0,0,0,0,0,-1,1371,470,10.3219,64.233
154,554,12.0842,-63.6124,0.249536,0.00136541,0.1543,0.323455,-0.0725533,0.446755,0.243452,0.0441745,1378,470,12.0842,63.6124
161,554,13.8387,-63.0013,0,0,0,0,0,0,0,-1,1385,470,13.8388,63.0014
168,554,15.6578,-62.3486,0,0,0,0,0,0,0,-1,1392,470,15.6578,62.3486
175,554,10.663,0.286957,0,0,0,0,0,0,0,-1,1399,470,10.663,-0.286966
182,554,6.71106,-4.50217,0,0,0,0,0,0,0,-1,1406,470,6.71107,4.50215
189,554,6.90479,-2.50348,0,0,0,0,0,0,0,-1,1413,470,6.90477,2.50348
196,554,6.96216,-0.740906,0,0,0,0,0,0,0,-1,1420,470,6.96214,0.740912
203,554,6.43518,0.414154,0,0,0,0,0,0,0,-1,1427,470,6.43523,-0.414141
210,554,6.21167,1.96707,0,0,0,0,0,0,0,-1,1434,470,6.21165,-1.96706
217,554,5.64551,3.4989,0,0,0,0,0,0,0,-1,1441,470,5.64555,-3.49891
224,554,4.85144,-8.85172,0,0,0,0,0,0,0,-1,1448,470,4.85146,8.85173
231,554,3.25073,-5.29642,0,0,0,0,0,0,0,-1,1455,470,3.25078,5.29642
238,554,4.28625,-3.25253,0,0,0,0,0,0,0,-1,1462,470,4.28622,3.25252
245,554,4.0752,-2.90033,0,0,0,0,0,0,0,-1,1469,470,4.07515,2.90032
252,554,3.52112,-0.934998,0,0,0,0,0,0,0,-1,1476,470,3.52113,0.934996
259,554,3.96448,-2.16425,0,0,0,0,0,0,0,-1,1483,470,3.96446,2.16424
266,554,3.0592,-2.71716,0,0,0,0,0,0,0,-1,1490,470,3.05923,2.71718
273,554,2.58521,-3.06876,0,0,0,0,0,0,0,-1,1497,470,2.58524,3.06874
280,554,16.0126,-58.3292,0,0,0,0,0,0,0,-1,1504,470,16.0126,58.3292
287,554,15.8918,-56.7317,0,0,0,0,0,0,0,-1,1511,470,15.8918,56.7317
294,554,16.5519,-56.817,0,0,0,0,0,0,0,-1,1518,470,16.5519,56.817
301,554,15.9326,-56.4485,0,0,0,0,0,0,0,-1,1525,470,15.9326,56.4485
308,554,16.5389,-56.5446,0,0,0,0,0,0,0,-1,1532,470,16.539,56.5446
315,554,16.5272,-56.037,0,0,0,0,0,0,0,-1,1539,470,16.5273,56.037
322,554,16.4795,-55.3856,0,0,0,0,0,0,0,-1,1546,470,16.4795,55.3856
329,554,16.411,-54.0533,0.00222978,-0.0130952,-0.00681431,0.00482149,-0.0156869,-0.363439,0.0123821,0.0420663,1553,470,16.411,54.0533
336,554,16.3535,-53.4258,0.00186467,-0.0105311,-0.00590016,0.00422399,-0.0128904,-0.380397,0.0102946,0.0250399,1560,470,16.3535,53.4259
343,554,16.3115,-52.6589,0.00152803,-0.00813422,-0.00492587,0.00359647,-0.0102027,-0.397554,0.00826565,0.0163399,1567,470,16.3115,52.6589
350,554,16.3103,-51.7656,0.00158396,-0.00555945,-0.00371588,0.00316636,-0.00714185,-0.402589,0.00609719,0.0112428,1574,470,16.3103,51.7656
357,554,16.3019,-50.8873,0.00144789,-0.00383273,-0.00280858,0.00266237,-0.0050472,-0.408135,0.00452155,0.0116581,1581,470,16.3019,50.8873
364,554,16.2537,-50.0496,0.00125344,-0.00263577,-0.00182143,0.00197325,-0.00335558,-0.37635,0.00311091,0.00902717,1588,470,16.2536,50.0496
371,554,16.1881,-49.1624,0.00120208,-0.00156738,-0.000970428,0.00150827,-0.00187356,-0.305634,0.0019563,0.00948006,1595,470,16.1881,49.1623
378,554,16.1346,-48.2354,0.00114399,-0.000412252,-0.000222696,0.00117523,-0.000443492,-0.139373,0.000965873,0.011699,1602,470,16.1347,48.2353
385,554,16.1093,-47.3262,0.00107163,0.00090673,0.000481069,0.00147727,0.000501098,0.700526,0.000867476,0.0108766,1609,470,16.1092,47.3262
392,554,16.0826,-46.3929,0.000965949,0.00180878,0.00103613,0.00250592,0.000268809,0.978541,0.00158861,0.0133932,1616,470,16.0826,46.3929
399,554,16.0254,-45.4666,0.000818412,0.00254716,0.0014773,0.00339438,-2.88087e-05,1.0501,0.00227258,0.0174069,1623,470,16.0254,45.4665
406,554,15.972,-44.5388,0.000598721,0.00318747,0.00185533,0.00415532,-0.000369126,1.08997,0.00290109,0.0174538,1630,470,15.972,44.5388
413,554,15.9139,-43.6336,0.000235155,0.00373618,0.00216406,0.00476909,-0.000797755,1.12547,0.00347596,0.0160666,1637,470,15.914,43.6336
420,554,15.8469,-42.7071,-0.000421904,0.00399279,0.00227903,0.0049582,-0.00138731,1.17011,0.00385209,0.0168031,1644,470,15.847,42.7071
427,554,15.79,-41.7566,-0.00129623,0.0039551,0.00220908,0.00476078,-0.00210191,1.22107,0.0040601,0.0125531,1651,470,15.7901,41.7566
434,554,15.7079,-40.8218,-0.00209908,0.00394882,0.00220531,0.00466755,-0.00281781,1.25574,0.00436543,0.0114915,1658,470,15.7079,40.8218
441,554,15.6578,-39.8716,-0.00313429,0.00388614,0.00220054,0.00451887,-0.00376701,1.29082,0.00479042,0.0126035,1665,470,15.6578,39.8715
448,554,15.5869,-38.8592,-0.00438635,0.00370514,0.00213726,0.00423498,-0.00491619,1.32779,0.0052883,0.0166421,1672,470,15.5869,38.8592
455,554,15.4926,-37.9104,-0.00584536,0.0034904,0.0021115,0.00394575,-0.00630071,1.35839,0.00596765,0.0183393,1679,470,15.4926,37.9104
462,554,15.3955,-36.992,-0.00737397,0.00331471,0.00207846,0.00370465,-0.00776391,1.38534,0.00675821,0.0215955,1686,470,15.3956,36.992
469,554,15.172,-36.0416,-0.00900308,0.00316681,0.0021086,0.00352179,-0.00935807,1.40401,0.00768646,0.0270291,1693,470,15.172,36.0416
476,554,14.9597,-35.0864,-0.0107146,0.00293655,0.00206805,0.00324297,-0.011021,1.4237,0.00863378,0.0460909,1700,470,14.9598,35.0864
483,554,14.7952,-34.1143,0,0,0,0,0,0,0,-1,1707,470,14.7952,34.1143
490,554,12.5504,-17.9805,0,0,0,0,0,0,0,-1,1714,470,12.5505,17.9805
497,554,14.3204,-17.9055,0,0,0,0,0,0,0,-1,1721,470,14.3204,17.9055
504,554,2.13257,-3.81628,0,0,0,0,0,0,0,-1,1728,470,2.1326,3.8163
511,554,1.31396,-4.02713,0,0,0,0,0,0,0,-1,1735,470,1.31398,4.02712
518,554,5.04236,-5.9472,0,0,0,0,0,0,0,-1,1742,470,5.04231,5.94721
525,554,0,0,0,0,0,0,0,0,0,-1,1749,470,0,0
532,554,0,0,0,0,0,0,0,0,0,-1,1756,470,0,0
539,554,0,0,0,0,0,0,0,0,0,-1,1763,470,0,0
546,554,0,0,0,0,0,0,0,0,0,-1,1770,470,0,0
553,554,0,0,0,0,0,0,0,0,0,-1,1777,470,0,0
560,554,0,0,0,0,0,0,0,0,0,-1,1784,470,0,0
567,554,0,0,0,0,0,0,0,0,0,-1,1791,470,0,0
574,554,0,0,0,0,0,0,0,0,0,-1,1798,470,0,0
581,554,0,0,0,0,0,0,0,0,0,-1,1805,470,0,0
588,554,0,0,0,0,0,0,0,0,0,-1,1812,470,0,0
595,554,0,0,0,0,0,0,0,0,0,-1,1819,470,0,0
602,554,0,0,0,0,0,0,0,0,0,-1,1826,470,0,0
609,554,0,0,0,0,0,0,0,0,0,-1,1833,470,0,0
616,554,0,0,0,0,0,0,0,0,0,-1,1840,470,0,0
623,554,0,0,0,0,0,0,0,0,0,-1,1847,470,0,0
630,554,0,0,0,0,0,0,0,0,0,-1,1854,470,0,0
637,554,0,0,0,0,0,0,0,0,0,-1,1861,470,0,0
644,554,0,0,0,0,0,0,0,0,0,-1,1868,470,0,0
651,554,0,0,0,0,0,0,0,0,0,-1,1875,470,0,0
658,554,0,0,0,0,0,0,0,0,0,-1,1882,470,0,0
665,554,0,0,0,0,0,0,0,0,0,-1,1889,470,0,0
672,554,0,0,0,0,0,0,0,0,0,-1,1896,470,0,0
679,554,0,0,0,0,0,0,0,0,0,-1,1903,470,0,0
686,554,0,0,0,0,0,0,0,0,0,-1,1910,470,0,0
693,554,0,0,0,0,0,0,0,0,0,-1,1917,470,0,0
700,554,0,0,0,0,0,0,0,0,0,-1,1924,470,0,0
707,554,0,0,0,0,0,0,0,0,0,-1,1931,470,0,0
714,554,0,0,0,0,0,0,0,0,0,-1,1938,470,0,0
721,554,0,0,0,0,0,0,0,0,0,-1,1945,470,0,0
728,554,0,0,0,0,0,0,0,0,0,-1,1952,470,0,0
735,554,0,0,0,0,0,0,0,0,0,-1,1959,470,0,0
742,554,0,0,0,0,0,0,0,0,0,-1,1966,470,0,0
749,554,0,0,0,0,0,0,0,0,0,-1,1973,470,0,0
756,554,0,0,0,0,0,0,0,0,0,-1,1980,470,0,0
763,554,0,0,0,0,0,0,0,0,0,-1,1987,470,0,0
770,554,0,0,0,0,0,0,0,0,0,-1,1994,470,0,0
777,554,0,0,0,0,0,0,0,0,0,-1,2001,470,0,0
784,554,0,0,0,0,0,0,0,0,0,-1,2008,470,0,0
791,554,0,0,0,0,0,0,0,0,0,-1,2015,470,0,0
798,554,0,0,0,0,0,0,0,0,0,-1,2022,470,0,0
805,554,0,0,0,0,0,0,0,0,0,-1,2029,470,0,0
812,554,0,0,0,0,0,0,0,0,0,-1,2036,470,0,0
-700,547,0,0,0,0,0,0,0,0,0,-1,524,477,0,0
-693,547,0,0,0,0,0,0,0,0,0,-1,531,477,0,0
-686,547,0,0,0,0,0,0,0,0,0,-1,538,477,0,0
-679,547,0,0,0,0,0,0,0,0,0,-1,545,477,0,0
-672,547,0,0,0,0,0,0,0,0,0,-1,552,477,0,0
-665,547,0,0,0,0,0,0,0,0,0,-1,559,477,0,0
-658,547,0,0,0,0,0,0,0,0,0,-1,566,477,0,0
-651,547,0,0,0,0,0,0,0,0,0,-1,573,477,0,0
-644,547,0,0,0,0,0,0,0,0,0,-1,580,477,0,0
-637,547,0,0,0,0,0,0,0,0,0,-1,587,477,0,0
-630,547,0,0,0,0,0,0,0,0,0,-1,594,477,0,0
-623,547,0,0,0,0,0,0,0,0,0,-1,601,477,0,0
-616,547,0,0,0,0,0,0,0,0,0,-1,608,477,0,0
-609,547,0,0,0,0,0,0,0,0,0,-1,615,477,0,0
-602,547,0,0,0,0,0,0,0,0,0,-1,622,477,0,0
-595,547,0,0,0,0,0,0,0,0,0,-1,629,477,0,0
-588,547,0,0,0,0,0,0,0,0,0,-1,636,477,0,0
-581,547,0,0,0,0,0,0,0,0,0,-1,643,477,0,0
-574,547,0,0,0,0,0,0,0,0,0,-1,650,477,0,0
-567,547,0,0,0,0,0,0,0,0,0,-1,657,477,0,0
-560,547,0,0,0,0,0,0,0,0,0,-1,664,477,0,0
-553,547,0,0,0,0,0,0,0,0,0,-1,671,477,0,0
-546,547,0,0,0,0,0,0,0,0,0,-1,678,477,0,0
-539,547,0,0,0,0,0,0,0,0,0,-1,685,477,0,0
-532,547,0,0,0,0,0,0,0,0,0,-1,692,477,0,0
-525,547,0,0,0,0,0,0,0,0,0,-1,699,477,0,0
-518,547,0,0,0,0,0,0,0,0,0,-1,706,477,0,0
-511,547,0,0,0,0,0,0,0,0,0,-1,713,477,0,0
-504,547,0,0,0,0,0,0,0,0,0,-1,720,477,0,0
-497,547,0,0,0,0,0,0,0,0,0,-1,727,477,0,0
-490,547,0,0,0,0,0,0,0,0,0,-1,734,477,0,0
-483,547,0,0,0,0,0,0,0,0,0,-1,741,477,0,0
-476,547,0,0,0,0,0,0,0,0,0,-1,748,477,0,0
-469,547,0,0,0,0,0,0,0,0,0,-1,755,477,0,0
-462,547,0,0,0,0,0,0,0,0,0,-1,762,477,0,0
-455,547,0,0,0,0,0,0,0,0,0,-1,769,477,0,0
-448,547,0,0,0,0,0,0,0,0,0,-1,776,477,0,0
-441,547,0,0,0,0,0,0,0,0,0,-1,783,477,0,0
-434,547,0,0,0,0,0,0,0,0,0,-1,790,477,0,0
-427,547,0,0,0,0,0,0,0,0,0,-1,797,477,0,0
-420,547,0,0,0,0,0,0,0,0,0,-1,804,477,0,0
-413,547,0,0,0,0,0,0,0,0,0,-1,811,477,0,0
-406,547,0.144592,-11.0292,0,0,0,0,0,0,0,-1,818,477,0.144583,11.0292
-399,547,0.775513,-10.0294,0,0,0,0,0,0,0,-1,825,477,0.775482,10.0295
-392,547,0.219055,-28.7913,0,0,0,0,0,0,0,-1,832,477,0.219056,28.7913
-385,547,0.564331,-29.2501,0,0,0,0,0,0,0,-1,839,477,0.564342,29.2501
-378,547,0.934631,-29.7303,0,0,0,0,0,0,0,-1,846,477,0.934644,29.7303
-371,547,1.85028,-29.6768,0,0,0,0,0,0,0,-1,853,477,1.85026,29.6768
-364,547,1.65063,-30.9048,0,0,0,0,0,0,0,-1,860,477,1.65062,30.9048
-357,547,1.38422,-32.116,0,0,0,0,0,0,0,-1,867,477,1.3842,32.116
-350,547,1.06616,-34.1682,0,0,0,0,0,0,0,-1,874,477,1.06614,34.1683
-343,547,0.993347,-35.7703,0.00151954,0.0195858,-0.0117577,0.0253797,-0.0042744,-1.11294,0.0185099,0.0463004,881,477,0.993321,35.7703
-336,547,0.977356,-37.0134,0.000505656,0.0165651,-0.00950503,0.0209782,-0.00390737,-1.13613,0.0154534,0.0208133,888,477,0.97736,37.0134
-329,547,0.831421,-37.9858,-0.000138619,0.0140533,-0.00770949,0.0174354,-0.00352068,-1.15739,0.0129576,0.0133382,895,477,0.831414,37.9857
-322,547,0.74884,-38.9695,-0.000745865,0.0116044,-0.00598924,0.0140318,-0.00317325,-1.18574,0.0105722,0.0124814,902,477,0.748814,38.9695
-315,547,0.671692,-39.9847,-0.000905476,0.00974581,-0.00482833,0.0116087,-0.00276839,-1.20257,0.00880817,0.0104858,909,477,0.671692,39.9847
-308,547,0.628052,-40.9287,-0.000845715,0.00807676,-0.00387904,0.00952734,-0.0022963,-1.21294,0.00723943,0.0120898,916,477,0.628031,40.9287
-301,547,0.560303,-41.8765,-0.000648716,0.00651096,-0.00311037,0.00767345,-0.0018112,-1.21313,0.00581418,0.0128381,923,477,0.560329,41.8765
-294,547,0.47229,-42.826,-0.000348799,0.00493761,-0.00230066,0.00579863,-0.00120982,-1.21268,0.00432579,0.0117314,930,477,0.472273,42.8261
-287,547,0.401367,-43.7626,1.42353e-05,0.00362273,-0.00158648,0.00422102,-0.000584061,-1.21017,0.00302754,0.0129184,937,477,0.401384,43.7626
-280,547,0.335571,-44.6777,0.000387243,0.00204408,-0.00107481,0.00257268,-0.000141352,-1.11373,0.00176412,0.0143529,944,477,0.335561,44.6776
-273,547,0.277588,-45.6191,0.000723565,0.000188199,-0.000433648,0.000965494,-5.37303e-05,-0.508883,0.0006623,0.0137327,951,477,0.277591,45.6191
-266,547,0.216675,-46.5292,0.00116272,-0.00184433,0.000369534,0.00120747,-0.00188908,0.1205,0.00180217,0.0132471,958,477,0.216655,46.5292
-259,547,0.170044,-47.3967,0.00161975,-0.00458733,0.00124706,0.00186092,-0.00482851,0.191037,0.00398681,0.0120276,965,477,0.170041,47.3966
-252,547,0.134399,-48.2947,0.00207179,-0.00765649,0.00230787,0.00259153,-0.00817623,0.221506,0.0064895,0.0122839,972,477,0.134407,48.2947
-245,547,0.0927734,-49.2017,0.0025209,-0.0108663,0.00334384,0.00330965,-0.0116551,0.231646,0.00907668,0.0128319,979,477,0.0927831,49.2017
-238,547,0.083313,-50.1188,0.00301751,-0.0145561,0.0045135,0.00410895,-0.0156475,0.237261,0.0120374,0.00871355,986,477,0.0833163,50.1188
-231,547,0.0402222,-50.9963,0.00359737,-0.0188823,0.00583597,0.00502214,-0.0203071,0.239453,0.015486,0.00840506,993,477,0.0402024,50.9964
-224,547,0.0117798,-51.816,0.0041466,-0.0231796,0.00721031,0.00593242,-0.0249654,0.242789,0.0189334,0.0110737,1000,477,0.0117882,51.8161
-217,547,-0.00012207,-52.6016,0.00470326,-0.0276405,0.00862235,0.00685826,-0.0297955,0.244915,0.0225009,0.0164638,1007,477,-0.000141991,52.6016
-210,547,-0.0349121,-53.2892,0.00528993,-0.0321393,0.00994708,0.00776921,-0.0346186,0.24427,0.0260577,0.0266936,1014,477,-0.0349178,53.2892
-203,547,0.0960083,-53.7411,0.00607459,-0.0361448,0.0110704,0.00880126,-0.0388715,0.241496,0.0292922,0.0404888,1021,477,0.0959945,53.7412
-196,547,0.200195,-54.2264,0,0,0,0,0,0,0,-1,1028,477,0.200224,54.2264
-189,547,0.266968,-55.0154,0,0,0,0,0,0,0,-1,1035,477,0.266998,55.0154
-182,547,0.252686,-55.3427,0,0,0,0,0,0,0,-1,1042,477,0.252701,55.3427
-175,547,1.37634,-47.526,0,0,0,0,0,0,0,-1,1049,477,1.3763,47.526
-168,547,0.761719,-32.9387,0,0,0,0,0,0,0,-1,1056,477,0.761738,32.9387
-161,547,0.0430908,-34.6016,0,0,0,0,0,0,0,-1,1063,477,0.0431231,34.6016
-154,547,-0.284424,-31.1176,0,0,0,0,0,0,0,-1,1070,477,-0.284395,31.1176
-147,547,3.69434,-26.413,0,0,0,0,0,0,0,-1,1077,477,3.69437,26.413
-140,547,1.55676,-22.5229,0,0,0,0,0,0,0,-1,1084,477,1.5568,22.5229
-133,547,2.31665,-17.9421,0,0,0,0,0,0,0,-1,1091,477,2.31667,17.9421
-126,547,-1.15271,-30.6984,0,0,0,0,0,0,0,-1,1098,477,-1.15267,30.6984
-119,547,0.967651,-24.9351,0,0,0,0,0,0,0,-1,1105,477,0.967657,24.9351
-112,547,1.15674,-22.2276,0,0,0,0,0,0,0,-1,1112,477,1.15677,22.2276
-105,547,0.966797,-20.5777,0,0,0,0,0,0,0,-1,1119,477,0.966804,20.5777
-98,547,0.70166,-18.9755,0,0,0,0,0,0,0,-1,1126,477,0.701713,18.9755
-91,547,1.37805,-7.12024,0,0,0,0,0,0,0,-1,1133,477,1.37804,7.12025
-84,547,1.94202,-6.66241,0,0,0,0,0,0,0,-1,1140,477,1.94201,6.66241
-77,547,-2.28357,1.8588,0,0,0,0,0,0,0,-1,1147,477,-2.28356,-1.85879
-70,547,-3.70178,-0.874908,0,0,0,0,0,0,0,-1,1154,477,-3.70182,0.874918
-63,547,-5.12012,-3.60861,0,0,0,0,0,0,0,-1,1161,477,-5.12009,3.60862
-56,547,-6.01917,-6.2399,0,0,0,0,0,0,0,-1,1168,477,-6.01921,6.23991
-49,547,-6.729,-8.60349,0,0,0,0,0,0,0,-1,1175,477,-6.72899,8.60348
-42,547,-2.41736,-5.53012,0,0,0,0,0,0,0,-1,1182,477,-2.41734,5.53011
-35,547,-2.96838,-4.45734,0,0,0,0,0,0,0,-1,1189,477,-2.96839,4.45734
-28,547,-0.869141,-1.29901,0,0,0,0,0,0,0,-1,1196,477,-0.869135,1.29901
-21,547,6.88403,-58.9171,0,0,0,0,0,0,0,-1,1203,477,6.88409,58.9171
-14,547,-11.8622,-68.1134,0,0,0,0,0,0,0,-1,1210,477,-11.8622,68.1134
-7,547,-10.0125,-68.3922,0,0,0,0,0,0,0,-1,1217,477,-10.0125,68.3922
0,547,-8.2356,-68.6782,0,0,0,0,0,0,0,-1,1224,477,-8.23559,68.6782
7,547,-6.57397,-69.3631,0,0,0,0,0,0,0,-1,1231,477,-6.57396,69.3631
14,547,0,0,0,0,0,0,0,0,0,-1,1238,477,0,0
21,547,0,0,0,0,0,0,0,0,0,-1,1245,477,0,0
28,547,0,0,0,0,0,0,0,0,0,-1,1252,477,0,0
35,547,0,0,0,0,0,0,0,0,0,-1,1259,477,0,0
42,547,0,0,0,0,0,0,0,0,0,-1,1266,477,0,0
49,547,0,0,0,0,0,0,0,0,0,-1,1273,477,0,0
56,547,0,0,0,0,0,0,0,0,0,-1,1280,477,0,0
63,547,0,0,0,0,0,0,0,0,0,-1,1287,477,0,0
70,547,0,0,0,0,0,0,0,0,0,-1,1294,477,0,0
77,547,0,0,0,0,0,0,0,0,0,-1,1301,477,0,0
84,547,0,0,0,0,0,0,0,0,0,-1,1308,477,0,0
91,547,0,0,0,0,0,0,0,0,0,-1,1315,477,0,0
98,547,0,0,0,0,0,0,0,0,0,-1,1322,477,0,0
105,547,-2.99268,-72.2373,0,0,0,0,0,0,0,-1,1329,477,-2.99262,72.2373
112,547,-0.856812,-70.4872,0,0,0,0,0,0,0,-1,1336,477,-0.856756,70.4873
119,547,0.997192,-68.8632,0,0,0,0,0,0,0,-1,1343,477,0.997199,68.8632
126,547,3.0127,-67.3749,0,0,0,0,0,0,0,-1,1350,477,3.01267,67.3749
133,547,4.3064,-65.672,0,0,0,0,0,0,0,-1,1357,477,4.30642,65.672
140,547,5.92273,-63.3558,0,0,0,0,0,0,0,-1,1364,477,5.92271,63.3558
147,547,9.53101,-64.2166,0,0,0,0,0,0,0,-1,1371,477,9.53106,64.2166
154,547,11.5884,-63.5346,0,0,0,0,0,0,0,-1,1378,477,11.5884,63.5346
161,547,13.4156,-62.8999,0,0,0,0,0,0,0,-1,1385,477,13.4156,62.8999
168,547,-4.8114,-85.34,0,0,0,0,0,0,0,-1,1392,477,-4.81144,85.3399
175,547,3.35034,-0.26532,0,0,0,0,0,0,0,-1,1399,477,3.3503,0.265306
182,547,4.26038,3.72672,0,0,0,0,0,0,0,-1,1406,477,4.26039,-3.7267
189,547,3.40454,1.28671,0,0,0,0,0,0,0,-1,1413,477,3.40457,-1.28673
196,547,3.53931,1.87793,0,0,0,0,0,0,0,-1,1420,477,3.53928,-1.87794
203,547,6.49414,-0.425842,0,0,0,0,0,0,0,-1,1427,477,6.4941,0.425844
210,547,4.82092,0.53595,0,0,0,0,0,0,0,-1,1434,477,4.82096,-0.535942
217,547,4.68579,0.480072,0,0,0,0,0,0,0,-1,1441,477,4.68577,-0.480069
224,547,4.55615,0.739807,0,0,0,0,0,0,0,-1,1448,477,4.55613,-0.73981
231,547,5.90869,-3.57721,0,0,0,0,0,0,0,-1,1455,477,5.90871,3.57722
238,547,5.50049,-3.15356,0,0,0,0,0,0,0,-1,1462,477,5.50045,3.15356
245,547,5.13708,-2.65213,0,0,0,0,0,0,0,-1,1469,477,5.13708,2.65212
252,547,3.73511,-0.645233,0,0,0,0,0,0,0,-1,1476,477,3.73515,0.645237
259,547,5.86816,-3.20816,0,0,0,0,0,0,0,-1,1483,477,5.86815,3.20816
266,547,5.40222,-2.45731,0,0,0,0,0,0,0,-1,1490,477,5.40221,2.45732
273,547,3.05737,0.495789,0,0,0,0,0,0,0,-1,1497,477,3.05742,-0.49578
280,547,2.0885,1.47797,0,0,0,0,0,0,0,-1,1504,477,2.08848,-1.47795
287,547,16.7034,-52.6257,0,0,0,0,0,0,0,-1,1511,477,16.7033,52.6258
294,547,16.8954,-51.6904,0,0,0,0,0,0,0,-1,1518,477,16.8954,51.6904
301,547,16.5122,-48.5859,0,0,0,0,0,0,0,-1,1525,477,16.5122,48.5859
308,547,14.5352,-46.2472,0,0,0,0,0,0,0,-1,1532,477,14.5351,46.2472
315,547,16.3188,-48.3778,0,0,0,0,0,0,0,-1,1539,477,16.3188,48.3778
322,547,17.0029,-52.4161,0,0,0,0,0,0,0,-1,1546,477,17.0029,52.4161
329,547,17.1904,-53.8459,0,0,0,0,0,0,0,-1,1553,477,17.1905,53.846
336,547,17.2124,-53.5647,0,0,0,0,0,0,0,-1,1560,477,17.2124,53.5647
343,547,17.1654,-52.6951,0,0,0,0,0,0,0,-1,1567,477,17.1654,52.6951
350,547,17.2047,-51.7656,0.0016421,-0.00735556,-0.00512904,0.00396577,-0.00967923,-0.425381,0.00810488,0.0382821,1574,477,17.2047,51.7656
357,547,17.186,-50.8741,0.00156608,-0.0054712,-0.0041401,0.00348079,-0.0073859,-0.433182,0.0064075,0.0177763,1581,477,17.186,50.8741
364,547,17.1274,-49.9943,0.00139338,-0.00420755,-0.00305771,0.00273926,-0.00555343,-0.414641,0.00487882,0.0114753,1588,477,17.1274,49.9943
371,547,17.1021,-49.0847,0.00139356,-0.00309354,-0.00216253,0.00226611,-0.00396608,-0.383506,0.00364251,0.0110016,1595,477,17.102,49.0847
378,547,17.0686,-48.1848,0.00137343,-0.00183837,-0.00135203,0.00186679,-0.00233173,-0.349891,0.00242897,0.0123726,1602,477,17.0686,48.1848
385,547,17.0095,-47.2722,0.00133872,-0.000380431,-0.000522576,0.00148511,-0.000526816,-0.273121,0.00120471,0.0121025,1609,477,17.0096,47.2722
392,547,16.9664,-46.3349,0.00124535,0.000624167,0.000119901,0.00126769,0.000601827,0.184207,0.000732214,0.0119996,1616,477,16.9664,46.3349
399,547,16.9054,-45.4094,0.00109904,0.00143356,0.000615794,0.0019044,0.000628193,0.918007,0.00112052,0.013392,1623,477,16.9054,45.4094
406,547,16.8878,-44.5012,0.000882352,0.00211013,0.00105194,0.00271421,0.000278273,1.04953,0.00172422,0.0143701,1630,477,16.8879,44.5012
413,547,16.8491,-43.6116,0.000624018,0.00279149,0.00147111,0.00353495,-0.000119442,1.10286,0.00239744,0.0146398,1637,477,16.8491,43.6116
420,547,16.7957,-42.6799,0.00011766,0.00316295,0.00168733,0.00391308,-0.000632475,1.15247,0.00284309,0.0167838,1644,477,16.7956,42.6799
427,547,16.7378,-41.718,-0.000581204,0.0032566,0.00173804,0.00392671,-0.00125131,1.20281,0.00311971,0.0169092,1651,477,16.7378,41.718
434,547,16.6345,-40.791,-0.00121879,0.00331101,0.00184292,0.00396607,-0.00187384,1.22928,0.00344305,0.0115928,1658,477,16.6346,40.791
441,547,16.5553,-39.8594,-0.00200387,0.00334146,0.00195624,0.00398089,-0.0026433,1.25487,0.00385038,0.0112299,1665,477,16.5553,39.8594
448,547,16.4797,-38.8778,-0.00295202,0.00325908,0.00202025,0.00385837,-0.00355131,1.28242,0.00427921,0.0116591,1672,477,16.4797,38.8778
455,547,16.4171,-37.8998,-0.00401819,0.00315588,0.00210674,0.0037288,-0.0045911,1.30527,0.00481209,0.0122925,1679,477,16.4171,37.8998
462,547,16.332,-36.929,-0.00503597,0.0031101,0.00220865,0.0036704,-0.00559626,1.32236,0.00538848,0.0123776,1686,477,16.332,36.9289
469,547,16.1832,-35.9548,-0.00604013,0.00310324,0.00238501,0.00368796,-0.00662486,1.33037,0.00603405,0.0223837,1693,477,16.1833,35.9548
476,547,16.024,-34.8116,-0.00701795,0.00311297,0.00254558,0.00371662,-0.00762161,1.33796,0.00667429,0.0369847,1700,477,16.024,34.8117
483,547,15.9279,-33.5656,0,0,0,0,0,0,0,-1,1707,477,15.9279,33.5656
490,547,3.65271,-3.71707,0,0,0,0,0,0,0,-1,1714,477,3.65277,3.71708
497,547,2.55481,-3.81421,0,0,0,0,0,0,0,-1,1721,477,2.55476,3.8142
504,547,4.01953,-2.22714,0,0,0,0,0,0,0,-1,1728,477,4.0195,2.22713
511,547,5.2146,-6.9552,0,0,0,0,0,0,0,-1,1735,477,5.21464,6.95521
518,547,5.24243,-6.56122,0,0,0,0,0,0,0,-1,1742,477,5.24241,6.56121
525,547,5.89368,-5.49866,0,0,0,0,0,0,0,-1,1749,477,5.89372,5.49866
532,547,0,0,0,0,0,0,0,0,0,-1,1756,477,0,0
539,547,0,0,0,0,0,0,0,0,0,-1,1763,477,0,0
546,547,0,0,0,0,0,0,0,0,0,-1,1770,477,0,0
553,547,0,0,0,0,0,0,0,0,0,-1,1777,477,0,0
560,547,0,0,0,0,0,0,0,0,0,-1,1784,477,0,0
567,547,0,0,0,0,0,0,0,0,0,-1,1791,477,0,0
574,547,0,0,0,0,0,0,0,0,0,-1,1798,477,0,0
581,547,0,0,0,0,0,0,0,0,0,-1,1805,477,0,0
588,547,0,0,0,0,0,0,0,0,0,-1,1812,477,0,0
595,547,0,0,0,0,0,0,0,0,0,-1,1819,477,0,0
602,547,0,0,0,0,0,0,0,0,0,-1,1826,477,0,0
609,547,0,0,0,0,0,0,0,0,0,-1,1833,477,0,0
616,547,0,0,0,0,0,0,0,0,0,-1,1840,477,0,0
623,547,0,0,0,0,0,0,0,0,0,-1,1847,477,0,0
630,547,0,0,0,0,0,0,0,0,0,-1,1854,477,0,0
637,547,0,0,0,0,0,0,0,0,0,-1,1861,477,0,0
644,547,0,0,0,0,0,0,0,0,0,-1,1868,477,0,0
651,547,0,0,0,0,0,0,0,0,0,-1,1875,477,0,0
658,547,0,0,0,0,0,0,0,0,0,-1,1882,477,0,0
665,547,0,0,0,0,0,0,0,0,0,-1,1889,477,0,0
672,547,0,0,0,0,0,0,0,0,0,-1,1896,477,0,0
679,547,0,0,0,0,0,0,0,0,0,-1,1903,477,0,0
686,547,0,0,0,0,0,0,0,0,0,-1,1910,477,0,0
693,547,0,0,0,0,0,0,0,0,0,-1,1917,477,0,0
700,547,0,0,0,0,0,0,0,0,0,-1,1924,477,0,0
707,547,0,0,0,0,0,0,0,0,0,-1,1931,477,0,0
714,547,0,0,0,0,0,0,0,0,0,-1,1938,477,0,0
721,547,0,0,0,0,0,0,0,0,0,-1,1945,477,0,0
728,547,0,0,0,0,0,0,0,0,0,-1,1952,477,0,0
735,547,0,0,0,0,0,0,0,0,0,-1,1959,477,0,0
742,547,0,0,0,0,0,0,0,0,0,-1,1966,477,0,0
749,547,0,0,0,0,0,0,0,0,0,-1,1973,477,0,0
756,547,0,0,0,0,0,0,0,0,0,-1,1980,477,0,0
763,547,0,0,0,0,0,0,0,0,0,-1,1987,477,0,0
770,547,0,0,0,0,0,0,0,0,0,-1,1994,477,0,0
777,547,0,0,0,0,0,0,0,0,0,-1,2001,477,0,0
784,547,0,0,0,0,0,0,0,0,0,-1,2008,477,0,0
791,547,0,0,0,0,0,0,0,0,0,-1,2015,477,0,0
798,547,0,0,0,0,0,0,0,0,0,-1,2022,477,0,0
805,547,0,0,0,0,0,0,0,0,0,-1,2029,477,0,0
812,547,0,0,0,0,0,0,0,0,0,-1,2036,477,0,0
-700,540,0,0,0,0,0,0,0,0,0,-1,524,484,0,0
-693,540,0,0,0,0,0,0,0,0,0,-1,531,484,0,0
-686,540,0,0,0,0,0,0,0,0,0,-1,538,484,0,0
-679,540,0,0,0,0,0,0,0,0,0,-1,545,484,0,0
-672,540,0,0,0,0,0,0,0,0,0,-1,552,484,0,0
-665,540,0,0,0,0,0,0,0,0,0,-1,559,484,0,0
-658,540,0,0,0,0,0,0,0,0,0,-1,566,484,0,0
-651,540,0,0,0,0,0,0,0,0,0,-1,573,484,0,0
-644,540,0,0,0,0,0,0,0,0,0,-1,580,484,0,0
-637,540,0,0,0,0,0,0,0,0,0,-1,587,484,0,0
-630,540,0,0,0,0,0,0,0,0,0,-1,594,484,0,0
-623,540,0,0,0,0,0,0,0,0,0,-1,601,484,0,0
-616,540,0,0,0,0,0,0,0,0,0,-1,608,484,0,0
-609,540,0,0,0,0,0,0,0,0,0,-1,615,484,0,0
-602,540,0,0,0,0,0,0,0,0,0,-1,622,484,0,0
-595,540,0,0,0,0,0,0,0,0,0,-1,629,484,0,0
-588,540,0,0,0,0,0,0,0,0,0,-1,636,484,0,0
-581,540,0,0,0,0,0,0,0,0,0,-1,643,484,0,0
-574,540,0,0,0,0,0,0,0,0,0,-1,650,484,0,0
-567,540,0,0,0,0,0,0,0,0,0,-1,657,484,0,0
-560,540,0,0,0,0,0,0,0,0,0,-1,664,484,0,0
-553,540,0,0,0,0,0,0,0,0,0,-1,671,484,0,0
-546,540,0,0,0,0,0,0,0,0,0,-1,678,484,0,0
-539,540,0,0,0,0,0,0,0,0,0,-1,685,484,0,0
-532,540,0,0,0,0,0,0,0,0,0,-1,692,484,0,0
-525,540,0,0,0,0,0,0,0,0,0,-1,699,484,0,0
-518,540,0,0,0,0,0,0,0,0,0,-1,706,484,0,0
-511,540,0,0,0,0,0,0,0,0,0,-1,713,484,0,0
-504,540,0,0,0,0,0,0,0,0,0,-1,720,484,0,0
-497,540,0,0,0,0,0,0,0,0,0,-1,727,484,0,0
-490,540,0,0,0,0,0,0,0,0,0,-1,734,484,0,0
-483,540,0,0,0,0,0,0,0,0,0,-1,741,484,0,0
-476,540,0,0,0,0,0,0,0,0,0,-1,748,484,0,0
-469,540,0,0,0,0,0,0,0,0,0,-1,755,484,0,0
-462,540,0,0,0,0,0,0,0,0,0,-1,762,484,0,0
-455,540,0,0,0,0,0,0,0,0,0,-1,769,484,0,0
-448,540,0,0,0,0,0,0,0,0,0,-1,776,484,0,0
-441,540,0,0,0,0,0,0,0,0,0,-1,783,484,0,0
-434,540,0,0,0,0,0,0,0,0,0,-1,790,484,0,0
-427,540,0,0,0,0,0,0,0,0,0,-1,797,484,0,0
-420,540,0.227051,-10.0402,0,0,0,0,0,0,0,-1,804,484,0.227063,10.0402
-413,540,-0.0393677,-10.3862,0,0,0,0,0,0,0,-1,811,484,-0.0393683,10.3862
-406,540,-0.518372,-11.5288,0,0,0,0,0,0,0,-1,818,484,-0.518402,11.5288
-399,540,0.0863037,-11.3801,0,0,0,0,0,0,0,-1,825,484,0.0863201,11.3801
-392,540,-0.517395,-10.6735,0,0,0,0,0,0,0,-1,832,484,-0.517377,10.6735
-385,540,-0.41748,-29.7767,0,0,0,0,0,0,0,-1,839,484,-0.417475,29.7767
-378,540,-0.0524292,-30.2798,0,0,0,0,0,0,0,-1,846,484,-0.0524504,30.2798
-371,540,0.825806,-28.765,0,0,0,0,0,0,0,-1,853,484,0.8258,28.765
-364,540,0.631714,-31.1377,0,0,0,0,0,0,0,-1,860,484,0.631715,31.1377
-357,540,0.356445,-33.6689,0,0,0,0,0,0,0,-1,867,484,0.356419,33.6689
-350,540,0.1203,-34.5135,0.00330935,0.0193605,-0.0122571,0.0259858,-0.00331594,-1.07526,0.0185283,0.0352173,874,484,0.12033,34.5135
-343,540,0.0301514,-35.8606,0.00190393,0.0159341,-0.00984616,0.0210086,-0.00317058,-1.09492,0.0151734,0.0178333,881,484,0.0301581,35.8606
-336,540,-0.0513916,-37.0329,0.000996421,0.0131841,-0.00786006,0.0170359,-0.00285536,-1.11514,0.0124189,0.0140721,888,484,-0.0513825,37.0329
-329,540,-0.152405,-37.9777,0.000364132,0.0108943,-0.00623721,0.0137916,-0.00253313,-1.13594,0.0101447,0.0107802,895,484,-0.152423,37.9777
-322,540,-0.229431,-38.94,-0.00025072,0.00861388,-0.00462521,0.0105877,-0.0022245,-1.16745,0.00790497,0.0133796,902,484,-0.229409,38.94
-315,540,-0.28009,-39.9224,-0.000413744,0.00693357,-0.00352727,0.00835279,-0.00183297,-1.18826,0.00626948,0.0121117,909,484,-0.280061,39.9224
-308,540,-0.301331,-40.8721,-0.00034323,0.00546011,-0.00263587,0.00647858,-0.0013617,-1.20208,0.00483727,0.01277,916,484,-0.301315,40.8722
-301,540,-0.406616,-41.7677,-0.000167354,0.00407893,-0.0019018,0.00480615,-0.000894574,-1.20557,0.00354017,0.0150487,923,484,-0.406593,41.7677
-294,540,-0.467346,-42.7229,0.000143114,0.00274248,-0.00114188,0.00317284,-0.000287252,-1.21037,0.00221719,0.0140397,930,484,-0.467358,42.7229
-287,540,-0.49353,-43.7009,0.000570509,0.00155694,-0.000443393,0.00172694,0.000400505,-1.20467,0.00104373,0.00980615,937,484,-0.493545,43.7009
-280,540,-0.559448,-44.628,0.000960566,-0.000112484,4.48849e-05,0.00096244,-0.000114358,0.0417321,0.000682945,0.0109208,944,484,-0.559453,44.628
-273,540,-0.610901,-45.5563,0.0012566,-0.00217178,0.000737241,0.00140842,-0.00232359,0.203083,0.00217617,0.0132761,951,484,-0.610882,45.5563
-266,540,-0.655273,-46.4663,0.00173564,-0.00436781,0.00160429,0.00213164,-0.00476381,0.241998,0.00407662,0.0144005,958,484,-0.655252,46.4663
-259,540,-0.710693,-47.3625,0.00222897,-0.00735971,0.00255222,0.00286598,-0.00799672,0.244592,0.00650059,0.0134064,965,484,-0.7107,47.3625
-252,540,-0.74585,-48.2328,0.00268117,-0.010863,0.00370926,0.00363047,-0.0118123,0.250548,0.00932369,0.0131839,972,484,-0.745834,48.2329
-245,540,-0.788086,-49.1222,0.00310277,-0.0146984,0.00485881,0.00434262,-0.0159382,0.249844,0.0123306,0.0131955,979,484,-0.788102,49.1222
-238,540,-0.847168,-50.0135,0.00355054,-0.0191697,0.00619131,0.00512814,-0.0207473,0.2495,0.0158204,0.0107161,986,484,-0.847189,50.0136
-231,540,-0.864746,-50.8606,0.0041207,-0.0244761,0.00774157,0.00608195,-0.0264373,0.24812,0.0199635,0.0143186,993,484,-0.864757,50.8606
-224,540,-0.900757,-51.6642,0.00466446,-0.0299099,0.0093921,0.00705108,-0.0322965,0.248842,0.0242258,0.0214246,1000,484,-0.900753,51.6642
-217,540,-0.914063,-52.256,0.00521223,-0.0356322,0.0111524,0.00805896,-0.0384789,0.24992,0.0287183,0.0341254,1007,484,-0.914055,52.256
-210,540,-0.776001,-52.7257,0.00578881,-0.04152,0.0128677,0.00906225,-0.0447934,0.249108,0.0332967,0.0439036,1014,484,-0.77603,52.7257
-203,540,-0.835449,-53.4128,0.00655267,-0.0470052,0.0144128,0.0101849,-0.0506374,0.246875,0.0376157,0.0473507,1021,484,-0.835477,53.4128
-196,540,-0.944092,-53.962,0,0,0,0,0,0,0,-1,1028,484,-0.944061,53.962
-189,540,-1.65894,-53.5551,0,0,0,0,0,0,0,-1,1035,484,-1.65896,53.555
-182,540,-0.826782,-43.3494,0,0,0,0,0,0,0,-1,1042,484,-0.826777,43.3494
-175,540,1.73413,-10.728,0,0,0,0,0,0,0,-1,1049,484,1.73414,10.728
-168,540,1.18164,-7.65347,0,0,0,0,0,0,0,-1,1056,484,1.18163,7.65347
-161,540,-0.405884,-9.86481,0,0,0,0,0,0,0,-1,1063,484,-0.405886,9.8648
-154,540,1.96863,-22.0727,0,0,0,0,0,0,0,-1,1070,484,1.96859,22.0727
-147,540,1.32764,-21.9952,0,0,0,0,0,0,0,-1,1077,484,1.32762,21.9952
-140,540,1.40735,-15.6289,0,0,0,0,0,0,0,-1,1084,484,1.4073,15.6289
-133,540,2.28345,-17.6413,0,0,0,0,0,0,0,-1,1091,484,2.2835,17.6413
-126,540,1.25293,-23.9108,0,0,0,0,0,0,0,-1,1098,484,1.25288,23.9108
-119,540,1.55969,-23.0125,0,0,0,0,0,0,0,-1,1105,484,1.55968,23.0125
-112,540,1.4801,-21.6515,0,0,0,0,0,0,0,-1,1112,484,1.4801,21.6515
-105,540,1.30078,-19.8938,0,0,0,0,0,0,0,-1,1119,484,1.30077,19.8938
-98,540,1.08105,-18.1304,0,0,0,0,0,0,0,-1,1126,484,1.08101,18.1304
-91,540,1.56519,-7.48666,0,0,0,0,0,0,0,-1,1133,484,1.56514,7.48667
-84,540,-0.945923,4.43073,0,0,0,0,0,0,0,-1,1140,484,-0.945891,-4.43074
-77,540,-2.28894,2.14368,0,0,0,0,0,0,0,-1,1147,484,-2.28894,-2.14368
-70,540,-3.75244,-0.452576,0,0,0,0,0,0,0,-1,1154,484,-3.75244,0.452576
-63,540,-5.26257,-3.04767,0,0,0,0,0,0,0,-1,1161,484,-5.26262,3.04766
-56,540,-5.19055,-6.12595,0,0,0,0,0,0,0,-1,1168,484,-5.19057,6.12595
-49,540,-5.63867,-8.52298,0,0,0,0,0,0,0,-1,1175,484,-5.63871,8.52298
-42,540,0,0,0,0,0,0,0,0,0,-1,1182,484,0,0
-35,540,0,0,0,0,0,0,0,0,0,-1,1189,484,0,0
-28,540,0,0,0,0,0,0,0,0,0,-1,1196,484,0,0
-21,540,0,0,0,0,0,0,0,0,0,-1,1203,484,0,0
-14,540,0,0,0,0,0,0,0,0,0,-1,1210,484,0,0
-7,540,0,0,0,0,0,0,0,0,0,-1,1217,484,0,0
0,540,0,0,0,0,0,0,0,0,0,-1,1224,484,0,0
7,540,0,0,0,0,0,0,0,0,0,-1,1231,484,0,0
14,540,0,0,0,0,0,0,0,0,0,-1,1238,484,0,0
21,540,0,0,0,0,0,0,0,0,0,-1,1245,484,0,0
28,540,0,0,0,0,0,0,0,0,0,-1,1252,484,0,0
35,540,0,0,0,0,0,0,0,0,0,-1,1259,484,0,0
42,540,0,0,0,0,0,0,0,0,0,-1,1266,484,0,0
49,540,0,0,0,0,0,0,0,0,0,-1,1273,484,0,0
56,540,0,0,0,0,0,0,0,0,0,-1,1280,484,0,0
63,540,0,0,0,0,0,0,0,0,0,-1,1287,484,0,0
70,540,0,0,0,0,0,0,0,0,0,-1,1294,484,0,0
77,540,0,0,0,0,0,0,0,0,0,-1,1301,484,0,0
84,540,0,0,0,0,0,0,0,0,0,-1,1308,484,0,0
91,540,0,0,0,0,0,0,0,0,0,-1,1315,484,0,0
98,540,0,0,0,0,0,0,0,0,0,-1,1322,484,0,0
105,540,0,0,0,0,0,0,0,0,0,-1,1329,484,0,0
112,540,0,0,0,0,0,0,0,0,0,-1,1336,484,0,0
119,540,0,0,0,0,0,0,0,0,0,-1,1343,484,0,0
126,540,0,0,0,0,0,0,0,0,0,-1,1350,484,0,0
133,540,0,0,0,0,0,0,0,0,0,-1,1357,484,0,0
140,540,0,0,0,0,0,0,0,0,0,-1,1364,484,0,0
147,540,0,0,0,0,0,0,0,0,0,-1,1371,484,0,0
154,540,0,0,0,0,0,0,0,0,0,-1,1378,484,0,0
161,540,0,0,0,0,0,0,0,0,0,-1,1385,484,0,0
168,540,3.05078,-0.0010376,0,0,0,0,0,0,0,-1,1392,484,3.05084,0.00102554
175,540,3.37708,0.617035,0,0,0,0,0,0,0,-1,1399,484,3.37707,-0.617046
182,540,3.32678,1.23267,0,0,0,0,0,0,0,-1,1406,484,3.32678,-1.23266
189,540,3.5813,2.15619,0,0,0,0,0,0,0,-1,1413,484,3.58129,-2.1562
196,540,1.84448,-0.801483,0,0,0,0,0,0,0,-1,1420,484,1.84446,0.80148
203,540,4.14648,0.702087,0,0,0,0,0,0,0,-1,1427,484,4.14645,-0.702089
210,540,4.50671,-0.56076,0,0,0,0,0,0,0,-1,1434,484,4.50667,0.560771
217,540,5.00452,-0.278717,0,0,0,0,0,0,0,-1,1441,484,5.00452,0.278709
224,540,6.44458,-2.83527,0,0,0,0,0,0,0,-1,1448,484,6.44457,2.83525
231,540,6.9231,-3.10504,0,0,0,0,0,0,0,-1,1455,484,6.92307,3.10505
238,540,6.4823,-2.58365,0,0,0,0,0,0,0,-1,1462,484,6.48225,2.58363
245,540,6.02087,-1.97916,0,0,0,0,0,0,0,-1,1469,484,6.02088,1.97915
252,540,6.50647,-3.56006,0,0,0,0,0,0,0,-1,1476,484,6.50649,3.56006
259,540,6.01941,-2.798,0,0,0,0,0,0,0,-1,1483,484,6.01941,2.79801
266,540,5.5332,-2.02853,0,0,0,0,0,0,0,-1,1490,484,5.53323,2.02855
273,540,5.06787,-1.28137,0,0,0,0,0,0,0,-1,1497,484,5.06786,1.28136
280,540,1.62903,-2.14609,0,0,0,0,0,0,0,-1,1504,484,1.62906,2.1461
287,540,1.97156,-2.45053,0,0,0,0,0,0,0,-1,1511,484,1.97159,2.45053
294,540,2.44165,-2.6185,0,0,0,0,0,0,0,-1,1518,484,2.44167,2.6185
301,540,4.36169,-2.54272,0,0,0,0,0,0,0,-1,1525,484,4.36165,2.54272
308,540,4.2019,-4.30469,0,0,0,0,0,0,0,-1,1532,484,4.20193,4.3047
315,540,4.45923,-5.32101,0,0,0,0,0,0,0,-1,1539,484,4.45923,5.32103
322,540,4.71655,-6.33737,0,0,0,0,0,0,0,-1,1546,484,4.71653,6.33736
329,540,15.0289,-44.3801,0,0,0,0,0,0,0,-1,1553,484,15.0289,44.3801
336,540,17.1764,-48.0145,0,0,0,0,0,0,0,-1,1560,484,17.1764,48.0145
343,540,17.5421,-50.0817,0,0,0,0,0,0,0,-1,1567,484,17.5421,50.0817
350,540,18.0154,-51.8525,0,0,0,0,0,0,0,-1,1574,484,18.0154,51.8525
357,540,18.1837,-50.5847,0.00148733,-0.00696814,-0.00542217,0.00413518,-0.00961599,-0.454274,0.00814674,0.0413511,1581,484,18.1838,50.5847
364,540,17.9937,-49.8652,0.00141723,-0.00546247,-0.00414723,0.00336552,-0.00741076,-0.439182,0.00636613,0.0223931,1588,484,17.9936,49.8652
371,540,17.9774,-48.9996,0.00154248,-0.00415294,-0.00315193,0.00294261,-0.00555306,-0.41803,0.00498156,0.0172092,1595,484,17.9774,48.9996
378,540,17.9802,-48.1108,0.00159761,-0.00266183,-0.0022239,0.00254708,-0.00361131,-0.403514,0.0035732,0.0144194,1602,484,17.9802,48.1108
385,540,17.926,-47.2161,0.00161615,-0.00103354,-0.00123832,0.00210477,-0.00152216,-0.375827,0.00210299,0.0149421,1609,484,17.9261,47.216
392,540,17.8573,-46.2947,0.00153675,5.38671e-05,-0.000524604,0.00170358,-0.000112956,-0.307886,0.00117518,0.0128663,1616,484,17.8573,46.2947
399,540,17.8193,-45.3892,0.00138521,0.00090256,1.27396e-05,0.00138555,0.000902224,0.0263705,0.000812042,0.0173618,1623,484,17.8194,45.3892
406,540,17.8074,-44.4627,0.00117116,0.00155033,0.000480208,0.00187702,0.000844465,0.973407,0.00108551,0.0203007,1630,484,17.8073,44.4627
413,540,17.7808,-43.5466,0.00101197,0.00228556,0.000966907,0.00280653,0.000491001,1.07659,0.00173072,0.0163642,1637,484,17.7808,43.5466
420,540,17.7163,-42.5894,0.000634455,0.00269275,0.00123858,0.00327395,5.32547e-05,1.13205,0.0021651,0.0147348,1644,484,17.7163,42.5894
427,540,17.6302,-41.6545,8.04055e-05,0.0028515,0.00137138,0.00341542,-0.000483514,1.18067,0.00245405,0.015754,1651,484,17.6303,41.6545
434,540,17.5605,-40.7248,-0.000432367,0.00291759,0.00153924,0.00351744,-0.00103221,1.1992,0.00275427,0.0183452,1658,484,17.5605,40.7248
441,540,17.5402,-39.7594,-0.00101571,0.00299697,0.00173108,0.00364054,-0.00165929,1.21485,0.00313032,0.0200135,1665,484,17.5402,39.7594
448,540,17.4512,-38.8096,-0.00172668,0.00295959,0.00187632,0.00361826,-0.00238536,1.23319,0.00349047,0.0125524,1672,484,17.4512,38.8096
455,540,17.3828,-37.8307,-0.00250481,0.00289803,0.00201814,0.00356863,-0.00317542,1.24999,0.00389588,0.011505,1679,484,17.3828,37.8308
462,540,17.2871,-36.8609,-0.00316189,0.00292453,0.00219836,0.00363551,-0.00387286,1.258,0.00433568,0.0113369,1686,484,17.2871,36.8609
469,540,17.1908,-35.89,-0.00375036,0.00300421,0.00245913,0.00380465,-0.00455079,1.25612,0.00483042,0.0165013,1693,484,17.1908,35.8899
476,540,17.1218,-34.9462,-0.00428018,0.00316711,0.00273276,0.00406229,-0.00517536,1.25424,0.00534625,0.0233644,1700,484,17.1219,34.9463
483,540,17.103,-33.882,-0.00475165,0.00360434,0.00310347,0.00463088,-0.00577819,1.25135,0.00602184,0.036707,1707,484,17.103,33.8819
490,540,17.2058,-32.7398,0,0,0,0,0,0,0,-1,1714,484,17.2058,32.7398
497,540,10.3452,-16.9359,0,0,0,0,0,0,0,-1,1721,484,10.3453,16.9359
504,540,12.519,-18.0764,0,0,0,0,0,0,0,-1,1728,484,12.519,18.0765
511,540,5.82471,-6.83521,0,0,0,0,0,0,0,-1,1735,484,5.82465,6.83522
518,540,9.98181,-12.4608,0,0,0,0,0,0,0,-1,1742,484,9.98187,12.4608
525,540,12.4843,-16.3481,0,0,0,0,0,0,0,-1,1749,484,12.4842,16.3481
532,540,2.84265,-1.07925,0,0,0,0,0,0,0,-1,1756,484,2.84269,1.07927
539,540,0,0,0,0,0,0,0,0,0,-1,1763,484,0,0
546,540,0,0,0,0,0,0,0,0,0,-1,1770,484,0,0
553,540,0,0,0,0,0,0,0,0,0,-1,1777,484,0,0
560,540,0,0,0,0,0,0,0,0,0,-1,1784,484,0,0
567,540,0,0,0,0,0,0,0,0,0,-1,1791,484,0,0
574,540,0,0,0,0,0,0,0,0,0,-1,1798,484,0,0
581,540,0,0,0,0,0,0,0,0,0,-1,1805,484,0,0
588,540,0,0,0,0,0,0,0,0,0,-1,1812,484,0,0
595,540,0,0,0,0,0,0,0,0,0,-1,1819,484,0,0
602,540,0,0,0,0,0,0,0,0,0,-1,1826,484,0,0
609,540,0,0,0,0,0,0,0,0,0,-1,1833,484,0,0
616,540,0,0,0,0,0,0,0,0,0,-1,1840,484,0,0
623,540,0,0,0,0,0,0,0,0,0,-1,1847,484,0,0
630,540,0,0,0,0,0,0,0,0,0,-1,1854,484,0,0
637,540,0,0,0,0,0,0,0,0,0,-1,1861,484,0,0
644,540,0,0,0,0,0,0,0,0,0,-1,1868,484,0,0
651,540,0,0,0,0,0,0,0,0,0,-1,1875,484,0,0
658,540,0,0,0,0,0,0,0,0,0,-1,1882,484,0,0
665,540,0,0,0,0,0,0,0,0,0,-1,1889,484,0,0
672,540,0,0,0,0,0,0,0,0,0,-1,1896,484,0,0
679,540,0,0,0,0,0,0,0,0,0,-1,1903,484,0,0
686,540,0,0,0,0,0,0,0,0,0,-1,1910,484,0,0
693,540,0,0,0,0,0,0,0,0,0,-1,1917,484,0,0
700,540,0,0,0,0,0,0,0,0,0,-1,1924,484,0,0
707,540,0,0,0,0,0,0,0,0,0,-1,1931,484,0,0
714,540,0,0,0,0,0,0,0,0,0,-1,1938,484,0,0
721,540,0,0,0,0,0,0,0,0,0,-1,1945,484,0,0
728,540,0,0,0,0,0,0,0,0,0,-1,1952,484,0,0
735,540,0,0,0,0,0,0,0,0,0,-1,1959,484,0,0
742,540,0,0,0,0,0,0,0,0,0,-1,1966,484,0,0
749,540,0,0,0,0,0,0,0,0,0,-1,1973,484,0,0
756,540,0,0,0,0,0,0,0,0,0,-1,1980,484,0,0
763,540,0,0,0,0,0,0,0,0,0,-1,1987,484,0,0
770,540,0,0,0,0,0,0,0,0,0,-1,1994,484,0,0
777,540,0,0,0,0,0,0,0,0,0,-1,2001,484,0,0
784,540,0,0,0,0,0,0,0,0,0,-1,2008,484,0,0
791,540,0,0,0,0,0,0,0,0,0,-1,2015,484,0,0
798,540,0,0,0,0,0,0,0,0,0,-1,2022,484,0,0
805,540,0,0,0,0,0,0,0,0,0,-1,2029,484,0,0
812,540,0,0,0,0,0,0,0,0,0,-1,2036,484,0,0
-700,533,0,0,0,0,0,0,0,0,0,-1,524,491,0,0
-693,533,0,0,0,0,0,0,0,0,0,-1,531,491,0,0
-686,533,0,0,0,0,0,0,0,0,0,-1,538,491,0,0
-679,533,0,0,0,0,0,0,0,0,0,-1,545,491,0,0
-672,533,0,0,0,0,0,0,0,0,0,-1,552,491,0,0
-665,533,0,0,0,0,0,0,0,0,0,-1,559,491,0,0
-658,533,0,0,0,0,0,0,0,0,0,-1,566,491,0,0
-651,533,0,0,0,0,0,0,0,0,0,-1,573,491,0,0
-644,533,0,0,0,0,0,0,0,0,0,-1,580,491,0,0
-637,533,0,0,0,0,0,0,0,0,0,-1,587,491,0,0
-630,533,0,0,0,0,0,0,0,0,0,-1,594,491,0,0
-623,533,0,0,0,0,0,0,0,0,0,-1,601,491,0,0
-616,533,0,0,0,0,0,0,0,0,0,-1,608,491,0,0
-609,533,0,0,0,0,0,0,0,0,0,-1,615,491,0,0
-602,533,0,0,0,0,0,0,0,0,0,-1,622,491,0,0
-595,533,0,0,0,0,0,0,0,0,0,-1,629,491,0,0
-588,533,0,0,0,0,0,0,0,0,0,-1,636,491,0,0
-581,533,0,0,0,0,0,0,0,0,0,-1,643,491,0,0
-574,533,0,0,0,0,0,0,0,0,0,-1,650,491,0,0
-567,533,0,0,0,0,0,0,0,0,0,-1,657,491,0,0
-560,533,0,0,0,0,0,0,0,0,0,-1,664,491,0,0
-553,533,0,0,0,0,0,0,0,0,0,-1,671,491,0,0
-546,533,0,0,0,0,0,0,0,0,0,-1,678,491,0,0
-539,533,0,0,0,0,0,0,0,0,0,-1,685,491,0,0
-532,533,0,0,0,0,0,0,0,0,0,-1,692,491,0,0
-525,533,0,0,0,0,0,0,0,0,0,-1,699,491,0,0
-518,533,0,0,0,0,0,0,0,0,0,-1,706,491,0,0
-511,533,0,0,0,0,0,0,0,0,0,-1,713,491,0,0
-504,533,0,0,0,0,0,0,0,0,0,-1,720,491,0,0
-497,533,0,0,0,0,0,0,0,0,0,-1,727,491,0,0
-490,533,0,0,0,0,0,0,0,0,0,-1,734,491,0,0
-483,533,0,0,0,0,0,0,0,0,0,-1,741,491,0,0
-476,533,0,0,0,0,0,0,0,0,0,-1,748,491,0,0
-469,533,0,0,0,0,0,0,0,0,0,-1,755,491,0,0
-462,533,0,0,0,0,0,0,0,0,0,-1,762,491,0,0
-455,533,0,0,0,0,0,0,0,0,0,-1,769,491,0,0
-448,533,0,0,0,0,0,0,0,0,0,-1,776,491,0,0
-441,533,0,0,0,0,0,0,0,0,0,-1,783,491,0,0
-434,533,0,0,0,0,0,0,0,0,0,-1,790,491,0,0
-427,533,0.559814,-4.40222,0,0,0,0,0,0,0,-1,797,491,0.559816,4.40222
-420,533,-1.11127,-10.9054,0,0,0,0,0,0,0,-1,804,491,-1.11124,10.9054
-413,533,-0.704773,-11.0942,0,0,0,0,0,0,0,-1,811,491,-0.704742,11.0942
-406,533,-0.670898,-12.0899,0,0,0,0,0,0,0,-1,818,491,-0.670908,12.0899
-399,533,-0.455017,-12.4423,0,0,0,0,0,0,0,-1,825,491,-0.455032,12.4423
-392,533,-1.89661,-10.3905,0,0,0,0,0,0,0,-1,832,491,-1.89661,10.3905
-385,533,0.797729,-17.0485,0,0,0,0,0,0,0,-1,839,491,0.797746,17.0485
-378,533,-1.89435,-19.6771,0,0,0,0,0,0,0,-1,846,491,-1.89433,19.6771
-371,533,-1.16815,-30.8035,0,0,0,0,0,0,0,-1,853,491,-1.16814,30.8035
-364,533,-0.650757,-32.643,0,0,0,0,0,0,0,-1,860,491,-0.650744,32.643
-357,533,-0.702637,-33.7548,0.00457057,0.0189215,-0.0126221,0.0262652,-0.00277311,-1.04386,0.0185039,0.0247997,867,491,-0.70262,33.7548
-350,533,-0.814819,-34.8425,0.00307944,0.0155123,-0.0101711,0.0212163,-0.00262452,-1.0597,0.0150953,0.0129696,874,491,-0.814817,34.8425
-343,533,-0.903503,-35.9293,0.00197709,0.0125102,-0.00807474,0.0168841,-0.00239678,-1.07437,0.0121342,0.0125435,881,491,-0.903504,35.9293
-336,533,-1.00598,-36.9609,0.00121624,0.0100705,-0.00630942,0.013351,-0.00206432,-1.09132,0.00966257,0.0165552,888,491,-1.006,36.9609
-329,533,-1.08148,-37.9184,0.000659763,0.00802632,-0.00483833,0.0104238,-0.00173774,-1.11074,0.00759502,0.0144144,895,491,-1.08147,37.9184
-322,533,-1.1748,-38.8806,0.000111552,0.00594235,-0.00334143,0.00746144,-0.00140754,-1.1441,0.0055038,0.0112656,902,491,-1.1748,38.8806
-315,533,-1.22778,-39.8555,-4.65226e-06,0.00443291,-0.00230482,0.00541338,-0.000985122,-1.16859,0.00397816,0.012136,909,491,-1.22781,39.8555
-308,533,-1.2724,-40.8122,0.000113524,0.00313787,-0.00146979,0.00373448,-0.000483084,-1.1852,0.00266531,0.012677,916,491,-1.27242,40.8122
-301,533,-1.36365,-41.7189,0.000304687,0.00194288,-0.000781499,0.00225589,-8.3202e-06,-1.18984,0.00150671,0.0155848,923,491,-1.36364,41.7188
-294,533,-1.39764,-42.6603,0.000647262,0.000861188,-8.91384e-05,0.000893461,0.000614989,-1.22342,0.000527895,0.0139688,930,491,-1.39763,42.6603
-287,533,-1.42395,-43.6317,0.00115626,-0.000193071,0.000575614,0.00136845,-0.000405256,0.35317,0.0010732,0.00988678,937,491,-1.42394,43.6316
-280,533,-1.47906,-44.5865,0.00157879,-0.00197589,0.00102533,0.00185334,-0.00225044,0.261626,0.00237301,0.00955769,944,491,-1.47905,44.5865
-273,533,-1.53827,-45.5045,0.00182969,-0.00427326,0.00175102,0.0022964,-0.00473996,0.260476,0.00414329,0.0138211,951,491,-1.53826,45.5044
-266,533,-1.58813,-46.4013,0.0023561,-0.00668891,0.00266912,0.003085,-0.00741781,0.266586,0.00623342,0.0135584,958,491,-1.58813,46.4013
-259,533,-1.6123,-47.3011,0.00289617,-0.00999942,0.00368367,0.00387424,-0.0109775,0.259527,0.00889556,0.0140608,965,491,-1.61233,47.3011
-252,533,-1.65967,-48.193,0.00334178,-0.0140822,0.004948,0.00464884,-0.0153893,0.258261,0.0121103,0.0186145,972,491,-1.65967,48.193
-245,533,-1.76855,-49.0699,0.00370228,-0.018831,0.00624864,0.00531907,-0.0204478,0.25319,0.015708,0.0261788,979,491,-1.76855,49.0699
-238,533,-1.70697,-49.7878,0.0040427,-0.0244544,0.00780606,0.00604087,-0.0264525,0.250595,0.0199558,0.0281948,986,491,-1.70699,49.7879
-231,533,-1.57843,-50.3439,0.0045546,-0.0311824,0.0096817,0.00700896,-0.0336367,0.248275,0.0250893,0.0377018,993,491,-1.5784,50.3438
-224,533,-1.75482,-50.9928,0.00503721,-0.038303,0.0117316,0.00800903,-0.0412748,0.248098,0.0305383,0.0467982,1000,491,-1.75485,50.9928
-217,533,-1.77557,-52.0533,0,0,0,0,0,0,0,-1,1007,491,-1.77559,52.0533
-210,533,-1.4201,-52.2813,0,0,0,0,0,0,0,-1,1014,491,-1.42009,52.2812
-203,533,-1.47998,-53.1257,0,0,0,0,0,0,0,-1,1021,491,-1.47997,53.1257
-196,533,-2.47253,-52.2668,0,0,0,0,0,0,0,-1,1028,491,-2.47251,52.2669
-189,533,-1.75317,-43.4744,0,0,0,0,0,0,0,-1,1035,491,-1.75312,43.4744
-182,533,1.26123,-11.4969,0,0,0,0,0,0,0,-1,1042,491,1.26128,11.4969
-175,533,0.937744,-7.36966,0,0,0,0,0,0,0,-1,1049,491,0.937769,7.36965
-168,533,2.64807,-2.7543,0,0,0,0,0,0,0,-1,1056,491,2.64812,2.7543
-161,533,1.91833,-1.76553,0,0,0,0,0,0,0,-1,1063,491,1.91836,1.76554
-154,533,0.376709,-11.0633,0,0,0,0,0,0,0,-1,1070,491,0.376715,11.0632
-147,533,0.383789,-12.1586,0,0,0,0,0,0,0,-1,1077,491,0.383829,12.1586
-140,533,1.14001,-15.4608,0,0,0,0,0,0,0,-1,1084,491,1.14005,15.4608
-133,533,0.189941,-16.0795,0,0,0,0,0,0,0,-1,1091,491,0.18994,16.0795
-126,533,2.89612,-2.59003,0,0,0,0,0,0,0,-1,1098,491,2.89608,2.59003
-119,533,1.78284,-22.5394,0,0,0,0,0,0,0,-1,1105,491,1.78279,22.5394
-112,533,1.83862,-21.2401,0,0,0,0,0,0,0,-1,1112,491,1.83859,21.24
-105,533,1.67554,-19.4018,0,0,0,0,0,0,0,-1,1119,491,1.6755,19.4018
-98,533,-1.39392,-5.16367,0,0,0,0,0,0,0,-1,1126,491,-1.39394,5.16367
-91,533,0.367432,4.49753,0,0,0,0,0,0,0,-1,1133,491,0.367468,-4.49754
-84,533,-0.88623,3.03604,0,0,0,0,0,0,0,-1,1140,491,-0.886288,-3.03605
-77,533,0,0,0,0,0,0,0,0,0,-1,1147,491,0,0
-70,533,0,0,0,0,0,0,0,0,0,-1,1154,491,0,0
-63,533,0,0,0,0,0,0,0,0,0,-1,1161,491,0,0
-56,533,0,0,0,0,0,0,0,0,0,-1,1168,491,0,0
-49,533,0,0,0,0,0,0,0,0,0,-1,1175,491,0,0
-42,533,0,0,0,0,0,0,0,0,0,-1,1182,491,0,0
-35,533,0,0,0,0,0,0,0,0,0,-1,1189,491,0,0
-28,533,0,0,0,0,0,0,0,0,0,-1,1196,491,0,0
-21,533,0,0,0,0,0,0,0,0,0,-1,1203,491,0,0
-14,533,0,0,0,0,0,0,0,0,0,-1,1210,491,0,0
-7,533,0,0,0,0,0,0,0,0,0,-1,1217,491,0,0
0,533,0,0,0,0,0,0,0,0,0,-1,1224,491,0,0
7,533,0,0,0,0,0,0,0,0,0,-1,1231,491,0,0
14,533,0,0,0,0,0,0,0,0,0,-1,1238,491,0,0
21,533,0,0,0,0,0,0,0,0,0,-1,1245,491,0,0
28,533,0,0,0,0,0,0,0,0,0,-1,1252,491,0,0
35,533,0,0,0,0,0,0,0,0,0,-1,1259,491,0,0
42,533,0,0,0,0,0,0,0,0,0,-1,1266,491,0,0
49,533,0,0,0,0,0,0,0,0,0,-1,1273,491,0,0
56,533,0,0,0,0,0,0,0,0,0,-1,1280,491,0,0
63,533,0,0,0,0,0,0,0,0,0,-1,1287,491,0,0
70,533,0,0,0,0,0,0,0,0,0,-1,1294,491,0,0
77,533,0,0,0,0,0,0,0,0,0,-1,1301,491,0,0
84,533,0,0,0,0,0,0,0,0,0,-1,1308,491,0,0
91,533,0,0,0,0,0,0,0,0,0,-1,1315,491,0,0
98,533,0,0,0,0,0,0,0,0,0,-1,1322,491,0,0
105,533,0,0,0,0,0,0,0,0,0,-1,1329,491,0,0
112,533,0,0,0,0,0,0,0,0,0,-1,1336,491,0,0
119,533,0,0,0,0,0,0,0,0,0,-1,1343,491,0,0
126,533,0,0,0,0,0,0,0,0,0,-1,1350,491,0,0
133,533,0,0,0,0,0,0,0,0,0,-1,1357,491,0,0
140,533,0,0,0,0,0,0,0,0,0,-1,1364,491,0,0
147,533,0,0,0,0,0,0,0,0,0,-1,1371,491,0,0
154,533,0,0,0,0,0,0,0,0,0,-1,1378,491,0,0
161,533,0,0,0,0,0,0,0,0,0,-1,1385,491,0,0
168,533,0,0,0,0,0,0,0,0,0,-1,1392,491,0,0
175,533,0,0,0,0,0,0,0,0,0,-1,1399,491,0,0
182,533,0,0,0,0,0,0,0,0,0,-1,1406,491,0,0
189,533,0,0,0,0,0,0,0,0,0,-1,1413,491,0,0
196,533,0,0,0,0,0,0,0,0,0,-1,1420,491,0,0
203,533,3.7887,1.16193,0,0,0,0,0,0,0,-1,1427,491,3.78872,-1.16193
210,533,5.09558,-0.216034,0,0,0,0,0,0,0,-1,1434,491,5.09559,0.216028
217,533,6.91614,-2.46814,0,0,0,0,0,0,0,-1,1441,491,6.91618,2.46814
224,533,7.23621,-2.1857,0,0,0,0,0,0,0,-1,1448,491,7.23621,2.1857
231,533,7.23474,-1.92282,0,0,0,0,0,0,0,-1,1455,491,7.2347,1.92282
238,533,7.23535,-1.67258,0,0,0,0,0,0,0,-1,1462,491,7.23539,1.67258
245,533,6.86682,-1.2301,0,0,0,0,0,0,0,-1,1469,491,6.86686,1.23011
252,533,6.63354,-3.07825,0,0,0,0,0,0,0,-1,1476,491,6.6335,3.07824
259,533,6.16431,-2.35037,0,0,0,0,0,0,0,-1,1483,491,6.1643,2.35037
266,533,5.68884,-1.6214,0,0,0,0,0,0,0,-1,1490,491,5.68885,1.6214
273,533,5.21399,-0.864227,0,0,0,0,0,0,0,-1,1497,491,5.21403,0.864227
280,533,1.41089,-1.97946,0,0,0,0,0,0,0,-1,1504,491,1.41087,1.97946
287,533,1.6814,-2.44443,0,0,0,0,0,0,0,-1,1511,491,1.6814,2.44444
294,533,2.2384,-2.57626,0,0,0,0,0,0,0,-1,1518,491,2.23839,2.57625
301,533,3.39941,-4.0817,0,0,0,0,0,0,0,-1,1525,491,3.3994,4.08171
308,533,4.13733,-4.14752,0,0,0,0,0,0,0,-1,1532,491,4.13727,4.14752
315,533,4.80762,-5.29349,0,0,0,0,0,0,0,-1,1539,491,4.80762,5.29347
322,533,5.47803,-6.43942,0,0,0,0,0,0,0,-1,1546,491,5.47798,6.43943
329,533,3.88477,-3.86301,0,0,0,0,0,0,0,-1,1553,491,3.88475,3.86299
336,533,14.5214,-40.908,0,0,0,0,0,0,0,-1,1560,491,14.5214,40.908
343,533,16.3387,-44.9998,0,0,0,0,0,0,0,-1,1567,491,16.3387,44.9998
350,533,17.6749,-47.6289,0,0,0,0,0,0,0,-1,1574,491,17.6749,47.6289
357,533,19.1577,-50.4695,0,0,0,0,0,0,0,-1,1581,491,19.1577,50.4695
364,533,18.9951,-49.6295,0,0,0,0,0,0,0,-1,1588,491,18.9952,49.6295
371,533,18.8502,-48.9356,0,0,0,0,0,0,0,-1,1595,491,18.8502,48.9356
378,533,18.8969,-48.0063,0,0,0,0,0,0,0,-1,1602,491,18.8968,48.0063
385,533,18.8748,-47.1275,0.00189183,-0.000923756,-0.00156545,0.00258939,-0.00162132,-0.419187,0.00245238,0.0385589,1609,491,18.8748,47.1275
392,533,18.8112,-46.2542,0.00183055,0.000205101,-0.000804241,0.00216121,-0.000125557,-0.390076,0.00148443,0.0169568,1616,491,18.8111,46.2542
399,533,18.7822,-45.3655,0.001666,0.00100912,-0.000282182,0.00177058,0.000904548,-0.354891,0.00102232,0.01359,1623,491,18.7822,45.3656
406,533,18.7518,-44.4333,0.00144612,0.00153572,0.000153918,0.00165122,0.00133061,0.927011,0.00101104,0.0169171,1630,491,18.7518,44.4333
413,533,18.7087,-43.4693,0.00138121,0.00223552,0.000640476,0.00257822,0.00103852,1.07949,0.00149788,0.0153742,1637,491,18.7088,43.4693
420,533,18.6208,-42.517,0.00111114,0.00259559,0.000908722,0.00302668,0.000680048,1.12784,0.00183363,0.0145242,1644,491,18.6209,42.517
427,533,18.563,-41.5708,0.000671132,0.00273835,0.00107576,0.00319658,0.000212896,1.16811,0.00206375,0.0150131,1651,491,18.563,41.5708
434,533,18.4906,-40.6637,0.000243201,0.00275649,0.00125366,0.0032749,-0.000275207,1.17869,0.00228054,0.0134252,1658,491,18.4906,40.6637
441,533,18.454,-39.7242,-0.000194021,0.00280897,0.00147313,0.00341095,-0.000795999,1.18287,0.00258055,0.0150705,1665,491,18.4539,39.7242
448,533,18.4025,-38.7581,-0.00071677,0.00276211,0.00166254,0.00342884,-0.00138351,1.1894,0.00286084,0.0170282,1672,491,18.4025,38.7581
455,533,18.3381,-37.7789,-0.0012758,0.00271436,0.00185052,0.00344045,-0.00200189,1.19688,0.00317852,0.0172309,1679,491,18.3382,37.7789
462,533,18.25,-36.7921,-0.0016797,0.00276858,0.00207735,0.00358782,-0.00249895,1.19515,0.00353289,0.016752,1686,491,18.25,36.7921
469,533,18.182,-35.8489,-0.00198925,0.00288837,0.00238943,0.00386381,-0.00296469,1.18321,0.00395382,0.0112779,1693,491,18.182,35.8489
476,533,18.1277,-34.8463,-0.00223968,0.00312289,0.00274171,0.00427649,-0.00339327,1.17253,0.00443791,0.0128324,1700,491,18.1277,34.8463
483,533,18.1027,-33.8077,-0.00243532,0.00359693,0.00321107,0.00498626,-0.00382464,1.16245,0.00510169,0.0217651,1707,491,18.1027,33.8078
490,533,18.1445,-32.6232,0,0,0,0,0,0,0,-1,1714,491,18.1445,32.6232
497,533,18.0874,-31.6243,0,0,0,0,0,0,0,-1,1721,491,18.0874,31.6243
504,533,14.6896,-22.6455,0,0,0,0,0,0,0,-1,1728,491,14.6895,22.6455
511,533,13.6221,-19.2798,0,0,0,0,0,0,0,-1,1735,491,13.6221,19.2798
518,533,14.1954,-19.4995,0,0,0,0,0,0,0,-1,1742,491,14.1955,19.4995
525,533,13.7935,-19.6901,0,0,0,0,0,0,0,-1,1749,491,13.7934,19.6901
532,533,15.4377,-17.9016,0,0,0,0,0,0,0,-1,1756,491,15.4377,17.9015
539,533,12.8733,-18.2556,0,0,0,0,0,0,0,-1,1763,491,12.8733,18.2556
546,533,3.59607,1.65799,0,0,0,0,0,0,0,-1,1770,491,3.59605,-1.658
553,533,0,0,0,0,0,0,0,0,0,-1,1777,491,0,0
560,533,0,0,0,0,0,0,0,0,0,-1,1784,491,0,0
567,533,0,0,0,0,0,0,0,0,0,-1,1791,491,0,0
574,533,0,0,0,0,0,0,0,0,0,-1,1798,491,0,0
581,533,0,0,0,0,0,0,0,0,0,-1,1805,491,0,0
588,533,0,0,0,0,0,0,0,0,0,-1,1812,491,0,0
595,533,0,0,0,0,0,0,0,0,0,-1,1819,491,0,0
602,533,0,0,0,0,0,0,0,0,0,-1,1826,491,0,0
609,533,0,0,0,0,0,0,0,0,0,-1,1833,491,0,0
616,533,0,0,0,0,0,0,0,0,0,-1,1840,491,0,0
623,533,0,0,0,0,0,0,0,0,0,-1,1847,491,0,0
630,533,0,0,0,0,0,0,0,0,0,-1,1854,491,0,0
637,533,0,0,0,0,0,0,0,0,0,-1,1861,491,0,0
644,533,0,0,0,0,0,0,0,0,0,-1,1868,491,0,0
651,533,0,0,0,0,0,0,0,0,0,-1,1875,491,0,0
658,533,0,0,0,0,0,0,0,0,0,-1,1882,491,0,0
665,533,0,0,0,0,0,0,0,0,0,-1,1889,491,0,0
672,533,0,0,0,0,0,0,0,0,0,-1,1896,491,0,0
679,533,0,0,0,0,0,0,0,0,0,-1,1903,491,0,0
686,533,0,0,0,0,0,0,0,0,0,-1,1910,491,0,0
693,533,0,0,0,0,0,0,0,0,0,-1,1917,491,0,0
700,533,0,0,0,0,0,0,0,0,0,-1,1924,491,0,0
707,533,0,0,0,0,0,0,0,0,0,-1,1931,491,0,0
714,533,0,0,0,0,0,0,0,0,0,-1,1938,491,0,0
721,533,0,0,0,0,0,0,0,0,0,-1,1945,491,0,0
728,533,0,0,0,0,0,0,0,0,0,-1,1952,491,0,0
735,533,0,0,0,0,0,0,0,0,0,-1,1959,491,0,0
742,533,0,0,0,0,0,0,0,0,0,-1,1966,491,0,0
749,533,0,0,0,0,0,0,0,0,0,-1,1973,491,0,0
756,533,0,0,0,0,0,0,0,0,0,-1,1980,491,0,0
763,533,0,0,0,0,0,0,0,0,0,-1,1987,491,0,0
770,533,0,0,0,0,0,0,0,0,0,-1,1994,491,0,0
777,533,0,0,0,0,0,0,0,0,0,-1,2001,491,0,0
784,533,0,0,0,0,0,0,0,0,0,-1,2008,491,0,0
791,533,0,0,0,0,0,0,0,0,0,-1,2015,491,0,0
798,533,0,0,0,0,0,0,0,0,0,-1,2022,491,0,0
805,533,0,0,0,0,0,0,0,0,0,-1,2029,491,0,0
812,533,0,0,0,0,0,0,0,0,0,-1,2036,491,0,0
-700,526,0,0,0,0,0,0,0,0,0,-1,524,498,0,0
-693,526,0,0,0,0,0,0,0,0,0,-1,531,498,0,0
-686,526,0,0,0,0,0,0,0,0,0,-1,538,498,0,0
-679,526,0,0,0,0,0,0,0,0,0,-1,545,498,0,0
-672,526,0,0,0,0,0,0,0,0,0,-1,552,498,0,0
-665,526,0,0,0,0,0,0,0,0,0,-1,559,498,0,0
-658,526,0,0,0,0,0,0,0,0,0,-1,566,498,0,0
-651,526,0,0,0,0,0,0,0,0,0,-1,573,498,0,0
-644,526,0,0,0,0,0,0,0,0,0,-1,580,498,0,0
-637,526,0,0,0,0,0,0,0,0,0,-1,587,498,0,0
-630,526,0,0,0,0,0,0,0,0,0,-1,594,498,0,0
-623,526,0,0,0,0,0,0,0,0,0,-1,601,498,0,0
-616,526,0,0,0,0,0,0,0,0,0,-1,608,498,0,0
-609,526,0,0,0,0,0,0,0,0,0,-1,615,498,0,0
-602,526,0,0,0,0,0,0,0,0,0,-1,622,498,0,0
-595,526,0,0,0,0,0,0,0,0,0,-1,629,498,0,0
-588,526,0,0,0,0,0,0,0,0,0,-1,636,498,0,0
-581,526,0,0,0,0,0,0,0,0,0,-1,643,498,0,0
-574,526,0,0,0,0,0,0,0,0,0,-1,650,498,0,0
-567,526,0,0,0,0,0,0,0,0,0,-1,657,498,0,0
-560,526,0,0,0,0,0,0,0,0,0,-1,664,498,0,0
-553,526,0,0,0,0,0,0,0,0,0,-1,671,498,0,0
-546,526,0,0,0,0,0,0,0,0,0,-1,678,498,0,0
-539,526,0,0,0,0,0,0,0,0,0,-1,685,498,0,0
-532,526,0,0,0,0,0,0,0,0,0,-1,692,498,0,0
-525,526,0,0,0,0,0,0,0,0,0,-1,699,498,0,0
-518,526,0,0,0,0,0,0,0,0,0,-1,706,498,0,0
-511,526,0,0,0,0,0,0,0,0,0,-1,713,498,0,0
-504,526,0,0,0,0,0,0,0,0,0,-1,720,498,0,0
-497,526,0,0,0,0,0,0,0,0,0,-1,727,498,0,0
-490,526,0,0,0,0,0,0,0,0,0,-1,734,498,0,0
-483,526,0,0,0,0,0,0,0,0,0,-1,741,498,0,0
-476,526,0,0,0,0,0,0,0,0,0,-1,748,498,0,0
-469,526,0,0,0,0,0,0,0,0,0,-1,755,498,0,0
-462,526,0,0,0,0,0,0,0,0,0,-1,762,498,0,0
-455,526,0,0,0,0,0,0,0,0,0,-1,769,498,0,0
-448,526,0,0,0,0,0,0,0,0,0,-1,776,498,0,0
-441,526,0,0,0,0,0,0,0,0,0,-1,783,498,0,0
-434,526,-0.153564,-5.96649,0,0,0,0,0,0,0,-1,790,498,-0.153589,5.9665
-427,526,1.23206,-4.59808,0,0,0,0,0,0,0,-1,797,498,1.23208,4.59809
-420,526,-1.76373,-11.6241,0,0,0,0,0,0,0,-1,804,498,-1.76373,11.6241
-413,526,-1.38965,-11.7916,0,0,0,0,0,0,0,-1,811,498,-1.38963,11.7916
-406,526,-1.35187,-12.5182,0,0,0,0,0,0,0,-1,818,498,-1.35185,12.5181
-399,526,-1.32715,-13.2116,0,0,0,0,0,0,0,-1,825,498,-1.32713,13.2116
-392,526,0.197571,-15.303,0,0,0,0,0,0,0,-1,832,498,0.197598,15.303
-385,526,-2.69397,-19.6176,0,0,0,0,0,0,0,-1,839,498,-2.69399,19.6176
-378,526,-2.40692,-29.6191,0,0,0,0,0,0,0,-1,846,498,-2.40693,29.6191
-371,526,-1.66925,-31.3976,0,0,0,0,0,0,0,-1,853,498,-1.66928,31.3976
-364,526,-1.71759,-32.7364,0.00505807,0.0179198,-0.0124765,0.0255253,-0.00254744,-1.02336,0.0179265,0.0233532,860,498,-1.71757,32.7364
-357,526,-1.74854,-33.8317,0.00384515,0.0148121,-0.0102029,0.0209117,-0.00225444,-1.03197,0.0147501,0.0141425,867,498,-1.74856,33.8317
-350,526,-1.77307,-34.8646,0.00275307,0.0119938,-0.00815493,0.0167463,-0.00199944,-1.04314,0.0118869,0.0135015,874,498,-1.77305,34.8646
-343,526,-1.89014,-35.8721,0.0019428,0.00940863,-0.00636691,0.0130562,-0.00170482,-1.05054,0.00932453,0.0174009,881,498,-1.89015,35.8721
-336,526,-1.96356,-36.8486,0.00134834,0.0072753,-0.00482812,0.00997689,-0.00135324,-1.06065,0.00714518,0.0169004,888,498,-1.96359,36.8486
-329,526,-2.013,-37.8351,0.000887159,0.00546637,-0.00351232,0.00736946,-0.00101593,-1.07425,0.00528427,0.0161047,895,498,-2.01301,37.8351
-322,526,-2.0849,-38.7935,0.000443526,0.00361817,-0.00217399,0.00472266,-0.000660962,-1.10073,0.0033903,0.0106092,902,498,-2.08492,38.7934
-315,526,-2.16644,-39.7902,0.000391717,0.00227924,-0.00122302,0.00288029,-0.000209339,-1.11401,0.00199364,0.0094127,909,498,-2.16646,39.7902
-308,526,-2.22742,-40.7758,0.000568085,0.00114819,-0.000461874,0.00140353,0.00031274,-1.06577,0.000850821,0.00904946,916,498,-2.22745,40.7758
-301,526,-2.30634,-41.6771,0.000787486,0.000139829,0.000168822,0.000828851,9.84646e-05,0.240284,0.000522845,0.0110796,923,498,-2.30635,41.6771
-294,526,-2.32794,-42.5988,0.00115959,-0.000680151,0.000778045,0.00144451,-0.000965069,0.351031,0.00140032,0.0107544,930,498,-2.32792,42.5988
-287,526,-2.38055,-43.5402,0.00174568,-0.00161452,0.0014024,0.00225406,-0.00212291,0.347775,0.00252742,0.00997214,937,498,-2.38057,43.5401
-280,526,-2.44836,-44.4847,0.00220699,-0.0035568,0.00182841,0.00273807,-0.00408788,0.282682,0.00396657,0.0134628,944,498,-2.44839,44.4848
-273,526,-2.47955,-45.4282,0.00241979,-0.00616594,0.00259575,0.00314356,-0.00688971,0.271922,0.00592577,0.0121687,951,498,-2.47957,45.4281
-266,526,-2.53168,-46.3386,0.00301399,-0.00891299,0.00358953,0.00401096,-0.00990995,0.270914,0.00827428,0.0186425,958,498,-2.53165,46.3386
-259,526,-2.4917,-47.242,0.00363093,-0.0126619,0.00470942,0.00489423,-0.0139252,0.262079,0.0112747,0.0481096,965,498,-2.49168,47.242
-252,526,-2.38037,-48.254,0,0,0,0,0,0,0,-1,972,498,-2.38035,48.254
-245,526,-2.69299,-49.0305,0,0,0,0,0,0,0,-1,979,498,-2.69301,49.0305
-238,526,-1.48712,-48.7633,0,0,0,0,0,0,0,-1,986,498,-1.48712,48.7633
-231,526,-1.69482,-49.3743,0,0,0,0,0,0,0,-1,993,498,-1.69484,49.3742
-224,526,-2.43121,-50.3783,0,0,0,0,0,0,0,-1,1000,498,-2.43123,50.3783
-217,526,-2.39459,-50.3551,0,0,0,0,0,0,0,-1,1007,498,-2.39458,50.3551
-210,526,-1.77289,-44.7313,0,0,0,0,0,0,0,-1,1014,498,-1.77289,44.7313
-203,526,-0.659302,-18.8818,0,0,0,0,0,0,0,-1,1021,498,-0.659273,18.8818
-196,526,-0.328247,-12.179,0,0,0,0,0,0,0,-1,1028,498,-0.328238,12.179
-189,526,0.401245,-5.96826,0,0,0,0,0,0,0,-1,1035,498,0.401197,5.96826
-182,526,1.7323,-2.99405,0,0,0,0,0,0,0,-1,1042,498,1.73226,2.99404
-175,526,2.27637,-2.07983,0,0,0,0,0,0,0,-1,1049,498,2.27639,2.07984
-168,526,2.12036,-1.66049,0,0,0,0,0,0,0,-1,1056,498,2.12035,1.66048
-161,526,2.09082,-1.20572,0,0,0,0,0,0,0,-1,1063,498,2.09086,1.2057
-154,526,-1.3446,-5.37799,0,0,0,0,0,0,0,-1,1070,498,-1.34457,5.37799
-147,526,-0.472656,-6.64996,0,0,0,0,0,0,0,-1,1077,498,-0.472659,6.64997
-140,526,0.422852,-8.03339,0,0,0,0,0,0,0,-1,1084,498,0.422844,8.0334
-133,526,1.09583,-9.2215,0,0,0,0,0,0,0,-1,1091,498,1.09581,9.2215
-126,526,3.42529,-2.36053,0,0,0,0,0,0,0,-1,1098,498,3.42523,2.36052
-119,526,2.7771,-0.764099,0,0,0,0,0,0,0,-1,1105,498,2.7771,0.764107
-112,526,2.57715,-1.1893,0,0,0,0,0,0,0,-1,1112,498,2.57718,1.1893
-105,526,0,0,0,0,0,0,0,0,0,-1,1119,498,0,0
-98,526,0,0,0,0,0,0,0,0,0,-1,1126,498,0,0
-91,526,0,0,0,0,0,0,0,0,0,-1,1133,498,0,0
-84,526,0,0,0,0,0,0,0,0,0,-1,1140,498,0,0
-77,526,0,0,0,0,0,0,0,0,0,-1,1147,498,0,0
-70,526,0,0,0,0,0,0,0,0,0,-1,1154,498,0,0
-63,526,0,0,0,0,0,0,0,0,0,-1,1161,498,0,0
-56,526,0,0,0,0,0,0,0,0,0,-1,1168,498,0,0
-49,526,0,0,0,0,0,0,0,0,0,-1,1175,498,0,0
-42,526,0,0,0,0,0,0,0,0,0,-1,1182,498,0,0
-35,526,0,0,0,0,0,0,0,0,0,-1,1189,498,0,0
-28,526,0,0,0,0,0,0,0,0,0,-1,1196,498,0,0
-21,526,0,0,0,0,0,0,0,0,0,-1,1203,498,0,0
-14,526,0,0,0,0,0,0,0,0,0,-1,1210,498,0,0
-7,526,0,0,0,0,0,0,0,0,0,-1,1217,498,0,0
0,526,0,0,0,0,0,0,0,0,0,-1,1224,498,0,0
7,526,0,0,0,0,0,0,0,0,0,-1,1231,498,0,0
14,526,0,0,0,0,0,0,0,0,0,-1,1238,498,0,0
21,526,0,0,0,0,0,0,0,0,0,-1,1245,498,0,0
28,526,0,0,0,0,0,0,0,0,0,-1,1252,498,0,0
35,526,0,0,0,0,0,0,0,0,0,-1,1259,498,0,0
42,526,0,0,0,0,0,0,0,0,0,-1,1266,498,0,0
49,526,0,0,0,0,0,0,0,0,0,-1,1273,498,0,0
56,526,0,0,0,0,0,0,0,0,0,-1,1280,498,0,0
63,526,0,0,0,0,0,0,0,0,0,-1,1287,498,0,0
70,526,0,0,0,0,0,0,0,0,0,-1,1294,498,0,0
77,526,0,0,0,0,0,0,0,0,0,-1,1301,498,0,0
84,526,0,0,0,0,0,0,0,0,0,-1,1308,498,0,0
91,526,0,0,0,0,0,0,0,0,0,-1,1315,498,0,0
98,526,0,0,0,0,0,0,0,0,0,-1,1322,498,0,0
105,526,0,0,0,0,0,0,0,0,0,-1,1329,498,0,0
112,526,0,0,0,0,0,0,0,0,0,-1,1336,498,0,0
119,526,0,0,0,0,0,0,0,0,0,-1,1343,498,0,0
126,526,0,0,0,0,0,0,0,0,0,-1,1350,498,0,0
133,526,0,0,0,0,0,0,0,0,0,-1,1357,498,0,0
140,526,0,0,0,0,0,0,0,0,0,-1,1364,498,0,0
147,526,0,0,0,0,0,0,0,0,0,-1,1371,498,0,0
154,526,0,0,0,0,0,0,0,0,0,-1,1378,498,0,0
161,526,0,0,0,0,0,0,0,0,0,-1,1385,498,0,0
168,526,0,0,0,0,0,0,0,0,0,-1,1392,498,0,0
175,526,0,0,0,0,0,0,0,0,0,-1,1399,498,0,0
182,526,0,0,0,0,0,0,0,0,0,-1,1406,498,0,0
189,526,0,0,0,0,0,0,0,0,0,-1,1413,498,0,0
196,526,0,0,0,0,0,0,0,0,0,-1,1420,498,0,0
203,526,0,0,0,0,0,0,0,0,0,-1,1427,498,0,0
210,526,0,0,0,0,0,0,0,0,0,-1,1434,498,0,0
217,526,0,0,0,0,0,0,0,0,0,-1,1441,498,0,0
224,526,0,0,0,0,0,0,0,0,0,-1,1448,498,0,0
231,526,7.93237,-1.30618,0,0,0,0,0,0,0,-1,1455,498,7.93238,1.30618
238,526,7.97717,-1.08197,0,0,0,0,0,0,0,-1,1462,498,7.97723,1.08196
245,526,7.2793,-0.792938,0,0,0,0,0,0,0,-1,1469,498,7.27931,0.792926
252,526,6.73523,-2.23608,0,0,0,0,0,0,0,-1,1476,498,6.73525,2.23608
259,526,6.22949,-1.84967,0,0,0,0,0,0,0,-1,1483,498,6.22953,1.84968
266,526,5.72375,-1.46329,0,0,0,0,0,0,0,-1,1490,498,5.72381,1.46328
273,526,4.33984,0.49173,0,0,0,0,0,0,0,-1,1497,498,4.33979,-0.491727
280,526,1.4585,-1.59897,0,0,0,0,0,0,0,-1,1504,498,1.45846,1.59895
287,526,1.46411,-2.40134,0,0,0,0,0,0,0,-1,1511,498,1.46406,2.40133
294,526,5.57471,-4.59085,0,0,0,0,0,0,0,-1,1518,498,5.57466,4.59084
301,526,4.42786,-3.99677,0,0,0,0,0,0,0,-1,1525,498,4.42788,3.99676
308,526,5.79529,-4.19366,0,0,0,0,0,0,0,-1,1532,498,5.79528,4.19368
315,526,5.09851,-5.20068,0,0,0,0,0,0,0,-1,1539,498,5.09851,5.20068
322,526,5.50708,-4.72348,0,0,0,0,0,0,0,-1,1546,498,5.50713,4.72347
329,526,3.88672,-4.345,0,0,0,0,0,0,0,-1,1553,498,3.88674,4.34501
336,526,4.97876,-2.23828,0,0,0,0,0,0,0,-1,1560,498,4.97877,2.23828
343,526,3.31665,-2.69696,0,0,0,0,0,0,0,-1,1567,498,3.31667,2.69696
350,526,6.06287,-6.12015,0,0,0,0,0,0,0,-1,1574,498,6.06286,6.12014
357,526,18.325,-47.38,0,0,0,0,0,0,0,-1,1581,498,18.325,47.38
364,526,19.9602,-49.6012,0,0,0,0,0,0,0,-1,1588,498,19.9602,49.6012
371,526,12.4481,-29.0131,0,0,0,0,0,0,0,-1,1595,498,12.4481,29.0131
378,526,18.8525,-47.0636,0,0,0,0,0,0,0,-1,1602,498,18.8525,47.0636
385,526,19.6707,-47.2968,0,0,0,0,0,0,0,-1,1609,498,19.6706,47.2968
392,526,19.619,-46.3969,0,0,0,0,0,0,0,-1,1616,498,19.619,46.3969
399,526,19.6415,-45.3428,0.00188915,0.00178127,-0.000345314,0.00218471,0.00148571,-0.707926,0.00128832,0.0370734,1623,498,19.6415,45.3428
406,526,19.6646,-44.3593,0.00168578,0.00208877,5.51682e-05,0.00209618,0.00167836,1.43717,0.0012811,0.0136297,1630,498,19.6646,44.3593
413,526,19.6125,-43.4351,0.00172127,0.00265875,0.000518802,0.0028892,0.00149082,1.15277,0.00166837,0.0131144,1637,498,19.6126,43.435
420,526,19.5404,-42.4888,0.00154667,0.00288616,0.000757682,0.00322767,0.00120516,1.14733,0.00188331,0.0137107,1644,498,19.5404,42.4888
427,526,19.5005,-41.5444,0.00120314,0.00293549,0.000924216,0.00333598,0.000802654,1.16189,0.00201057,0.0140701,1651,498,19.5005,41.5445
434,526,19.4456,-40.5995,0.000831613,0.00284207,0.0010696,0.00330467,0.000369009,1.16259,0.00209099,0.0129328,1658,498,19.4456,40.5996
441,526,19.3646,-39.6592,0.000499566,0.00279285,0.00126365,0.00335255,-6.01312e-05,1.15384,0.00225534,0.0115072,1665,498,19.3647,39.6592
448,526,19.3302,-38.7122,0.000114731,0.00267853,0.00144552,0.00332867,-0.000535411,1.14814,0.00241743,0.0108313,1672,498,19.3302,38.7122
455,526,19.2643,-37.7584,-0.000291391,0.00259777,0.00163043,0.00333152,-0.00102514,1.14791,0.00263018,0.0144397,1679,498,19.2643,37.7584
462,526,19.1976,-36.7748,-0.00051921,0.00265262,0.00186977,0.00351848,-0.00138507,1.13712,0.00291901,0.0116279,1686,498,19.1976,36.7748
469,526,19.1501,-35.8003,-0.000654633,0.00277705,0.00218921,0.00384271,-0.00172029,1.11778,0.0032888,0.00869132,1693,498,19.1502,35.8003
476,526,19.092,-34.809,-0.000758409,0.00302501,0.00256275,0.00431862,-0.00205202,1.10334,0.00375488,0.0100902,1700,498,19.092,34.809
483,526,19.0349,-33.7603,-0.000816857,0.00346035,0.00305206,0.00504849,-0.00240501,1.091,0.00439257,0.0134579,1707,498,19.0349,33.7603
490,526,19.0464,-32.6403,-0.000795987,0.00397314,0.00367222,0.00596708,-0.00278993,1.07336,0.00516559,0.0362804,1714,498,19.0464,32.6403
497,526,19.1055,-31.62,0,0,0,0,0,0,0,-1,1721,498,19.1055,31.62
504,526,17.8074,-28.809,0,0,0,0,0,0,0,-1,1728,498,17.8073,28.809
511,526,16.8915,-24.8813,0,0,0,0,0,0,0,-1,1735,498,16.8914,24.8813
518,526,14.7889,-20.4046,0,0,0,0,0,0,0,-1,1742,498,14.7889,20.4046
525,526,14.7009,-19.7487,0,0,0,0,0,0,0,-1,1749,498,14.7009,19.7486
532,526,15.7457,-17.9624,0,0,0,0,0,0,0,-1,1756,498,15.7458,17.9624
539,526,16.1064,-16.42,0,0,0,0,0,0,0,-1,1763,498,16.1065,16.42
546,526,12.4675,-17.1617,0,0,0,0,0,0,0,-1,1770,498,12.4675,17.1617
553,526,3.40796,1.37137,0,0,0,0,0,0,0,-1,1777,498,3.40792,-1.37138
560,526,0,0,0,0,0,0,0,0,0,-1,1784,498,0,0
567,526,0,0,0,0,0,0,0,0,0,-1,1791,498,0,0
574,526,0,0,0,0,0,0,0,0,0,-1,1798,498,0,0
581,526,0,0,0,0,0,0,0,0,0,-1,1805,498,0,0
588,526,0,0,0,0,0,0,0,0,0,-1,1812,498,0,0
595,526,0,0,0,0,0,0,0,0,0,-1,1819,498,0,0
602,526,0,0,0,0,0,0,0,0,0,-1,1826,498,0,0
609,526,0,0,0,0,0,0,0,0,0,-1,1833,498,0,0
616,526,0,0,0,0,0,0,0,0,0,-1,1840,498,0,0
623,526,0,0,0,0,0,0,0,0,0,-1,1847,498,0,0
630,526,0,0,0,0,0,0,0,0,0,-1,1854,498,0,0
637,526,0,0,0,0,0,0,0,0,0,-1,1861,498,0,0
644,526,0,0,0,0,0,0,0,0,0,-1,1868,498,0,0
651,526,0,0,0,0,0,0,0,0,0,-1,1875,498,0,0
658,526,0,0,0,0,0,0,0,0,0,-1,1882,498,0,0
665,526,0,0,0,0,0,0,0,0,0,-1,1889,498,0,0
672,526,0,0,0,0,0,0,0,0,0,-1,1896,498,0,0
679,526,0,0,0,0,0,0,0,0,0,-1,1903,498,0,0
686,526,0,0,0,0,0,0,0,0,0,-1,1910,498,0,0
693,526,0,0,0,0,0,0,0,0,0,-1,1917,498,0,0
700,526,0,0,0,0,0,0,0,0,0,-1,1924,498,0,0
707,526,0,0,0,0,0,0,0,0,0,-1,1931,498,0,0
714,526,0,0,0,0,0,0,0,0,0,-1,1938,498,0,0
721,526,0,0,0,0,0,0,0,0,0,-1,1945,498,0,0
728,526,0,0,0,0,0,0,0,0,0,-1,1952,498,0,0
735,526,0,0,0,0,0,0,0,0,0,-1,1959,498,0,0
742,526,0,0,0,0,0,0,0,0,0,-1,1966,498,0,0
749,526,0,0,0,0,0,0,0,0,0,-1,1973,498,0,0
756,526,0,0,0,0,0,0,0,0,0,-1,1980,498,0,0
763,526,0,0,0,0,0,0,0,0,0,-1,1987,498,0,0
770,526,0,0,0,0,0,0,0,0,0,-1,1994,498,0,0
777,526,0,0,0,0,0,0,0,0,0,-1,2001,498,0,0
784,526,0,0,0,0,0,0,0,0,0,-1,2008,498,0,0
791,526,0,0,0,0,0,0,0,0,0,-1,2015,498,0,0
798,526,0,0,0,0,0,0,0,0,0,-1,2022,498,0,0
805,526,0,0,0,0,0,0,0,0,0,-1,2029,498,0,0
812,526,0,0,0,0,0,0,0,0,0,-1,2036,498,0,0
-700,519,0,0,0,0,0,0,0,0,0,-1,524,505,0,0
-693,519,0,0,0,0,0,0,0,0,0,-1,531,505,0,0
-686,519,0,0,0,0,0,0,0,0,0,-1,538,505,0,0
-679,519,0,0,0,0,0,0,0,0,0,-1,545,505,0,0
-672,519,0,0,0,0,0,0,0,0,0,-1,552,505,0,0
-665,519,0,0,0,0,0,0,0,0,0,-1,559,505,0,0
-658,519,0,0,0,0,0,0,0,0,0,-1,566,505,0,0
-651,519,0,0,0,0,0,0,0,0,0,-1,573,505,0,0
-644,519,0,0,0,0,0,0,0,0,0,-1,580,505,0,0
-637,519,0,0,0,0,0,0,0,0,0,-1,587,505,0,0
-630,519,0,0,0,0,0,0,0,0,0,-1,594,505,0,0
-623,519,0,0,0,0,0,0,0,0,0,-1,601,505,0,0
-616,519,0,0,0,0,0,0,0,0,0,-1,608,505,0,0
-609,519,0,0,0,0,0,0,0,0,0,-1,615,505,0,0
-602,519,0,0,0,0,0,0,0,0,0,-1,622,505,0,0
-595,519,0,0,0,0,0,0,0,0,0,-1,629,505,0,0
-588,519,0,0,0,0,0,0,0,0,0,-1,636,505,0,0
-581,519,0,0,0,0,0,0,0,0,0,-1,643,505,0,0
-574,519,0,0,0,0,0,0,0,0,0,-1,650,505,0,0
-567,519,0,0,0,0,0,0,0,0,0,-1,657,505,0,0
-560,519,0,0,0,0,0,0,0,0,0,-1,664,505,0,0
-553,519,0,0,0,0,0,0,0,0,0,-1,671,505,0,0
-546,519,0,0,0,0,0,0,0,0,0,-1,678,505,0,0
-539,519,0,0,0,0,0,0,0,0,0,-1,685,505,0,0
-532,519,0,0,0,0,0,0,0,0,0,-1,692,505,0,0
-525,519,0,0,0,0,0,0,0,0,0,-1,699,505,0,0
-518,519,0,0,0,0,0,0,0,0,0,-1,706,505,0,0
-511,519,0,0,0,0,0,0,0,0,0,-1,713,505,0,0
-504,519,0,0,0,0,0,0,0,0,0,-1,720,505,0,0
-497,519,0,0,0,0,0,0,0,0,0,-1,727,505,0,0
-490,519,0,0,0,0,0,0,0,0,0,-1,734,505,0,0
-483,519,0,0,0,0,0,0,0,0,0,-1,741,505,0,0
-476,519,0,0,0,0,0,0,0,0,0,-1,748,505,0,0
-469,519,0,0,0,0,0,0,0,0,0,-1,755,505,0,0
-462,519,0,0,0,0,0,0,0,0,0,-1,762,505,0,0
-455,519,0,0,0,0,0,0,0,0,0,-1,769,505,0,0
-448,519,0,0,0,0,0,0,0,0,0,-1,776,505,0,0
-441,519,1.34839,-5.29346,0,0,0,0,0,0,0,-1,783,505,1.3484,5.29347
-434,519,0.949585,-5.77313,0,0,0,0,0,0,0,-1,790,505,0.949598,5.77315
-427,519,-0.0523682,-9.31567,0,0,0,0,0,0,0,-1,797,505,-0.0523854,9.31568
-420,519,-2.38867,-12.1938,0,0,0,0,0,0,0,-1,804,505,-2.38867,12.1938
-413,519,-2.2298,-12.4998,0,0,0,0,0,0,0,-1,811,505,-2.22979,12.4998
-406,519,-1.44373,-12.3475,0,0,0,0,0,0,0,-1,818,505,-1.44376,12.3475
-399,519,-1.60516,-15.0849,0,0,0,0,0,0,0,-1,825,505,-1.60518,15.0849
-392,519,-1.94183,-24.8959,0,0,0,0,0,0,0,-1,832,505,-1.94183,24.8958
-385,519,-3.32086,-28.8107,0,0,0,0,0,0,0,-1,839,505,-3.32089,28.8107
-378,519,-2.9259,-30.1667,0.00600944,0.0204214,-0.0144592,0.0293707,-0.00293991,-1.01657,0.0206304,0.0444704,846,505,-2.92589,30.1667
-371,519,-2.60718,-31.5902,0.00507982,0.0169228,-0.0121356,0.0245045,-0.00250191,-1.01238,0.017231,0.0227015,853,505,-2.6072,31.5902
-364,519,-2.65936,-32.7346,0.00414015,0.0139481,-0.00996643,0.0201517,-0.00206347,-1.01403,0.0141725,0.0133137,860,505,-2.65939,32.7346
-357,519,-2.68915,-33.825,0.00327732,0.0113246,-0.00807703,0.0163247,-0.00172278,-1.01649,0.0115005,0.0117236,867,505,-2.68914,33.825
-350,519,-2.74408,-34.8385,0.00248273,0.00893293,-0.00634383,0.0128244,-0.00140873,-1.02056,0.00905577,0.0147223,874,505,-2.74407,34.8385
-343,519,-2.86322,-35.8022,0.0018936,0.00666288,-0.00479974,0.00963772,-0.00108124,-1.01595,0.00681422,0.0179699,881,505,-2.86323,35.8023
-336,519,-2.95624,-36.7643,0.00142918,0.00476949,-0.00344562,0.00692839,-0.000729726,-1.01107,0.00488039,0.0177408,888,505,-2.95622,36.7643
-329,519,-2.96942,-37.759,0.00105323,0.00314951,-0.00226749,0.00459939,-0.000396647,-1.00189,0.00320666,0.0150351,895,505,-2.96944,37.759
-322,519,-3.01801,-38.7302,0.000727858,0.00153849,-0.00110199,0.00230733,-4.09894e-05,-0.961621,0.00155207,0.0119663,902,505,-3.01803,38.7302
-315,519,-3.09442,-39.725,0.000743034,0.000359897,-0.000242549,0.000860543,0.000242388,-0.451149,0.00051238,0.0097695,909,505,-3.0944,39.725
-308,519,-3.1723,-40.719,0.000978918,-0.000609374,0.000436808,0.00109112,-0.000721578,0.251435,0.00105379,0.00805154,916,505,-3.17233,40.719
-301,519,-3.2735,-41.6285,0.00123004,-0.00141657,0.00100589,0.00156895,-0.00175548,0.324978,0.00192037,0.0128066,923,505,-3.27347,41.6285
-294,519,-3.28967,-42.5132,0.0016187,-0.00194867,0.00152553,0.00218209,-0.00251206,0.353772,0.0027124,0.0168125,930,505,-3.28965,42.5132
-287,519,-3.35907,-43.4534,0.0022765,-0.0027277,0.00209076,0.00303504,-0.00348624,0.348038,0.00376807,0.0119376,937,505,-3.35908,43.4533
-280,519,-3.44849,-44.4013,0.00278162,-0.00484765,0.00249323,0.00352414,-0.00559017,0.28945,0.00530702,0.025998,944,505,-3.44847,44.4013
-273,519,-3.5152,-45.4094,0,0,0,0,0,0,0,-1,951,505,-3.51521,45.4094
-266,519,-3.46893,-46.3823,0,0,0,0,0,0,0,-1,958,505,-3.46891,46.3823
-259,519,-3.29718,-47.4896,0,0,0,0,0,0,0,-1,965,505,-3.29718,47.4896
-252,519,-1.84009,-26.8372,0,0,0,0,0,0,0,-1,972,505,-1.8401,26.8372
-245,519,-1.23254,-23.2696,0,0,0,0,0,0,0,-1,979,505,-1.23256,23.2696
-238,519,-2.88947,-47.3945,0,0,0,0,0,0,0,-1,986,505,-2.88946,47.3945
-231,519,-1.83258,-48.5752,0,0,0,0,0,0,0,-1,993,505,-1.83261,48.5752
-224,519,-3.33752,-42.7635,0,0,0,0,0,0,0,-1,1000,505,-3.33753,42.7635
-217,519,-2.87396,-38.149,0,0,0,0,0,0,0,-1,1007,505,-2.87394,38.149
-210,519,-0.883362,-34.799,0,0,0,0,0,0,0,-1,1014,505,-0.883379,34.799
-203,519,-0.513611,-5.39017,0,0,0,0,0,0,0,-1,1021,505,-0.513585,5.39017
-196,519,-0.374023,-5.41635,0,0,0,0,0,0,0,-1,1028,505,-0.374047,5.41635
-189,519,-0.234497,-5.44254,0,0,0,0,0,0,0,-1,1035,505,-0.234508,5.44253
-182,519,2.76697,-1.19659,0,0,0,0,0,0,0,-1,1042,505,2.76696,1.19661
-175,519,2.31323,-0.960938,0,0,0,0,0,0,0,-1,1049,505,2.31319,0.960941
-168,519,2.01074,-0.721405,0,0,0,0,0,0,0,-1,1056,505,2.01072,0.721407
-161,519,2.32056,-0.522339,0,0,0,0,0,0,0,-1,1063,505,2.32057,0.522328
-154,519,2.55566,0.116669,0,0,0,0,0,0,0,-1,1070,505,2.55563,-0.116661
-147,519,-0.55127,-6.14001,0,0,0,0,0,0,0,-1,1077,505,-0.551252,6.14001
-140,519,0.240601,-7.53503,0,0,0,0,0,0,0,-1,1084,505,0.240653,7.53501
-133,519,2.70911,-4.4516,0,0,0,0,0,0,0,-1,1091,505,2.70915,4.45161
-126,519,0,0,0,0,0,0,0,0,0,-1,1098,505,0,0
-119,519,0,0,0,0,0,0,0,0,0,-1,1105,505,0,0
-112,519,0,0,0,0,0,0,0,0,0,-1,1112,505,0,0
-105,519,0,0,0,0,0,0,0,0,0,-1,1119,505,0,0
-98,519,0,0,0,0,0,0,0,0,0,-1,1126,505,0,0
-91,519,0,0,0,0,0,0,0,0,0,-1,1133,505,0,0
-84,519,0,0,0,0,0,0,0,0,0,-1,1140,505,0,0
-77,519,0,0,0,0,0,0,0,0,0,-1,1147,505,0,0
-70,519,0,0,0,0,0,0,0,0,0,-1,1154,505,0,0
-63,519,0,0,0,0,0,0,0,0,0,-1,1161,505,0,0
-56,519,0,0,0,0,0,0,0,0,0,-1,1168,505,0,0
-49,519,0,0,0,0,0,0,0,0,0,-1,1175,505,0,0
-42,519,0,0,0,0,0,0,0,0,0,-1,1182,505,0,0
-35,519,0,0,0,0,0,0,0,0,0,-1,1189,505,0,0
-28,519,0,0,0,0,0,0,0,0,0,-1,1196,505,0,0
-21,519,0,0,0,0,0,0,0,0,0,-1,1203,505,0,0
-14,519,0,0,0,0,0,0,0,0,0,-1,1210,505,0,0
-7,519,0,0,0,0,0,0,0,0,0,-1,1217,505,0,0
0,519,0,0,0,0,0,0,0,0,0,-1,1224,505,0,0
7,519,0,0,0,0,0,0,0,0,0,-1,1231,505,0,0
14,519,0,0,0,0,0,0,0,0,0,-1,1238,505,0,0
21,519,0,0,0,0,0,0,0,0,0,-1,1245,505,0,0
28,519,0,0,0,0,0,0,0,0,0,-1,1252,505,0,0
35,519,0,0,0,0,0,0,0,0,0,-1,1259,505,0,0
42,519,0,0,0,0,0,0,0,0,0,-1,1266,505,0,0
49,519,0,0,0,0,0,0,0,0,0,-1,1273,505,0,0
56,519,0,0,0,0,0,0,0,0,0,-1,1280,505,0,0
63,519,0,0,0,0,0,0,0,0,0,-1,1287,505,0,0
70,519,0,0,0,0,0,0,0,0,0,-1,1294,505,0,0
77,519,0,0,0,0,0,0,0,0,0,-1,1301,505,0,0
84,519,0,0,0,0,0,0,0,0,0,-1,1308,505,0,0
91,519,0,0,0,0,0,0,0,0,0,-1,1315,505,0,0
98,519,0,0,0,0,0,0,0,0,0,-1,1322,505,0,0
105,519,0,0,0,0,0,0,0,0,0,-1,1329,505,0,0
112,519,0,0,0,0,0,0,0,0,0,-1,1336,505,0,0
119,519,0,0,0,0,0,0,0,0,0,-1,1343,505,0,0
126,519,0,0,0,0,0,0,0,0,0,-1,1350,505,0,0
133,519,0,0,0,0,0,0,0,0,0,-1,1357,505,0,0
140,519,0,0,0,0,0,0,0,0,0,-1,1364,505,0,0
147,519,0,0,0,0,0,0,0,0,0,-1,1371,505,0,0
154,519,0,0,0,0,0,0,0,0,0,-1,1378,505,0,0
161,519,0,0,0,0,0,0,0,0,0,-1,1385,505,0,0
168,519,0,0,0,0,0,0,0,0,0,-1,1392,505,0,0
175,519,0,0,0,0,0,0,0,0,0,-1,1399,505,0,0
182,519,0,0,0,0,0,0,0,0,0,-1,1406,505,0,0
189,519,0,0,0,0,0,0,0,0,0,-1,1413,505,0,0
196,519,0,0,0,0,0,0,0,0,0,-1,1420,505,0,0
203,519,0,0,0,0,0,0,0,0,0,-1,1427,505,0,0
210,519,0,0,0,0,0,0,0,0,0,-1,1434,505,0,0
217,519,0,0,0,0,0,0,0,0,0,-1,1441,505,0,0
224,519,0,0,0,0,0,0,0,0,0,-1,1448,505,0,0
231,519,0,0,0,0,0,0,0,0,0,-1,1455,505,0,0
238,519,0,0,0,0,0,0,0,0,0,-1,1462,505,0,0
245,519,0,0,0,0,0,0,0,0,0,-1,1469,505,0,0
252,519,5.26208,0.0938416,0,0,0,0,0,0,0,-1,1476,505,5.26207,-0.0938493
259,519,6.14246,-1.36441,0,0,0,0,0,0,0,-1,1483,505,6.14241,1.36441
266,519,5.31909,-0.400787,0,0,0,0,0,0,0,-1,1490,505,5.31912,0.400773
273,519,4.02393,0.325531,0,0,0,0,0,0,0,-1,1497,505,4.0239,-0.325522
280,519,4.68848,0.53006,0,0,0,0,0,0,0,-1,1504,505,4.68842,-0.530073
287,519,7.9519,-3.80801,0,0,0,0,0,0,0,-1,1511,505,7.95193,3.808
294,519,6.92273,-3.38889,0,0,0,0,0,0,0,-1,1518,505,6.92268,3.38888
301,519,5.35669,-2.92661,0,0,0,0,0,0,0,-1,1525,505,5.35675,2.9266
308,519,7.37549,-5.64529,0,0,0,0,0,0,0,-1,1532,505,7.3755,5.64529
315,519,6.30029,-4.53754,0,0,0,0,0,0,0,-1,1539,505,6.30024,4.53753
322,519,5.84302,-5.45117,0,0,0,0,0,0,0,-1,1546,505,5.84303,5.45116
329,519,4.92407,0.62384,0,0,0,0,0,0,0,-1,1553,505,4.92403,-0.623832
336,519,3.10095,-0.329285,0,0,0,0,0,0,0,-1,1560,505,3.1009,0.329283
343,519,2.49146,-2.31119,0,0,0,0,0,0,0,-1,1567,505,2.49145,2.31119
350,519,3.47729,-2.22516,0,0,0,0,0,0,0,-1,1574,505,3.47726,2.22515
357,519,13.271,-29.6344,0,0,0,0,0,0,0,-1,1581,505,13.271,29.6344
364,519,12.8292,-28.3627,0,0,0,0,0,0,0,-1,1588,505,12.8292,28.3627
371,519,12.3875,-27.0911,0,0,0,0,0,0,0,-1,1595,505,12.3874,27.091
378,519,6.36597,-10.0967,0,0,0,0,0,0,0,-1,1602,505,6.36597,10.0967
385,519,6.24756,-9.72186,0,0,0,0,0,0,0,-1,1609,505,6.24752,9.72183
392,519,16.8391,-37.6736,0,0,0,0,0,0,0,-1,1616,505,16.8391,37.6737
399,519,20.3646,-45.4377,0,0,0,0,0,0,0,-1,1623,505,20.3647,45.4377
406,519,20.5513,-44.2791,0,0,0,0,0,0,0,-1,1630,505,20.5513,44.2791
413,519,20.5962,-43.4097,0.00182632,0.0035157,0.000440238,0.00362354,0.00171848,1.33057,0.00209298,0.0188221,1637,505,20.5962,43.4097
420,519,20.5184,-42.4084,0.00181372,0.00355526,0.000661244,0.00377788,0.00159111,1.24606,0.00219018,0.0154734,1644,505,20.5185,42.4084
427,519,20.4773,-41.5104,0.00160346,0.00343295,0.000831418,0.00375433,0.00128208,1.20194,0.00220357,0.0145257,1651,505,20.4772,41.5104
434,519,20.3989,-40.5612,0.00129262,0.00315834,0.000931166,0.00354355,0.000907412,1.17855,0.00212547,0.0135565,1658,505,20.3989,40.5612
441,519,20.3091,-39.5887,0.00105031,0.00294609,0.00107826,0.00343386,0.000562535,1.14597,0.00212668,0.0132868,1665,505,20.3091,39.5887
448,519,20.2676,-38.6396,0.000775594,0.00270854,0.00123253,0.00330834,0.000175794,1.11789,0.00214936,0.0102174,1672,505,20.2676,38.6396
455,519,20.2001,-37.706,0.000476224,0.00253851,0.00138248,0.00323204,-0.000217309,1.10582,0.00223066,0.0116961,1679,505,20.2001,37.706
462,519,20.1461,-36.7368,0.000356298,0.00254623,0.00159867,0.00338897,-0.00048644,1.08567,0.00243769,0.0111416,1686,505,20.1461,36.7367
469,519,20.1146,-35.7405,0.00032921,0.00263735,0.00190239,0.00370835,-0.000741794,1.05804,0.00275301,0.0109506,1693,505,20.1147,35.7405
476,519,20.0735,-34.7379,0.00030307,0.00285806,0.00227817,0.00419247,-0.00103134,1.04093,0.00319474,0.0133369,1700,505,20.0735,34.7379
483,519,20.0044,-33.7459,0.00030869,0.00321846,0.00275372,0.00487801,-0.00135086,1.02843,0.00378355,0.0142905,1707,505,20.0044,33.7459
490,519,19.9277,-32.7189,0.000364937,0.00368751,0.00334102,0.00575748,-0.00170503,1.01612,0.00451528,0.0127445,1714,505,19.9278,32.7188
497,519,19.8689,-31.6932,0,0,0,0,0,0,0,-1,1721,505,19.8689,31.6931
504,519,19.8522,-30.6235,0,0,0,0,0,0,0,-1,1728,505,19.8522,30.6236
511,519,20.0031,-29.3251,0,0,0,0,0,0,0,-1,1735,505,20.003,29.3251
518,519,20.0575,-28.2579,0,0,0,0,0,0,0,-1,1742,505,20.0575,28.2579
525,519,15.9647,-20.5714,0,0,0,0,0,0,0,-1,1749,505,15.9648,20.5714
532,519,15.825,-19.0025,0,0,0,0,0,0,0,-1,1756,505,15.8249,19.0025
539,519,16.5902,-16.8075,0,0,0,0,0,0,0,-1,1763,505,16.5903,16.8075
546,519,12.4001,-16.5616,0,0,0,0,0,0,0,-1,1770,505,12.4002,16.5616
553,519,4.14136,0.0667419,0,0,0,0,0,0,0,-1,1777,505,4.14141,-0.0667503
560,519,3.77856,0.279724,0,0,0,0,0,0,0,-1,1784,505,3.77861,-0.279731
567,519,0,0,0,0,0,0,0,0,0,-1,1791,505,0,0
574,519,0,0,0,0,0,0,0,0,0,-1,1798,505,0,0
581,519,0,0,0,0,0,0,0,0,0,-1,1805,505,0,0
588,519,0,0,0,0,0,0,0,0,0,-1,1812,505,0,0
595,519,0,0,0,0,0,0,0,0,0,-1,1819,505,0,0
602,519,0,0,0,0,0,0,0,0,0,-1,1826,505,0,0
609,519,0,0,0,0,0,0,0,0,0,-1,1833,505,0,0
616,519,0,0,0,0,0,0,0,0,0,-1,1840,505,0,0
623,519,0,0,0,0,0,0,0,0,0,-1,1847,505,0,0
630,519,0,0,0,0,0,0,0,0,0,-1,1854,505,0,0
637,519,0,0,0,0,0,0,0,0,0,-1,1861,505,0,0
644,519,0,0,0,0,0,0,0,0,0,-1,1868,505,0,0
651,519,0,0,0,0,0,0,0,0,0,-1,1875,505,0,0
658,519,0,0,0,0,0,0,0,0,0,-1,1882,505,0,0
665,519,0,0,0,0,0,0,0,0,0,-1,1889,505,0,0
672,519,0,0,0,0,0,0,0,0,0,-1,1896,505,0,0
679,519,0,0,0,0,0,0,0,0,0,-1,1903,505,0,0
686,519,0,0,0,0,0,0,0,0,0,-1,1910,505,0,0
693,519,0,0,0,0,0,0,0,0,0,-1,1917,505,0,0
700,519,0,0,0,0,0,0,0,0,0,-1,1924,505,0,0
707,519,0,0,0,0,0,0,0,0,0,-1,1931,505,0,0
714,519,0,0,0,0,0,0,0,0,0,-1,1938,505,0,0
721,519,0,0,0,0,0,0,0,0,0,-1,1945,505,0,0
728,519,0,0,0,0,0,0,0,0,0,-1,1952,505,0,0
735,519,0,0,0,0,0,0,0,0,0,-1,1959,505,0,0
742,519,0,0,0,0,0,0,0,0,0,-1,1966,505,0,0
749,519,0,0,0,0,0,0,0,0,0,-1,1973,505,0,0
756,519,0,0,0,0,0,0,0,0,0,-1,1980,505,0,0
763,519,0,0,0,0,0,0,0,0,0,-1,1987,505,0,0
770,519,0,0,0,0,0,0,0,0,0,-1,1994,505,0,0
777,519,0,0,0,0,0,0,0,0,0,-1,2001,505,0,0
784,519,0,0,0,0,0,0,0,0,0,-1,2008,505,0,0
791,519,0,0,0,0,0,0,0,0,0,-1,2015,505,0,0
798,519,0,0,0,0,0,0,0,0,0,-1,2022,505,0,0
805,519,0,0,0,0,0,0,0,0,0,-1,2029,505,0,0
812,519,0,0,0,0,0,0,0,0,0,-1,2036,505,0,0
-700,512,0,0,0,0,0,0,0,0,0,-1,524,512,0,0
-693,512,0,0,0,0,0,0,0,0,0,-1,531,512,0,0
-686,512,0,0,0,0,0,0,0,0,0,-1,538,512,0,0
-679,512,0,0,0,0,0,0,0,0,0,-1,545,512,0,0
-672,512,0,0,0,0,0,0,0,0,0,-1,552,512,0,0
-665,512,0,0,0,0,0,0,0,0,0,-1,559,512,0,0
-658,512,0,0,0,0,0,0,0,0,0,-1,566,512,0,0
-651,512,0,0,0,0,0,0,0,0,0,-1,573,512,0,0
-644,512,0,0,0,0,0,0,0,0,0,-1,580,512,0,0
-637,512,0,0,0,0,0,0,0,0,0,-1,587,512,0,0
-630,512,0,0,0,0,0,0,0,0,0,-1,594,512,0,0
-623,512,0,0,0,0,0,0,0,0,0,-1,601,512,0,0
-616,512,0,0,0,0,0,0,0,0,0,-1,608,512,0,0
-609,512,0,0,0,0,0,0,0,0,0,-1,615,512,0,0
-602,512,0,0,0,0,0,0,0,0,0,-1,622,512,0,0
-595,512,0,0,0,0,0,0,0,0,0,-1,629,512,0,0
-588,512,0,0,0,0,0,0,0,0,0,-1,636,512,0,0
-581,512,0,0,0,0,0,0,0,0,0,-1,643,512,0,0
-574,512,0,0,0,0,0,0,0,0,0,-1,650,512,0,0
-567,512,0,0,0,0,0,0,0,0,0,-1,657,512,0,0
-560,512,0,0,0,0,0,0,0,0,0,-1,664,512,0,0
-553,512,0,0,0,0,0,0,0,0,0,-1,671,512,0,0
-546,512,0,0,0,0,0,0,0,0,0,-1,678,512,0,0
-539,512,0,0,0,0,0,0,0,0,0,-1,685,512,0,0
-532,512,0,0,0,0,0,0,0,0,0,-1,692,512,0,0
-525,512,0,0,0,0,0,0,0,0,0,-1,699,512,0,0
-518,512,0,0,0,0,0,0,0,0,0,-1,706,512,0,0
-511,512,0,0,0,0,0,0,0,0,0,-1,713,512,0,0
-504,512,0,0,0,0,0,0,0,0,0,-1,720,512,0,0
-497,512,0,0,0,0,0,0,0,0,0,-1,727,512,0,0
-490,512,0,0,0,0,0,0,0,0,0,-1,734,512,0,0
-483,512,0,0,0,0,0,0,0,0,0,-1,741,512,0,0
-476,512,0,0,0,0,0,0,0,0,0,-1,748,512,0,0
-469,512,0,0,0,0,0,0,0,0,0,-1,755,512,0,0
-462,512,0,0,0,0,0,0,0,0,0,-1,762,512,0,0
-455,512,0,0,0,0,0,0,0,0,0,-1,769,512,0,0
-448,512,1.96283,-4.15674,0,0,0,0,0,0,0,-1,776,512,1.96285,4.15677
-441,512,1.78198,-4.88824,0,0,0,0,0,0,0,-1,783,512,1.78201,4.88826
-434,512,0.0726929,-9.85822,0,0,0,0,0,0,0,-1,790,512,0.0727008,9.85819
-427,512,-0.384583,-9.94824,0,0,0,0,0,0,0,-1,797,512,-0.384552,9.94823
-420,512,-2.93219,-12.4855,0,0,0,0,0,0,0,-1,804,512,-2.93219,12.4855
-413,512,-2.22711,-11.4485,0,0,0,0,0,0,0,-1,811,512,-2.22712,11.4485
-406,512,-2.38037,-13.5743,0,0,0,0,0,0,0,-1,818,512,-2.38034,13.5743
-399,512,-3.13367,-23.934,0,0,0,0,0,0,0,-1,825,512,-3.13368,23.934
-392,512,-3.33148,-28.5545,0,0,0,0,0,0,0,-1,832,512,-3.33151,28.5545
-385,512,-3.41742,-29.6253,0.00492941,0.0188917,-0.0132701,0.0269049,-0.00308385,-1.02755,0.019048,0.0250641,839,512,-3.41739,29.6253
-378,512,-3.47754,-30.6205,0.0043713,0.0158152,-0.0112824,0.0227437,-0.0025572,-1.02008,0.0160828,0.0209525,846,512,-3.47754,30.6205
-371,512,-3.55756,-31.6766,0.00386159,0.0129901,-0.00944903,0.0189195,-0.0020678,-1.01039,0.0133557,0.015796,853,512,-3.55754,31.6766
-364,512,-3.61847,-32.7836,0.00329167,0.0104352,-0.00769892,0.0153505,-0.00162367,-1.00259,0.0108156,0.0103079,860,512,-3.6185,32.7837
-357,512,-3.67334,-33.7911,0.00275032,0.00822655,-0.00614455,0.0122155,-0.00123859,-0.995,0.00858633,0.0115071,867,512,-3.67334,33.7911
-350,512,-3.74329,-34.7733,0.00223041,0.0062082,-0.00469968,0.00932251,-0.000883905,-0.98557,0.00652962,0.0126381,874,512,-3.7433,34.7733
-343,512,-3.85199,-35.7366,0.00184577,0.00423562,-0.00338615,0.0066315,-0.000550112,-0.95502,0.00461531,0.0151284,881,512,-3.852,35.7367
-336,512,-3.93658,-36.7465,0.0015102,0.00256752,-0.00220861,0.00430985,-0.000232137,-0.902871,0.00295366,0.0165979,888,512,-3.93657,36.7465
-329,512,-3.93915,-37.7198,0.00122164,0.00112211,-0.00116035,0.00233329,1.04622e-05,-0.763967,0.00155205,0.0183946,895,512,-3.93913,37.7198
-322,512,-3.99945,-38.6727,0.00103027,-0.000240162,-0.000182012,0.00105583,-0.000265724,-0.13953,0.000807175,0.0152535,902,512,-3.99948,38.6727
-315,512,-4.07404,-39.6793,0.00111185,-0.00127514,0.000585975,0.00124794,-0.00141123,0.228201,0.00153623,0.0122424,909,512,-4.07403,39.6793
-308,512,-4.15228,-40.6303,0.00139483,-0.00211656,0.00119436,0.00176257,-0.0024843,0.298684,0.0024637,0.0113869,916,512,-4.15228,40.6303
-301,512,-4.22736,-41.5569,0.0016551,-0.00276495,0.00173333,0.00225374,-0.00336359,0.332548,0.0032642,0.0160026,923,512,-4.22738,41.5569
-294,512,-4.23523,-42.4531,0.00199332,-0.00307913,0.00222015,0.00282778,-0.00391358,0.359521,0.00390892,0.0178779,930,512,-4.23521,42.453
-287,512,-4.33691,-43.3699,0,0,0,0,0,0,0,-1,937,512,-4.33689,43.3699
-280,512,-4.414,-44.3387,0,0,0,0,0,0,0,-1,944,512,-4.41399,44.3388
-273,512,-2.90118,-34.7153,0,0,0,0,0,0,0,-1,951,512,-2.90121,34.7153
-266,512,-2.33594,-25.9839,0,0,0,0,0,0,0,-1,958,512,-2.33592,25.9839
-259,512,-0.525452,-14.0815,0,0,0,0,0,0,0,-1,965,512,-0.525475,14.0815
-252,512,1.45941,-3.43475,0,0,0,0,0,0,0,-1,972,512,1.45938,3.43475
-245,512,-1.6731,-22.8959,0,0,0,0,0,0,0,-1,979,512,-1.67312,22.8959
-238,512,0.227051,-8.92969,0,0,0,0,0,0,0,-1,986,512,0.227073,8.92968
-231,512,-1.90576,-38.0918,0,0,0,0,0,0,0,-1,993,512,-1.90575,38.0918
-224,512,-1.29974,-33.6304,0,0,0,0,0,0,0,-1,1000,512,-1.29974,33.6304
-217,512,-0.963196,-34.1697,0,0,0,0,0,0,0,-1,1007,512,-0.963226,34.1697
-210,512,-3.76642,-1.94702,0,0,0,0,0,0,0,-1,1014,512,-3.76641,1.94702
-203,512,-2.48328,-5.19061,0,0,0,0,0,0,0,-1,1021,512,-2.48328,5.19059
-196,512,-1.14929,-4.63202,0,0,0,0,0,0,0,-1,1028,512,-1.14934,4.632
-189,512,0.197998,4.55505,0,0,0,0,0,0,0,-1,1035,512,0.197996,-4.55506
-182,512,2.73938,0.0778503,0,0,0,0,0,0,0,-1,1042,512,2.73944,-0.077852
-175,512,2.29565,0.209808,0,0,0,0,0,0,0,-1,1049,512,2.29565,-0.209813
-168,512,2.09399,-0.302856,0,0,0,0,0,0,0,-1,1056,512,2.09403,0.302826
-161,512,2.76636,0.0921021,0,0,0,0,0,0,0,-1,1063,512,2.76633,-0.0921104
-154,512,3.41382,0.466187,0,0,0,0,0,0,0,-1,1070,512,3.41382,-0.466178
-147,512,0,0,0,0,0,0,0,0,0,-1,1077,512,0,0
-140,512,0,0,0,0,0,0,0,0,0,-1,1084,512,0,0
-133,512,0,0,0,0,0,0,0,0,0,-1,1091,512,0,0
-126,512,0,0,0,0,0,0,0,0,0,-1,1098,512,0,0
-119,512,0,0,0,0,0,0,0,0,0,-1,1105,512,0,0
-112,512,0,0,0,0,0,0,0,0,0,-1,1112,512,0,0
-105,512,0,0,0,0,0,0,0,0,0,-1,1119,512,0,0
-98,512,0,0,0,0,0,0,0,0,0,-1,1126,512,0,0
-91,512,0,0,0,0,0,0,0,0,0,-1,1133,512,0,0
-84,512,0,0,0,0,0,0,0,0,0,-1,1140,512,0,0
-77,512,0,0,0,0,0,0,0,0,0,-1,1147,512,0,0
-70,512,0,0,0,0,0,0,0,0,0,-1,1154,512,0,0
-63,512,0,0,0,0,0,0,0,0,0,-1,1161,512,0,0
-56,512,0,0,0,0,0,0,0,0,0,-1,1168,512,0,0
-49,512,0,0,0,0,0,0,0,0,0,-1,1175,512,0,0
-42,512,0,0,0,0,0,0,0,0,0,-1,1182,512,0,0
-35,512,0,0,0,0,0,0,0,0,0,-1,1189,512,0,0
-28,512,0,0,0,0,0,0,0,0,0,-1,1196,512,0,0
-21,512,0,0,0,0,0,0,0,0,0,-1,1203,512,0,0
-14,512,0,0,0,0,0,0,0,0,0,-1,1210,512,0,0
-7,512,0,0,0,0,0,0,0,0,0,-1,1217,512,0,0
0,512,0,0,0,0,0,0,0,0,0,-1,1224,512,0,0
7,512,0,0,0,0,0,0,0,0,0,-1,1231,512,0,0
14,512,0,0,0,0,0,0,0,0,0,-1,1238,512,0,0
21,512,0,0,0,0,0,0,0,0,0,-1,1245,512,0,0
28,512,0,0,0,0,0,0,0,0,0,-1,1252,512,0,0
35,512,0,0,0,0,0,0,0,0,0,-1,1259,512,0,0
42,512,0,0,0,0,0,0,0,0,0,-1,1266,512,0,0
49,512,0,0,0,0,0,0,0,0,0,-1,1273,512,0,0
56,512,0,0,0,0,0,0,0,0,0,-1,1280,512,0,0
63,512,0,0,0,0,0,0,0,0,0,-1,1287,512,0,0
70,512,0,0,0,0,0,0,0,0,0,-1,1294,512,0,0
77,512,0,0,0,0,0,0,0,0,0,-1,1301,512,0,0
84,512,0,0,0,0,0,0,0,0,0,-1,1308,512,0,0
91,512,0,0,0,0,0,0,0,0,0,-1,1315,512,0,0
98,512,0,0,0,0,0,0,0,0,0,-1,1322,512,0,0
105,512,0,0,0,0,0,0,0,0,0,-1,1329,512,0,0
112,512,0,0,0,0,0,0,0,0,0,-1,1336,512,0,0
119,512,0,0,0,0,0,0,0,0,0,-1,1343,512,0,0
126,512,0,0,0,0,0,0,0,0,0,-1,1350,512,0,0
133,512,0,0,0,0,0,0,0,0,0,-1,1357,512,0,0
140,512,0,0,0,0,0,0,0,0,0,-1,1364,512,0,0
147,512,0,0,0,0,0,0,0,0,0,-1,1371,512,0,0
154,512,0,0,0,0,0,0,0,0,0,-1,1378,512,0,0
161,512,0,0,0,0,0,0,0,0,0,-1,1385,512,0,0
168,512,0,0,0,0,0,0,0,0,0,-1,1392,512,0,0
175,512,0,0,0,0,0,0,0,0,0,-1,1399,512,0,0
182,512,0,0,0,0,0,0,0,0,0,-1,1406,512,0,0
189,512,0,0,0,0,0,0,0,0,0,-1,1413,512,0,0
196,512,0,0,0,0,0,0,0,0,0,-1,1420,512,0,0
203,512,0,0,0,0,0,0,0,0,0,-1,1427,512,0,0
210,512,0,0,0,0,0,0,0,0,0,-1,1434,512,0,0
217,512,0,0,0,0,0,0,0,0,0,-1,1441,512,0,0
224,512,0,0,0,0,0,0,0,0,0,-1,1448,512,0,0
231,512,0,0,0,0,0,0,0,0,0,-1,1455,512,0,0
238,512,0,0,0,0,0,0,0,0,0,-1,1462,512,0,0
245,512,0,0,0,0,0,0,0,0,0,-1,1469,512,0,0
252,512,0,0,0,0,0,0,0,0,0,-1,1476,512,0,0
259,512,0,0,0,0,0,0,0,0,0,-1,1483,512,0,0
266,512,0,0,0,0,0,0,0,0,0,-1,1490,512,0,0
273,512,4.00745,0.618622,0,0,0,0,0,0,0,-1,1497,512,4.00747,-0.618611
280,512,4.49609,0.649841,0,0,0,0,0,0,0,-1,1504,512,4.49612,-0.649834
287,512,4.77234,0.458069,0,0,0,0,0,0,0,-1,1511,512,4.77233,-0.458083
294,512,8.54956,-2.36273,0,0,0,0,0,0,0,-1,1518,512,8.54952,2.36274
301,512,6.302,-1.69092,0,0,0,0,0,0,0,-1,1525,512,6.30196,1.69093
308,512,8.2439,-6.22754,0,0,0,0,0,0,0,-1,1532,512,8.24394,6.22757
315,512,7.53687,-6.04211,0,0,0,0,0,0,0,-1,1539,512,7.53691,6.04211
322,512,6.82983,-5.85663,0,0,0,0,0,0,0,-1,1546,512,6.82988,5.85666
329,512,4.38147,-0.329651,0,0,0,0,0,0,0,-1,1553,512,4.38144,0.329662
336,512,4.41467,-0.741455,0,0,0,0,0,0,0,-1,1560,512,4.41467,0.741442
343,512,4.44727,-1.21667,0,0,0,0,0,0,0,-1,1567,512,4.44732,1.21666
350,512,4.55469,-1.65082,0,0,0,0,0,0,0,-1,1574,512,4.5547,1.65083
357,512,5.79993,-2.67456,0,0,0,0,0,0,0,-1,1581,512,5.79991,2.67454
364,512,13.118,-28.5485,0,0,0,0,0,0,0,-1,1588,512,13.1181,28.5485
371,512,5.28467,-7.69269,0,0,0,0,0,0,0,-1,1595,512,5.28464,7.69269
378,512,6.29407,-9.88055,0,0,0,0,0,0,0,-1,1602,512,6.29412,9.88057
385,512,6.45569,-9.32233,0,0,0,0,0,0,0,-1,1609,512,6.45565,9.3223
392,512,6.35522,-8.98425,0,0,0,0,0,0,0,-1,1616,512,6.35526,8.98422
399,512,16.9089,-33.7311,0,0,0,0,0,0,0,-1,1623,512,16.9089,33.7311
406,512,21.3325,-43.5074,0,0,0,0,0,0,0,-1,1630,512,21.3325,43.5074
413,512,21.6161,-43.4308,0,0,0,0,0,0,0,-1,1637,512,21.6161,43.4308
420,512,21.5299,-42.4294,0.00216754,0.00447079,0.000644076,0.00463866,0.00199967,1.31583,0.0026866,0.034225,1644,512,21.5299,42.4295
427,512,21.4656,-41.4573,0.00199596,0.00414152,0.000790846,0.00440152,0.00173597,1.25317,0.00256004,0.0159713,1651,512,21.4656,41.4573
434,512,21.3719,-40.5212,0.00166678,0.00365547,0.00081141,0.00394452,0.00137773,1.22858,0.0023116,0.0121999,1658,512,21.372,40.5212
441,512,21.2786,-39.5361,0.00143495,0.00325846,0.000888636,0.00361988,0.00107353,1.18452,0.00214683,0.0145212,1665,512,21.2786,39.536
448,512,21.2229,-38.608,0.00121163,0.00287016,0.001004,0.00334308,0.000738708,1.13058,0.00202784,0.0105255,1672,512,21.2229,38.608
455,512,21.1526,-37.6302,0.000975667,0.0025772,0.0011037,0.00314002,0.000412845,1.09923,0.0019702,0.010075,1679,512,21.1525,37.6302
462,512,21.1068,-36.6411,0.000914807,0.002485,0.00128066,0.00320206,0.000197751,1.06037,0.00207193,0.0103036,1686,512,21.1068,36.6411
469,512,21.047,-35.6646,0.00094522,0.00249837,0.00155422,0.00345923,-1.56378e-05,1.01708,0.00231138,0.0113821,1693,512,21.047,35.6646
476,512,20.9895,-34.6859,0.000959319,0.00264205,0.00191206,0.00388967,-0.000288305,0.992664,0.00269436,0.0147142,1700,512,20.9895,34.6859
483,512,20.9449,-33.6765,0.00100313,0.00288381,0.00234394,0.004469,-0.000582061,0.976159,0.0031911,0.0140568,1707,512,20.945,33.6765
490,512,20.9081,-32.6877,0.00107014,0.00327727,0.00286376,0.00524274,-0.000895326,0.969307,0.00382866,0.0109151,1714,512,20.9081,32.6877
497,512,20.8127,-31.6832,0.00119264,0.00369834,0.0033981,0.00606719,-0.00117621,0.962012,0.00448853,0.0119488,1721,512,20.8127,31.6832
504,512,20.7231,-30.6547,0.00145061,0.0041265,0.00405378,0.00705742,-0.00148032,0.944794,0.00526818,0.0200836,1728,512,20.7232,30.6547
511,512,20.6654,-29.5675,0.00174149,0.00441038,0.00473504,0.00799542,-0.00184355,0.922748,0.00603933,0.0345512,1735,512,20.6654,29.5675
518,512,20.8712,-28.5526,0,0,0,0,0,0,0,-1,1742,512,20.8713,28.5525
525,512,21.3098,-27.528,0,0,0,0,0,0,0,-1,1749,512,21.3098,27.528
532,512,16.6807,-19.0635,0,0,0,0,0,0,0,-1,1756,512,16.6807,19.0635
539,512,12.6367,-16.4022,0,0,0,0,0,0,0,-1,1763,512,12.6367,16.4021
546,512,2.77551,-0.66449,0,0,0,0,0,0,0,-1,1770,512,2.77548,0.664503
553,512,3.927,-0.448853,0,0,0,0,0,0,0,-1,1777,512,3.92704,0.448843
560,512,3.55762,-0.201233,0,0,0,0,0,0,0,-1,1784,512,3.55768,0.201259
567,512,3.09045,0.191193,0,0,0,0,0,0,0,-1,1791,512,3.09045,-0.191203
574,512,0,0,0,0,0,0,0,0,0,-1,1798,512,0,0
581,512,0,0,0,0,0,0,0,0,0,-1,1805,512,0,0
588,512,0,0,0,0,0,0,0,0,0,-1,1812,512,0,0
595,512,0,0,0,0,0,0,0,0,0,-1,1819,512,0,0
602,512,0,0,0,0,0,0,0,0,0,-1,1826,512,0,0
609,512,0,0,0,0,0,0,0,0,0,-1,1833,512,0,0
616,512,0,0,0,0,0,0,0,0,0,-1,1840,512,0,0
623,512,0,0,0,0,0,0,0,0,0,-1,1847,512,0,0
630,512,0,0,0,0,0,0,0,0,0,-1,1854,512,0,0
637,512,0,0,0,0,0,0,0,0,0,-1,1861,512,0,0
644,512,0,0,0,0,0,0,0,0,0,-1,1868,512,0,0
651,512,0,0,0,0,0,0,0,0,0,-1,1875,512,0,0
658,512,0,0,0,0,0,0,0,0,0,-1,1882,512,0,0
665,512,0,0,0,0,0,0,0,0,0,-1,1889,512,0,0
672,512,0,0,0,0,0,0,0,0,0,-1,1896,512,0,0
679,512,0,0,0,0,0,0,0,0,0,-1,1903,512,0,0
686,512,0,0,0,0,0,0,0,0,0,-1,1910,512,0,0
693,512,0,0,0,0,0,0,0,0,0,-1,1917,512,0,0
700,512,0,0,0,0,0,0,0,0,0,-1,1924,512,0,0
707,512,0,0,0,0,0,0,0,0,0,-1,1931,512,0,0
714,512,0,0,0,0,0,0,0,0,0,-1,1938,512,0,0
721,512,0,0,0,0,0,0,0,0,0,-1,1945,512,0,0
728,512,0,0,0,0,0,0,0,0,0,-1,1952,512,0,0
735,512,0,0,0,0,0,0,0,0,0,-1,1959,512,0,0
742,512,0,0,0,0,0,0,0,0,0,-1,1966,512,0,0
749,512,0,0,0,0,0,0,0,0,0,-1,1973,512,0,0
756,512,0,0,0,0,0,0,0,0,0,-1,1980,512,0,0
763,512,0,0,0,0,0,0,0,0,0,-1,1987,512,0,0
770,512,0,0,0,0,0,0,0,0,0,-1,1994,512,0,0
777,512,0,0,0,0,0,0,0,0,0,-1,2001,512,0,0
784,512,0,0,0,0,0,0,0,0,0,-1,2008,512,0,0
791,512,0,0,0,0,0,0,0,0,0,-1,2015,512,0,0
798,512,0,0,0,0,0,0,0,0,0,-1,2022,512,0,0
805,512,0,0,0,0,0,0,0,0,0,-1,2029,512,0,0
812,512,0,0,0,0,0,0,0,0,0,-1,2036,512,0,0
-700,505,0,0,0,0,0,0,0,0,0,-1,524,519,0,0
-693,505,0,0,0,0,0,0,0,0,0,-1,531,519,0,0
-686,505,0,0,0,0,0,0,0,0,0,-1,538,519,0,0
-679,505,0,0,0,0,0,0,0,0,0,-1,545,519,0,0
-672,505,0,0,0,0,0,0,0,0,0,-1,552,519,0,0
-665,505,0,0,0,0,0,0,0,0,0,-1,559,519,0,0
-658,505,0,0,0,0,0,0,0,0,0,-1,566,519,0,0
-651,505,0,0,0,0,0,0,0,0,0,-1,573,519,0,0
-644,505,0,0,0,0,0,0,0,0,0,-1,580,519,0,0
-637,505,0,0,0,0,0,0,0,0,0,-1,587,519,0,0
-630,505,0,0,0,0,0,0,0,0,0,-1,594,519,0,0
-623,505,0,0,0,0,0,0,0,0,0,-1,601,519,0,0
-616,505,0,0,0,0,0,0,0,0,0,-1,608,519,0,0
-609,505,0,0,0,0,0,0,0,0,0,-1,615,519,0,0
-602,505,0,0,0,0,0,0,0,0,0,-1,622,519,0,0
-595,505,0,0,0,0,0,0,0,0,0,-1,629,519,0,0
-588,505,0,0,0,0,0,0,0,0,0,-1,636,519,0,0
-581,505,0,0,0,0,0,0,0,0,0,-1,643,519,0,0
-574,505,0,0,0,0,0,0,0,0,0,-1,650,519,0,0
-567,505,0,0,0,0,0,0,0,0,0,-1,657,519,0,0
-560,505,0,0,0,0,0,0,0,0,0,-1,664,519,0,0
-553,505,0,0,0,0,0,0,0,0,0,-1,671,519,0,0
-546,505,0,0,0,0,0,0,0,0,0,-1,678,519,0,0
-539,505,0,0,0,0,0,0,0,0,0,-1,685,519,0,0
-532,505,0,0,0,0,0,0,0,0,0,-1,692,519,0,0
-525,505,0,0,0,0,0,0,0,0,0,-1,699,519,0,0
-518,505,0,0,0,0,0,0,0,0,0,-1,706,519,0,0
-511,505,0,0,0,0,0,0,0,0,0,-1,713,519,0,0
-504,505,0,0,0,0,0,0,0,0,0,-1,720,519,0,0
-497,505,0,0,0,0,0,0,0,0,0,-1,727,519,0,0
-490,505,0,0,0,0,0,0,0,0,0,-1,734,519,0,0
-483,505,0,0,0,0,0,0,0,0,0,-1,741,519,0,0
-476,505,0,0,0,0,0,0,0,0,0,-1,748,519,0,0
-469,505,0,0,0,0,0,0,0,0,0,-1,755,519,0,0
-462,505,0,0,0,0,0,0,0,0,0,-1,762,519,0,0
-455,505,2.72137,-3.26379,0,0,0,0,0,0,0,-1,769,519,2.72135,3.26377
-448,505,2.51111,-3.94989,0,0,0,0,0,0,0,-1,776,519,2.51112,3.94986
-441,505,2.80212,-6.8902,0,0,0,0,0,0,0,-1,783,519,2.80209,6.89019
-434,505,-0.155212,-10.6374,0,0,0,0,0,0,0,-1,790,519,-0.155194,10.6374
-427,505,-0.474426,-10.4702,0,0,0,0,0,0,0,-1,797,519,-0.474433,10.4702
-420,505,-0.922546,-10.1928,0,0,0,0,0,0,0,-1,804,519,-0.92257,10.1928
-413,505,-3.33948,-13.6183,0,0,0,0,0,0,0,-1,811,519,-3.33949,13.6184
-406,505,-3.2439,-18.3408,0,0,0,0,0,0,0,-1,818,519,-3.24389,18.3408
-399,505,-4.15729,-26.9207,0,0,0,0,0,0,0,-1,825,519,-4.15731,26.9207
-392,505,-4.28912,-28.4649,0.00357132,0.0174261,-0.0120725,0.0244175,-0.00342012,-1.04587,0.0175299,0.0301253,832,519,-4.28912,28.4649
-385,505,-4.40515,-29.5723,0.00343451,0.0145823,-0.0103203,0.0207377,-0.00272089,-1.033,0.0148156,0.0129741,839,519,-4.40514,29.5723
-378,505,-4.49542,-30.6292,0.00322321,0.0120308,-0.00871497,0.0173914,-0.00213743,-1.01934,0.0123685,0.0125216,846,519,-4.49541,30.6292
-371,505,-4.55103,-31.7006,0.00298162,0.00966774,-0.00721214,0.014274,-0.0016246,-1.00242,0.0101011,0.0143462,853,519,-4.55105,31.7006
-364,505,-4.63062,-32.7438,0.00267177,0.00737415,-0.00575181,0.0112368,-0.00119085,-0.979422,0.00791803,0.0160938,860,519,-4.63059,32.7438
-357,505,-4.66742,-33.7494,0.00237127,0.00544682,-0.00443553,0.00860359,-0.000785496,-0.952262,0.00601468,0.0135054,867,519,-4.66744,33.7494
-350,505,-4.7392,-34.7195,0.00205822,0.00370398,-0.00320391,0.00618899,-0.000426792,-0.911099,0.00427537,0.0129094,874,519,-4.73919,34.7195
-343,505,-4.82562,-35.6958,0.00182527,0.00198383,-0.00207298,0.00397905,-0.000169944,-0.804512,0.00271112,0.0125906,881,519,-4.82564,35.6958
-336,505,-4.90369,-36.6838,0.00158784,0.000515606,-0.00104282,0.00222429,-0.000120838,-0.547965,0.00152473,0.0158836,888,519,-4.90367,36.6838
-329,505,-4.95007,-37.6279,0.00136945,-0.000754791,-0.000107924,0.00137492,-0.00076026,-0.0506319,0.00124966,0.0211853,895,519,-4.9501,37.6279
-322,505,-4.99738,-38.6204,0.00130716,-0.00180772,0.000667232,0.00144407,-0.00194463,0.20238,0.00196357,0.0249096,902,519,-4.99735,38.6204
-315,505,-5.06232,-39.6217,0.00143283,-0.00262811,0.00132371,0.00182621,-0.00302148,0.288864,0.00282703,0.0184697,909,519,-5.06229,39.6217
-308,505,-5.12158,-40.5372,0.00172286,-0.0032451,0.0018322,0.00232548,-0.00384772,0.317761,0.00360003,0.0135924,916,519,-5.12156,40.5372
-301,505,-5.14673,-41.4982,0.00195471,-0.00360613,0.00231312,0.00279109,-0.00444251,0.346955,0.00421244,0.0220005,923,519,-5.14674,41.4982
-294,505,-5.17914,-42.3858,0,0,0,0,0,0,0,-1,930,519,-5.17913,42.3858
-287,505,-5.21436,-43.223,0,0,0,0,0,0,0,-1,937,519,-5.21438,43.223
-280,505,-2.79846,-27.7252,0,0,0,0,0,0,0,-1,944,519,-2.79845,27.7252
-273,505,-0.0680542,-9.44867,0,0,0,0,0,0,0,-1,951,519,-0.0680462,9.44866
-266,505,-0.036377,-9.07922,0,0,0,0,0,0,0,-1,958,519,-0.0364055,9.0792
-259,505,0.10321,-6.69824,0,0,0,0,0,0,0,-1,965,519,0.103235,6.69826
-252,505,6.82312,-15.6972,0,0,0,0,0,0,0,-1,972,519,6.82314,15.6972
-245,505,4.26727,-12.9861,0,0,0,0,0,0,0,-1,979,519,4.2673,12.9861
-238,505,1.67432,-11.2307,0,0,0,0,0,0,0,-1,986,519,1.67429,11.2307
-231,505,-0.958435,-8.3075,0,0,0,0,0,0,0,-1,993,519,-0.958421,8.30751
-224,505,-1.46399,-33.4399,0,0,0,0,0,0,0,-1,1000,519,-1.46397,33.4399
-217,505,-6.34302,-1.65533,0,0,0,0,0,0,0,-1,1007,519,-6.34299,1.65535
-210,505,-3.06128,-0.396301,0,0,0,0,0,0,0,-1,1014,519,-3.06129,0.396294
-203,505,-4.26465,2.03607,0,0,0,0,0,0,0,-1,1021,519,-4.26462,-2.03606
-196,505,-5.47595,4.27295,0,0,0,0,0,0,0,-1,1028,519,-5.47597,-4.27292
-189,505,1.51526,5.56207,0,0,0,0,0,0,0,-1,1035,519,1.51523,-5.56209
-182,505,2.97815,7.5097,0,0,0,0,0,0,0,-1,1042,519,2.97812,-7.5097
-175,505,-2.38416,-2.17548,0,0,0,0,0,0,0,-1,1049,519,-2.38411,2.1755
-168,505,0,0,0,0,0,0,0,0,0,-1,1056,519,0,0
-161,505,0,0,0,0,0,0,0,0,0,-1,1063,519,0,0
-154,505,0,0,0,0,0,0,0,0,0,-1,1070,519,0,0
-147,505,0,0,0,0,0,0,0,0,0,-1,1077,519,0,0
-140,505,0,0,0,0,0,0,0,0,0,-1,1084,519,0,0
-133,505,0,0,0,0,0,0,0,0,0,-1,1091,519,0,0
-126,505,0,0,0,0,0,0,0,0,0,-1,1098,519,0,0
-119,505,0,0,0,0,0,0,0,0,0,-1,1105,519,0,0
-112,505,0,0,0,0,0,0,0,0,0,-1,1112,519,0,0
-105,505,0,0,0,0,0,0,0,0,0,-1,1119,519,0,0
-98,505,0,0,0,0,0,0,0,0,0,-1,1126,519,0,0
-91,505,0,0,0,0,0,0,0,0,0,-1,1133,519,0,0
-84,505,0,0,0,0,0,0,0,0,0,-1,1140,519,0,0
-77,505,0,0,0,0,0,0,0,0,0,-1,1147,519,0,0
-70,505,0,0,0,0,0,0,0,0,0,-1,1154,519,0,0
-63,505,0,0,0,0,0,0,0,0,0,-1,1161,519,0,0
-56,505,0,0,0,0,0,0,0,0,0,-1,1168,519,0,0
-49,505,0,0,0,0,0,0,0,0,0,-1,1175,519,0,0
-42,505,0,0,0,0,0,0,0,0,0,-1,1182,519,0,0
-35,505,0,0,0,0,0,0,0,0,0,-1,1189,519,0,0
-28,505,0,0,0,0,0,0,0,0,0,-1,1196,519,0,0
-21,505,0,0,0,0,0,0,0,0,0,-1,1203,519,0,0
-14,505,0,0,0,0,0,0,0,0,0,-1,1210,519,0,0
-7,505,0,0,0,0,0,0,0,0,0,-1,1217,519,0,0
0,505,0,0,0,0,0,0,0,0,0,-1,1224,519,0,0
7,505,0,0,0,0,0,0,0,0,0,-1,1231,519,0,0
14,505,0,0,0,0,0,0,0,0,0,-1,1238,519,0,0
21,505,0,0,0,0,0,0,0,0,0,-1,1245,519,0,0
28,505,0,0,0,0,0,0,0,0,0,-1,1252,519,0,0
35,505,0,0,0,0,0,0,0,0,0,-1,1259,519,0,0
42,505,0,0,0,0,0,0,0,0,0,-1,1266,519,0,0
49,505,0,0,0,0,0,0,0,0,0,-1,1273,519,0,0
56,505,0,0,0,0,0,0,0,0,0,-1,1280,519,0,0
63,505,0,0,0,0,0,0,0,0,0,-1,1287,519,0,0
70,505,0,0,0,0,0,0,0,0,0,-1,1294,519,0,0
77,505,0,0,0,0,0,0,0,0,0,-1,1301,519,0,0
84,505,0,0,0,0,0,0,0,0,0,-1,1308,519,0,0
91,505,0,0,0,0,0,0,0,0,0,-1,1315,519,0,0
98,505,0,0,0,0,0,0,0,0,0,-1,1322,519,0,0
105,505,0,0,0,0,0,0,0,0,0,-1,1329,519,0,0
112,505,0,0,0,0,0,0,0,0,0,-1,1336,519,0,0
119,505,0,0,0,0,0,0,0,0,0,-1,1343,519,0,0
126,505,0,0,0,0,0,0,0,0,0,-1,1350,519,0,0
133,505,0,0,0,0,0,0,0,0,0,-1,1357,519,0,0
140,505,0,0,0,0,0,0,0,0,0,-1,1364,519,0,0
147,505,0,0,0,0,0,0,0,0,0,-1,1371,519,0,0
154,505,0,0,0,0,0,0,0,0,0,-1,1378,519,0,0
161,505,0,0,0,0,0,0,0,0,0,-1,1385,519,0,0
168,505,0,0,0,0,0,0,0,0,0,-1,1392,519,0,0
175,505,0,0,0,0,0,0,0,0,0,-1,1399,519,0,0
182,505,0,0,0,0,0,0,0,0,0,-1,1406,519,0,0
189,505,0,0,0,0,0,0,0,0,0,-1,1413,519,0,0
196,505,0,0,0,0,0,0,0,0,0,-1,1420,519,0,0
203,505,0,0,0,0,0,0,0,0,0,-1,1427,519,0,0
210,505,0,0,0,0,0,0,0,0,0,-1,1434,519,0,0
217,505,0,0,0,0,0,0,0,0,0,-1,1441,519,0,0
224,505,0,0,0,0,0,0,0,0,0,-1,1448,519,0,0
231,505,0,0,0,0,0,0,0,0,0,-1,1455,519,0,0
238,505,0,0,0,0,0,0,0,0,0,-1,1462,519,0,0
245,505,0,0,0,0,0,0,0,0,0,-1,1469,519,0,0
252,505,0,0,0,0,0,0,0,0,0,-1,1476,519,0,0
259,505,0,0,0,0,0,0,0,0,0,-1,1483,519,0,0
266,505,0,0,0,0,0,0,0,0,0,-1,1490,519,0,0
273,505,0,0,0,0,0,0,0,0,0,-1,1497,519,0,0
280,505,0,0,0,0,0,0,0,0,0,-1,1504,519,0,0
287,505,4.39478,0.499512,0,0,0,0,0,0,0,-1,1511,519,4.39476,-0.499506
294,505,4.88867,0.0822754,0,0,0,0,0,0,0,-1,1518,519,4.88871,-0.0822748
301,505,4.82153,-0.0704346,0,0,0,0,0,0,0,-1,1525,519,4.82156,0.0704312
308,505,4.67761,-0.29187,0,0,0,0,0,0,0,-1,1532,519,4.67762,0.291845
315,505,8.44055,-6.54352,0,0,0,0,0,0,0,-1,1539,519,8.44059,6.54349
322,505,4.78955,-0.594116,0,0,0,0,0,0,0,-1,1546,519,4.78957,0.594096
329,505,5.16321,0.434631,0,0,0,0,0,0,0,-1,1553,519,5.16316,-0.434614
336,505,4.94495,-0.920471,0,0,0,0,0,0,0,-1,1560,519,4.945,0.920495
343,505,5.01855,-1.4823,0,0,0,0,0,0,0,-1,1567,519,5.01851,1.48227
350,505,5.33154,-1.77838,0,0,0,0,0,0,0,-1,1574,519,5.33152,1.77838
357,505,5.56567,-1.9425,0,0,0,0,0,0,0,-1,1581,519,5.56562,1.94248
364,505,5.85205,-2.6579,0,0,0,0,0,0,0,-1,1588,519,5.85211,2.65788
371,505,5.88477,-7.00922,0,0,0,0,0,0,0,-1,1595,519,5.88473,7.00924
378,505,5.44104,-7.10162,0,0,0,0,0,0,0,-1,1602,519,5.44099,7.10162
385,505,6.64661,-8.65015,0,0,0,0,0,0,0,-1,1609,519,6.64662,8.65014
392,505,6.34558,-8.3429,0,0,0,0,0,0,0,-1,1616,519,6.34554,8.34288
399,505,7.45898,-9.70386,0,0,0,0,0,0,0,-1,1623,519,7.45899,9.70388
406,505,7.08679,-9.4928,0,0,0,0,0,0,0,-1,1630,519,7.08678,9.49278
413,505,8.4032,-14.0308,0,0,0,0,0,0,0,-1,1637,519,8.4032,14.0308
420,505,22.4392,-42.661,0,0,0,0,0,0,0,-1,1644,519,22.4392,42.661
427,505,22.4185,-41.5994,0.00200179,0.00536065,0.00103988,0.00565652,0.00170591,1.29359,0.00335041,0.0409447,1651,519,22.4185,41.5994
434,505,22.3119,-40.5084,0.00164579,0.00452792,0.00084606,0.00475792,0.00141578,1.30535,0.00282104,0.0154536,1658,519,22.3119,40.5084
441,505,22.28,-39.4503,0.00144838,0.0038124,0.000744743,0.00402746,0.00123332,1.28968,0.00238275,0.0114197,1665,519,22.28,39.4502
448,505,22.2009,-38.5123,0.00132976,0.00317796,0.000751284,0.00344482,0.0010629,1.22949,0.00203689,0.0110566,1672,519,22.2009,38.5123
455,505,22.1422,-37.5528,0.00123032,0.00267744,0.000753288,0.00299838,0.000909376,1.16803,0.00177521,0.0120847,1679,519,22.1422,37.5528
462,505,22.0729,-36.5634,0.00129089,0.00241704,0.000865764,0.00288673,0.0008212,1.07372,0.00171749,0.011979,1686,519,22.0729,36.5633
469,505,22.0056,-35.5899,0.00143756,0.00231285,0.00110563,0.0030643,0.000686111,0.973854,0.00185691,0.011389,1693,519,22.0056,35.5899
476,505,21.9336,-34.6265,0.00155698,0.00235785,0.00145979,0.00347114,0.000443696,0.919259,0.00218129,0.0123044,1700,519,21.9336,34.6264
483,505,21.9131,-33.6411,0.00169253,0.00248505,0.00187956,0.00400968,0.000167911,0.88929,0.00261894,0.0134637,1707,519,21.9131,33.6411
490,505,21.8871,-32.6451,0.00180133,0.00282844,0.00238606,0.00475559,-0.000125819,0.891396,0.00321315,0.0118585,1714,519,21.8871,32.6451
497,505,21.7909,-31.6494,0.001902,0.003198,0.00290551,0.00552689,-0.000426892,0.895115,0.00383482,0.0114599,1721,519,21.7909,31.6494
504,505,21.7031,-30.6204,0.00210211,0.00358626,0.00353972,0.00646085,-0.000772479,0.888723,0.00458647,0.0131485,1728,519,21.7031,30.6204
511,505,21.6361,-29.5971,0.00225553,0.00396114,0.00418523,0.00737957,-0.0011629,0.885905,0.00534964,0.0154495,1735,519,21.6361,29.5971
518,505,21.5618,-28.5857,0,0,0,0,0,0,0,-1,1742,519,21.5618,28.5857
525,505,20.7158,-26.4478,0,0,0,0,0,0,0,-1,1749,519,20.7158,26.4477
532,505,20.189,-24.8809,0,0,0,0,0,0,0,-1,1756,519,20.189,24.8808
539,505,13.9879,-13.9018,0,0,0,0,0,0,0,-1,1763,519,13.988,13.9018
546,505,7.94946,-6.64539,0,0,0,0,0,0,0,-1,1770,519,7.94947,6.64539
553,505,2.82837,0.162659,0,0,0,0,0,0,0,-1,1777,519,2.82841,-0.162672
560,505,3.66223,-0.479797,0,0,0,0,0,0,0,-1,1784,519,3.66219,0.47982
567,505,4.65271,-0.950256,0,0,0,0,0,0,0,-1,1791,519,4.65274,0.95028
574,505,5.54443,-1.19977,0,0,0,0,0,0,0,-1,1798,519,5.54443,1.19974
581,505,0,0,0,0,0,0,0,0,0,-1,1805,519,0,0
588,505,0,0,0,0,0,0,0,0,0,-1,1812,519,0,0
595,505,0,0,0,0,0,0,0,0,0,-1,1819,519,0,0
602,505,0,0,0,0,0,0,0,0,0,-1,1826,519,0,0
609,505,0,0,0,0,0,0,0,0,0,-1,1833,519,0,0
616,505,0,0,0,0,0,0,0,0,0,-1,1840,519,0,0
623,505,0,0,0,0,0,0,0,0,0,-1,1847,519,0,0
630,505,0,0,0,0,0,0,0,0,0,-1,1854,519,0,0
637,505,0,0,0,0,0,0,0,0,0,-1,1861,519,0,0
644,505,0,0,0,0,0,0,0,0,0,-1,1868,519,0,0
651,505,0,0,0,0,0,0,0,0,0,-1,1875,519,0,0
658,505,0,0,0,0,0,0,0,0,0,-1,1882,519,0,0
665,505,0,0,0,0,0,0,0,0,0,-1,1889,519,0,0
672,505,0,0,0,0,0,0,0,0,0,-1,1896,519,0,0
679,505,0,0,0,0,0,0,0,0,0,-1,1903,519,0,0
686,505,0,0,0,0,0,0,0,0,0,-1,1910,519,0,0
693,505,0,0,0,0,0,0,0,0,0,-1,1917,519,0,0
700,505,0,0,0,0,0,0,0,0,0,-1,1924,519,0,0
707,505,0,0,0,0,0,0,0,0,0,-1,1931,519,0,0
714,505,0,0,0,0,0,0,0,0,0,-1,1938,519,0,0
721,505,0,0,0,0,0,0,0,0,0,-1,1945,519,0,0
728,505,0,0,0,0,0,0,0,0,0,-1,1952,519,0,0
735,505,0,0,0,0,0,0,0,0,0,-1,1959,519,0,0
742,505,0,0,0,0,0,0,0,0,0,-1,1966,519,0,0
749,505,0,0,0,0,0,0,0,0,0,-1,1973,519,0,0
756,505,0,0,0,0,0,0,0,0,0,-1,1980,519,0,0
763,505,0,0,0,0,0,0,0,0,0,-1,1987,519,0,0
770,505,0,0,0,0,0,0,0,0,0,-1,1994,519,0,0
777,505,0,0,0,0,0,0,0,0,0,-1,2001,519,0,0
784,505,0,0,0,0,0,0,0,0,0,-1,2008,519,0,0
791,505,0,0,0,0,0,0,0,0,0,-1,2015,519,0,0
798,505,0,0,0,0,0,0,0,0,0,-1,2022,519,0,0
805,505,0,0,0,0,0,0,0,0,0,-1,2029,519,0,0
812,505,0,0,0,0,0,0,0,0,0,-1,2036,519,0,0
-700,498,0,0,0,0,0,0,0,0,0,-1,524,526,0,0
-693,498,0,0,0,0,0,0,0,0,0,-1,531,526,0,0
-686,498,0,0,0,0,0,0,0,0,0,-1,538,526,0,0
-679,498,0,0,0,0,0,0,0,0,0,-1,545,526,0,0
-672,498,0,0,0,0,0,0,0,0,0,-1,552,526,0,0
-665,498,0,0,0,0,0,0,0,0,0,-1,559,526,0,0
-658,498,0,0,0,0,0,0,0,0,0,-1,566,526,0,0
-651,498,0,0,0,0,0,0,0,0,0,-1,573,526,0,0
-644,498,0,0,0,0,0,0,0,0,0,-1,580,526,0,0
-637,498,0,0,0,0,0,0,0,0,0,-1,587,526,0,0
-630,498,0,0,0,0,0,0,0,0,0,-1,594,526,0,0
-623,498,0,0,0,0,0,0,0,0,0,-1,601,526,0,0
-616,498,0,0,0,0,0,0,0,0,0,-1,608,526,0,0
-609,498,0,0,0,0,0,0,0,0,0,-1,615,526,0,0
-602,498,0,0,0,0,0,0,0,0,0,-1,622,526,0,0
-595,498,0,0,0,0,0,0,0,0,0,-1,629,526,0,0
-588,498,0,0,0,0,0,0,0,0,0,-1,636,526,0,0
-581,498,0,0,0,0,0,0,0,0,0,-1,643,526,0,0
-574,498,0,0,0,0,0,0,0,0,0,-1,650,526,0,0
-567,498,0,0,0,0,0,0,0,0,0,-1,657,526,0,0
-560,498,0,0,0,0,0,0,0,0,0,-1,664,526,0,0
-553,498,0,0,0,0,0,0,0,0,0,-1,671,526,0,0
-546,498,0,0,0,0,0,0,0,0,0,-1,678,526,0,0
-539,498,0,0,0,0,0,0,0,0,0,-1,685,526,0,0
-532,498,0,0,0,0,0,0,0,0,0,-1,692,526,0,0
-525,498,0,0,0,0,0,0,0,0,0,-1,699,526,0,0
-518,498,0,0,0,0,0,0,0,0,0,-1,706,526,0,0
-511,498,0,0,0,0,0,0,0,0,0,-1,713,526,0,0
-504,498,0,0,0,0,0,0,0,0,0,-1,720,526,0,0
-497,498,0,0,0,0,0,0,0,0,0,-1,727,526,0,0
-490,498,0,0,0,0,0,0,0,0,0,-1,734,526,0,0
-483,498,0,0,0,0,0,0,0,0,0,-1,741,526,0,0
-476,498,0,0,0,0,0,0,0,0,0,-1,748,526,0,0
-469,498,0,0,0,0,0,0,0,0,0,-1,755,526,0,0
-462,498,6.81024,1.15515,0,0,0,0,0,0,0,-1,762,526,6.81026,-1.15514
-455,498,3.25757,-3.0592,0,0,0,0,0,0,0,-1,769,526,3.25754,3.05921
-448,498,3.05939,-3.74298,0,0,0,0,0,0,0,-1,776,526,3.05939,3.74296
-441,498,2.77191,-6.08209,0,0,0,0,0,0,0,-1,783,526,2.77189,6.08207
-434,498,2.10681,-6.95929,0,0,0,0,0,0,0,-1,790,526,2.10682,6.9593
-427,498,-0.368042,-10.7726,0,0,0,0,0,0,0,-1,797,526,-0.36807,10.7726
-420,498,-1.05035,-10.5142,0,0,0,0,0,0,0,-1,804,526,-1.05034,10.5142
-413,498,-4.52112,-18.8354,0,0,0,0,0,0,0,-1,811,526,-4.52111,18.8354
-406,498,-5.32159,-26.2819,0,0,0,0,0,0,0,-1,818,526,-5.32157,26.2819
-399,498,-5.14984,-27.2874,0.00222785,0.0158557,-0.010641,0.0216775,-0.00359387,-1.07018,0.0157865,0.0369852,825,526,-5.14987,27.2874
-392,498,-5.31042,-28.4771,0.00231002,0.0133223,-0.00922676,0.018561,-0.00292863,-1.05441,0.0134568,0.0204228,832,526,-5.31039,28.4771
-385,498,-5.39929,-29.543,0.00239014,0.0109835,-0.00783647,0.0156239,-0.00225028,-1.03616,0.0112414,0.0110233,839,526,-5.39928,29.543
-378,498,-5.46741,-30.5894,0.0024246,0.0088524,-0.00653728,0.0129231,-0.00164609,-1.01386,0.00921323,0.0106365,846,526,-5.46741,30.5894
-371,498,-5.52942,-31.6176,0.0023757,0.00686401,-0.00530279,0.010378,-0.00113825,-0.985572,0.00732759,0.0158551,853,526,-5.52944,31.6175
-364,498,-5.62097,-32.6571,0.00224061,0.00483612,-0.00408136,0.00782108,-0.000744353,-0.939329,0.00547905,0.0164363,860,526,-5.62098,32.6571
-357,498,-5.64209,-33.6596,0.00211641,0.00316261,-0.00297436,0.00565951,-0.000380494,-0.872443,0.00390602,0.0121523,867,526,-5.64211,33.6596
-350,498,-5.70587,-34.6316,0.00196322,0.00164379,-0.00193283,0.00374292,-0.00013591,-0.744176,0.0025418,0.01322,874,526,-5.70585,34.6316
-343,498,-5.7821,-35.6677,0.00183963,0.000143645,-0.000959637,0.00227226,-0.000288985,-0.423541,0.00161979,0.0168148,881,526,-5.78209,35.6677
-336,498,-5.83929,-36.6663,0.00167094,-0.00117534,-5.10499e-05,0.00167186,-0.00117625,-0.017928,0.00165263,0.0211967,888,526,-5.8393,36.6662
-329,498,-5.87366,-37.5733,0.00150754,-0.00234696,0.000806905,0.00166964,-0.00250906,0.198254,0.00242874,0.0264104,895,526,-5.87367,37.5733
-322,498,-5.95496,-38.5458,0.0015788,-0.00316265,0.0014137,0.00196831,-0.00355216,0.268852,0.00323067,0.0283885,902,526,-5.95493,38.5459
-315,498,-6.04303,-39.5242,0.00175426,-0.00387772,0.00201745,0.00240236,-0.00452582,0.310832,0.00406213,0.0222525,909,526,-6.04301,39.5242
-308,498,-6.0827,-40.4626,0.00206581,-0.00439081,0.00249709,0.00291885,-0.00524385,0.329185,0.00477603,0.0252007,916,526,-6.08271,40.4626
-301,498,-6.06445,-41.4859,0,0,0,0,0,0,0,-1,923,526,-6.06444,41.4859
-294,498,-5.49982,-39.5652,0,0,0,0,0,0,0,-1,930,526,-5.49979,39.5653
-287,498,-0.91394,-13.4327,0,0,0,0,0,0,0,-1,937,526,-0.913935,13.4327
-280,498,-0.341614,-8.66608,0,0,0,0,0,0,0,-1,944,526,-0.341589,8.66606
-273,498,-0.988892,-8.62921,0,0,0,0,0,0,0,-1,951,526,-0.988906,8.62922
-266,498,0.362488,-6.33545,0,0,0,0,0,0,0,-1,958,526,0.362478,6.33547
-259,498,10.9454,-17.3615,0,0,0,0,0,0,0,-1,965,526,10.9454,17.3614
-252,498,8.56586,-14.6886,0,0,0,0,0,0,0,-1,972,526,8.56584,14.6886
-245,498,5.97382,-11.928,0,0,0,0,0,0,0,-1,979,526,5.97381,11.928
-238,498,2.24841,-13.8145,0,0,0,0,0,0,0,-1,986,526,2.24838,13.8145
-231,498,0.665894,-10.4898,0,0,0,0,0,0,0,-1,993,526,0.665863,10.4898
-224,498,-2.11243,-4.76312,0,0,0,0,0,0,0,-1,1000,526,-2.11245,4.76314
-217,498,-3.82239,-1.42841,0,0,0,0,0,0,0,-1,1007,526,-3.82241,1.42843
-210,498,-1.80591,-0.358215,0,0,0,0,0,0,0,-1,1014,526,-1.8059,0.3582
-203,498,-3.17316,1.06641,0,0,0,0,0,0,0,-1,1021,526,-3.17313,-1.0664
-196,498,-0.103271,5.40527,0,0,0,0,0,0,0,-1,1028,526,-0.103285,-5.40528
-189,498,3.00256,6.47137,0,0,0,0,0,0,0,-1,1035,526,3.00256,-6.47139
-182,498,0,0,0,0,0,0,0,0,0,-1,1042,526,0,0
-175,498,0,0,0,0,0,0,0,0,0,-1,1049,526,0,0
-168,498,0,0,0,0,0,0,0,0,0,-1,1056,526,0,0
-161,498,0,0,0,0,0,0,0,0,0,-1,1063,526,0,0
-154,498,0,0,0,0,0,0,0,0,0,-1,1070,526,0,0
-147,498,0,0,0,0,0,0,0,0,0,-1,1077,526,0,0
-140,498,0,0,0,0,0,0,0,0,0,-1,1084,526,0,0
-133,498,0,0,0,0,0,0,0,0,0,-1,1091,526,0,0
-126,498,0,0,0,0,0,0,0,0,0,-1,1098,526,0,0
-119,498,0,0,0,0,0,0,0,0,0,-1,1105,526,0,0
-112,498,0,0,0,0,0,0,0,0,0,-1,1112,526,0,0
-105,498,0,0,0,0,0,0,0,0,0,-1,1119,526,0,0
-98,498,0,0,0,0,0,0,0,0,0,-1,1126,526,0,0
-91,498,0,0,0,0,0,0,0,0,0,-1,1133,526,0,0
-84,498,0,0,0,0,0,0,0,0,0,-1,1140,526,0,0
-77,498,0,0,0,0,0,0,0,0,0,-1,1147,526,0,0
-70,498,0,0,0,0,0,0,0,0,0,-1,1154,526,0,0
-63,498,0,0,0,0,0,0,0,0,0,-1,1161,526,0,0
-56,498,0,0,0,0,0,0,0,0,0,-1,1168,526,0,0
-49,498,0,0,0,0,0,0,0,0,0,-1,1175,526,0,0
-42,498,0,0,0,0,0,0,0,0,0,-1,1182,526,0,0
-35,498,0,0,0,0,0,0,0,0,0,-1,1189,526,0,0
-28,498,0,0,0,0,0,0,0,0,0,-1,1196,526,0,0
-21,498,0,0,0,0,0,0,0,0,0,-1,1203,526,0,0
-14,498,0,0,0,0,0,0,0,0,0,-1,1210,526,0,0
-7,498,0,0,0,0,0,0,0,0,0,-1,1217,526,0,0
0,498,0,0,0,0,0,0,0,0,0,-1,1224,526,0,0
7,498,0,0,0,0,0,0,0,0,0,-1,1231,526,0,0
14,498,0,0,0,0,0,0,0,0,0,-1,1238,526,0,0
21,498,0,0,0,0,0,0,0,0,0,-1,1245,526,0,0
28,498,0,0,0,0,0,0,0,0,0,-1,1252,526,0,0
35,498,0,0,0,0,0,0,0,0,0,-1,1259,526,0,0
42,498,0,0,0,0,0,0,0,0,0,-1,1266,526,0,0
49,498,0,0,0,0,0,0,0,0,0,-1,1273,526,0,0
56,498,0,0,0,0,0,0,0,0,0,-1,1280,526,0,0
63,498,0,0,0,0,0,0,0,0,0,-1,1287,526,0,0
70,498,0,0,0,0,0,0,0,0,0,-1,1294,526,0,0
77,498,0,0,0,0,0,0,0,0,0,-1,1301,526,0,0
84,498,0,0,0,0,0,0,0,0,0,-1,1308,526,0,0
91,498,0,0,0,0,0,0,0,0,0,-1,1315,526,0,0
98,498,0,0,0,0,0,0,0,0,0,-1,1322,526,0,0
105,498,0,0,0,0,0,0,0,0,0,-1,1329,526,0,0
112,498,0,0,0,0,0,0,0,0,0,-1,1336,526,0,0
119,498,0,0,0,0,0,0,0,0,0,-1,1343,526,0,0
126,498,0,0,0,0,0,0,0,0,0,-1,1350,526,0,0
133,498,0,0,0,0,0,0,0,0,0,-1,1357,526,0,0
140,498,0,0,0,0,0,0,0,0,0,-1,1364,526,0,0
147,498,0,0,0,0,0,0,0,0,0,-1,1371,526,0,0
154,498,0,0,0,0,0,0,0,0,0,-1,1378,526,0,0
161,498,0,0,0,0,0,0,0,0,0,-1,1385,526,0,0
168,498,0,0,0,0,0,0,0,0,0,-1,1392,526,0,0
175,498,0,0,0,0,0,0,0,0,0,-1,1399,526,0,0
182,498,0,0,0,0,0,0,0,0,0,-1,1406,526,0,0
189,498,0,0,0,0,0,0,0,0,0,-1,1413,526,0,0
196,498,0,0,0,0,0,0,0,0,0,-1,1420,526,0,0
203,498,0,0,0,0,0,0,0,0,0,-1,1427,526,0,0
210,498,0,0,0,0,0,0,0,0,0,-1,1434,526,0,0
217,498,0,0,0,0,0,0,0,0,0,-1,1441,526,0,0
224,498,0,0,0,0,0,0,0,0,0,-1,1448,526,0,0
231,498,0,0,0,0,0,0,0,0,0,-1,1455,526,0,0
238,498,0,0,0,0,0,0,0,0,0,-1,1462,526,0,0
245,498,0,0,0,0,0,0,0,0,0,-1,1469,526,0,0
252,498,0,0,0,0,0,0,0,0,0,-1,1476,526,0,0
259,498,0,0,0,0,0,0,0,0,0,-1,1483,526,0,0
266,498,0,0,0,0,0,0,0,0,0,-1,1490,526,0,0
273,498,0,0,0,0,0,0,0,0,0,-1,1497,526,0,0
280,498,0,0,0,0,0,0,0,0,0,-1,1504,526,0,0
287,498,0,0,0,0,0,0,0,0,0,-1,1511,526,0,0
294,498,0,0,0,0,0,0,0,0,0,-1,1518,526,0,0
301,498,0,0,0,0,0,0,0,0,0,-1,1525,526,0,0
308,498,4.77942,-0.293884,0,0,0,0,0,0,0,-1,1532,526,4.77939,0.293899
315,498,4.56091,-0.564148,0,0,0,0,0,0,0,-1,1539,526,4.56097,0.564142
322,498,4.52344,-0.447266,0,0,0,0,0,0,0,-1,1546,526,4.52341,0.447295
329,498,4.63232,-0.156982,0,0,0,0,0,0,0,-1,1553,526,4.63238,0.156991
336,498,5.22644,0.0925903,0,0,0,0,0,0,0,-1,1560,526,5.22648,-0.0926188
343,498,6.22607,-1.67615,0,0,0,0,0,0,0,-1,1567,526,6.22605,1.67617
350,498,6.19373,-1.59906,0,0,0,0,0,0,0,-1,1574,526,6.19367,1.59906
357,498,6.21472,-1.58929,0,0,0,0,0,0,0,-1,1581,526,6.21476,1.58927
364,498,5.73547,-1.2019,0,0,0,0,0,0,0,-1,1588,526,5.73547,1.20192
371,498,3.27087,-4.55334,0,0,0,0,0,0,0,-1,1595,526,3.27089,4.55332
378,498,8.42944,-4.70624,0,0,0,0,0,0,0,-1,1602,526,8.42942,4.70624
385,498,4.7793,-5.15314,0,0,0,0,0,0,0,-1,1609,526,4.77935,5.15311
392,498,9.12439,-8.57953,0,0,0,0,0,0,0,-1,1616,526,9.12443,8.57955
399,498,7.98938,-9.46021,0,0,0,0,0,0,0,-1,1623,526,7.98936,9.4602
406,498,7.58081,-9.26819,0,0,0,0,0,0,0,-1,1630,526,7.58085,9.26817
413,498,7.17236,-9.07611,0,0,0,0,0,0,0,-1,1637,526,7.17234,9.07614
420,498,11.4314,-16.1147,0,0,0,0,0,0,0,-1,1644,526,11.4313,16.1147
427,498,23.1665,-41.7051,0,0,0,0,0,0,0,-1,1651,526,23.1665,41.7051
434,498,23.2498,-40.5179,0,0,0,0,0,0,0,-1,1658,526,23.2498,40.5179
441,498,23.2352,-39.4255,0.00120023,0.00451942,0.000663654,0.00464719,0.00107245,1.38059,0.00280972,0.0168891,1665,526,23.2352,39.4255
448,498,23.1886,-38.415,0.00117242,0.00358872,0.000533125,0.00370112,0.00106002,1.36301,0.00220088,0.0111179,1672,526,23.1886,38.415
455,498,23.1151,-37.4664,0.00118774,0.00285298,0.000404363,0.00294598,0.00109474,1.34475,0.00171945,0.0150433,1679,526,23.1151,37.4664
462,498,23.042,-36.5137,0.00132143,0.00240028,0.000425981,0.00254819,0.00117351,1.23658,0.00147273,0.0167169,1686,526,23.0419,36.5137
469,498,22.9727,-35.5443,0.00151542,0.00215666,0.000605526,0.00252121,0.00115087,1.02888,0.00145746,0.0140719,1693,526,22.9727,35.5443
476,498,22.9427,-34.5732,0.00167315,0.00209063,0.000928784,0.00283384,0.000929939,0.895933,0.00166802,0.0109926,1700,526,22.9427,34.5732
483,498,22.8848,-33.5851,0.0018338,0.00210237,0.00130549,0.00328046,0.00065571,0.83665,0.00200448,0.00927784,1707,526,22.8848,33.5852
490,498,22.8291,-32.5964,0.00193157,0.00238565,0.00177195,0.00394504,0.000372179,0.849115,0.00251517,0.0108561,1714,526,22.8291,32.5964
497,498,22.7545,-31.5903,0.00197976,0.00269264,0.0022485,0.00461278,5.96186e-05,0.864006,0.0030555,0.0121024,1721,526,22.7545,31.5903
504,498,22.6904,-30.5657,0.00209641,0.00301707,0.00281368,0.00540783,-0.000294344,0.866482,0.00370723,0.0150389,1728,526,22.6904,30.5658
511,498,22.6139,-29.5455,0.0021255,0.00338275,0.00337591,0.00618806,-0.000679816,0.877448,0.00436964,0.017348,1735,526,22.6139,29.5455
518,498,22.6615,-28.5031,0.0020184,0.00385946,0.00377534,0.00682488,-0.000947013,0.904979,0.00489621,0.0286076,1742,526,22.6615,28.5031
525,498,22.4595,-27.4296,0,0,0,0,0,0,0,-1,1749,526,22.4595,27.4296
532,498,22.1765,-26.1621,0,0,0,0,0,0,0,-1,1756,526,22.1765,26.1621
539,498,20.0029,-23.3469,0,0,0,0,0,0,0,-1,1763,526,20.003,23.3469
546,498,10.2014,-8.47589,0,0,0,0,0,0,0,-1,1770,526,10.2014,8.47589
553,498,5.93958,-1.71448,0,0,0,0,0,0,0,-1,1777,526,5.93956,1.71447
560,498,3.69385,-0.615112,0,0,0,0,0,0,0,-1,1784,526,3.69381,0.615118
567,498,5.12695,-0.581604,0,0,0,0,0,0,0,-1,1791,526,5.12699,0.58159
574,498,3.88,0.0286255,0,0,0,0,0,0,0,-1,1798,526,3.87999,-0.0286535
581,498,10.8722,2.58551,0,0,0,0,0,0,0,-1,1805,526,10.8723,-2.58551
588,498,0,0,0,0,0,0,0,0,0,-1,1812,526,0,0
595,498,0,0,0,0,0,0,0,0,0,-1,1819,526,0,0
602,498,0,0,0,0,0,0,0,0,0,-1,1826,526,0,0
609,498,0,0,0,0,0,0,0,0,0,-1,1833,526,0,0
616,498,0,0,0,0,0,0,0,0,0,-1,1840,526,0,0
623,498,0,0,0,0,0,0,0,0,0,-1,1847,526,0,0
630,498,0,0,0,0,0,0,0,0,0,-1,1854,526,0,0
637,498,0,0,0,0,0,0,0,0,0,-1,1861,526,0,0
644,498,0,0,0,0,0,0,0,0,0,-1,1868,526,0,0
651,498,0,0,0,0,0,0,0,0,0,-1,1875,526,0,0
658,498,0,0,0,0,0,0,0,0,0,-1,1882,526,0,0
665,498,0,0,0,0,0,0,0,0,0,-1,1889,526,0,0
672,498,0,0,0,0,0,0,0,0,0,-1,1896,526,0,0
679,498,0,0,0,0,0,0,0,0,0,-1,1903,526,0,0
686,498,0,0,0,0,0,0,0,0,0,-1,1910,526,0,0
693,498,0,0,0,0,0,0,0,0,0,-1,1917,526,0,0
700,498,0,0,0,0,0,0,0,0,0,-1,1924,526,0,0
707,498,0,0,0,0,0,0,0,0,0,-1,1931,526,0,0
714,498,0,0,0,0,0,0,0,0,0,-1,1938,526,0,0
721,498,0,0,0,0,0,0,0,0,0,-1,1945,526,0,0
728,498,0,0,0,0,0,0,0,0,0,-1,1952,526,0,0
735,498,0,0,0,0,0,0,0,0,0,-1,1959,526,0,0
742,498,0,0,0,0,0,0,0,0,0,-1,1966,526,0,0
749,498,0,0,0,0,0,0,0,0,0,-1,1973,526,0,0
756,498,0,0,0,0,0,0,0,0,0,-1,1980,526,0,0
763,498,0,0,0,0,0,0,0,0,0,-1,1987,526,0,0
770,498,0,0,0,0,0,0,0,0,0,-1,1994,526,0,0
777,498,0,0,0,0,0,0,0,0,0,-1,2001,526,0,0
784,498,0,0,0,0,0,0,0,0,0,-1,2008,526,0,0
791,498,0,0,0,0,0,0,0,0,0,-1,2015,526,0,0
798,498,0,0,0,0,0,0,0,0,0,-1,2022,526,0,0
805,498,0,0,0,0,0,0,0,0,0,-1,2029,526,0,0
812,498,0,0,0,0,0,0,0,0,0,-1,2036,526,0,0
-700,491,0,0,0,0,0,0,0,0,0,-1,524,533,0,0
-693,491,0,0,0,0,0,0,0,0,0,-1,531,533,0,0
-686,491,0,0,0,0,0,0,0,0,0,-1,538,533,0,0
-679,491,0,0,0,0,0,0,0,0,0,-1,545,533,0,0
-672,491,0,0,0,0,0,0,0,0,0,-1,552,533,0,0
-665,491,0,0,0,0,0,0,0,0,0,-1,559,533,0,0
-658,491,0,0,0,0,0,0,0,0,0,-1,566,533,0,0
-651,491,0,0,0,0,0,0,0,0,0,-1,573,533,0,0
-644,491,0,0,0,0,0,0,0,0,0,-1,580,533,0,0
-637,491,0,0,0,0,0,0,0,0,0,-1,587,533,0,0
-630,491,0,0,0,0,0,0,0,0,0,-1,594,533,0,0
-623,491,0,0,0,0,0,0,0,0,0,-1,601,533,0,0
-616,491,0,0,0,0,0,0,0,0,0,-1,608,533,0,0
-609,491,0,0,0,0,0,0,0,0,0,-1,615,533,0,0
-602,491,0,0,0,0,0,0,0,0,0,-1,622,533,0,0
-595,491,0,0,0,0,0,0,0,0,0,-1,629,533,0,0
-588,491,0,0,0,0,0,0,0,0,0,-1,636,533,0,0
-581,491,0,0,0,0,0,0,0,0,0,-1,643,533,0,0
-574,491,0,0,0,0,0,0,0,0,0,-1,650,533,0,0
-567,491,0,0,0,0,0,0,0,0,0,-1,657,533,0,0
-560,491,0,0,0,0,0,0,0,0,0,-1,664,533,0,0
-553,491,0,0,0,0,0,0,0,0,0,-1,671,533,0,0
-546,491,0,0,0,0,0,0,0,0,0,-1,678,533,0,0
-539,491,0,0,0,0,0,0,0,0,0,-1,685,533,0,0
-532,491,0,0,0,0,0,0,0,0,0,-1,692,533,0,0
-525,491,0,0,0,0,0,0,0,0,0,-1,699,533,0,0
-518,491,0,0,0,0,0,0,0,0,0,-1,706,533,0,0
-511,491,0,0,0,0,0,0,0,0,0,-1,713,533,0,0
-504,491,0,0,0,0,0,0,0,0,0,-1,720,533,0,0
-497,491,0,0,0,0,0,0,0,0,0,-1,727,533,0,0
-490,491,0,0,0,0,0,0,0,0,0,-1,734,533,0,0
-483,491,0,0,0,0,0,0,0,0,0,-1,741,533,0,0
-476,491,0,0,0,0,0,0,0,0,0,-1,748,533,0,0
-469,491,-5.85913,4.55011,0,0,0,0,0,0,0,-1,755,533,-5.8591,-4.55009
-462,491,-9.93713,4.90381,0,0,0,0,0,0,0,-1,762,533,-9.93716,-4.9038
-455,491,1.9494,-0.27887,0,0,0,0,0,0,0,-1,769,533,1.94941,0.27885
-448,491,2.68909,-1.8999,0,0,0,0,0,0,0,-1,776,533,2.6891,1.89988
-441,491,3.46069,-3.51855,0,0,0,0,0,0,0,-1,783,533,3.46071,3.51854
-434,491,2.67145,-7.44061,0,0,0,0,0,0,0,-1,790,533,2.67146,7.44061
-427,491,2.27136,-8.34546,0,0,0,0,0,0,0,-1,797,533,2.27136,8.34546
-420,491,-6.41321,-22.5922,0,0,0,0,0,0,0,-1,804,533,-6.41323,22.5922
-413,491,-6.16687,-25.129,0,0,0,0,0,0,0,-1,811,533,-6.16689,25.129
-406,491,-6.12579,-26.4072,0.00134112,0.0143846,-0.00941686,0.0193176,-0.00359185,-1.08826,0.0142276,0.0344923,818,533,-6.1258,26.4072
-399,491,-6.17194,-27.5169,0.00135982,0.0120642,-0.00808426,0.0164074,-0.00298341,-1.0778,0.0120564,0.0176234,825,533,-6.17194,27.5169
-392,491,-6.31781,-28.5396,0.0015112,0.00994642,-0.00690409,0.0138192,-0.00236159,-1.05959,0.0100925,0.0136226,832,533,-6.31778,28.5395
-385,491,-6.39587,-29.5249,0.00171618,0.00800505,-0.00577322,0.0114346,-0.00171339,-1.03477,0.0082537,0.0101756,839,533,-6.39588,29.5249
-378,491,-6.43756,-30.5329,0.00189014,0.00617802,-0.00468635,0.00918756,-0.0011194,-0.999929,0.00653023,0.0135987,846,533,-6.43757,30.5329
-371,491,-6.49951,-31.5504,0.00197061,0.00446819,-0.00365178,0.0070788,-0.000639998,-0.950149,0.00494635,0.0144533,853,533,-6.49948,31.5504
-364,491,-6.58252,-32.5762,0.00196802,0.00268602,-0.00261427,0.00496582,-0.000311779,-0.853634,0.00341921,0.0136094,860,533,-6.58252,32.5762
-357,491,-6.61902,-33.5541,0.00198436,0.00122993,-0.00167881,0.00332781,-0.000113525,-0.674888,0.00225733,0.0127912,867,533,-6.61899,33.5541
-350,491,-6.67542,-34.5051,0.00197002,-0.000105076,-0.000805031,0.0022457,-0.000380762,-0.329936,0.00163887,0.016852,874,533,-6.67542,34.5051
-343,491,-6.70416,-35.506,0.00194456,-0.00139513,1.81075e-05,0.00194466,-0.00139523,0.00542169,0.00193696,0.0280749,881,533,-6.70414,35.506
-336,491,-6.77173,-36.5255,0.00184785,-0.00258016,0.000798041,0.00198729,-0.0027196,0.172977,0.00272846,0.0281264,888,533,-6.77175,36.5255
-329,491,-6.8252,-37.471,0.00175421,-0.00368523,0.00156569,0.00217269,-0.0041037,0.261173,0.0036804,0.0259071,895,533,-6.8252,37.471
-322,491,-6.92365,-38.4377,0.00199689,-0.00428321,0.00196224,0.00255958,-0.0048459,0.279267,0.00434295,0.0220227,902,533,-6.92365,38.4377
-315,491,-7.03833,-39.3458,0.00226093,-0.00493938,0.00246027,0.00302128,-0.00569973,0.299742,0.00511363,0.0234643,909,533,-7.0383,39.3458
-308,491,-7.07788,-40.423,0,0,0,0,0,0,0,-1,916,533,-7.07788,40.4231
-301,491,-6.54926,-39.0012,0,0,0,0,0,0,0,-1,923,533,-6.54927,39.0012
-294,491,-0.777283,-8.60913,0,0,0,0,0,0,0,-1,930,533,-0.777288,8.6091
-287,491,-0.26123,-8.69055,0,0,0,0,0,0,0,-1,937,533,-0.261204,8.69053
-280,491,0.2948,-5.99219,0,0,0,0,0,0,0,-1,944,533,0.294811,5.99221
-273,491,0.369995,-5.33691,0,0,0,0,0,0,0,-1,951,533,0.369985,5.33693
-266,491,1.1167,-5.0321,0,0,0,0,0,0,0,-1,958,533,1.11668,5.0321
-259,491,12.0862,-16.9615,0,0,0,0,0,0,0,-1,965,533,12.0862,16.9615
-252,491,9.72443,-13.8417,0,0,0,0,0,0,0,-1,972,533,9.72444,13.8418
-245,491,5.27258,-14.3619,0,0,0,0,0,0,0,-1,979,533,5.27255,14.3619
-238,491,3.65381,-11.1472,0,0,0,0,0,0,0,-1,986,533,3.6538,11.1472
-231,491,2.17719,-7.86835,0,0,0,0,0,0,0,-1,993,533,2.17719,7.86832
-224,491,0.554626,-4.61725,0,0,0,0,0,0,0,-1,1000,533,0.554608,4.61727
-217,491,-2.92743,-1.0766,0,0,0,0,0,0,0,-1,1007,533,-2.92743,1.07659
-210,491,-0.92395,0.374512,0,0,0,0,0,0,0,-1,1014,533,-0.923959,-0.374531
-203,491,0.417419,4.77161,0,0,0,0,0,0,0,-1,1021,533,0.417446,-4.77162
-196,491,0,0,0,0,0,0,0,0,0,-1,1028,533,0,0
-189,491,0,0,0,0,0,0,0,0,0,-1,1035,533,0,0
-182,491,0,0,0,0,0,0,0,0,0,-1,1042,533,0,0
-175,491,0,0,0,0,0,0,0,0,0,-1,1049,533,0,0
-168,491,0,0,0,0,0,0,0,0,0,-1,1056,533,0,0
-161,491,0,0,0,0,0,0,0,0,0,-1,1063,533,0,0
-154,491,0,0,0,0,0,0,0,0,0,-1,1070,533,0,0
-147,491,0,0,0,0,0,0,0,0,0,-1,1077,533,0,0
-140,491,0,0,0,0,0,0,0,0,0,-1,1084,533,0,0
-133,491,0,0,0,0,0,0,0,0,0,-1,1091,533,0,0
-126,491,0,0,0,0,0,0,0,0,0,-1,1098,533,0,0
-119,491,0,0,0,0,0,0,0,0,0,-1,1105,533,0,0
-112,491,0,0,0,0,0,0,0,0,0,-1,1112,533,0,0
-105,491,0,0,0,0,0,0,0,0,0,-1,1119,533,0,0
-98,491,0,0,0,0,0,0,0,0,0,-1,1126,533,0,0
-91,491,0,0,0,0,0,0,0,0,0,-1,1133,533,0,0
-84,491,0,0,0,0,0,0,0,0,0,-1,1140,533,0,0
-77,491,0,0,0,0,0,0,0,0,0,-1,1147,533,0,0
-70,491,0,0,0,0,0,0,0,0,0,-1,1154,533,0,0
-63,491,0,0,0,0,0,0,0,0,0,-1,1161,533,0,0
-56,491,0,0,0,0,0,0,0,0,0,-1,1168,533,0,0
-49,491,0,0,0,0,0,0,0,0,0,-1,1175,533,0,0
-42,491,0,0,0,0,0,0,0,0,0,-1,1182,533,0,0
-35,491,0,0,0,0,0,0,0,0,0,-1,1189,533,0,0
-28,491,0,0,0,0,0,0,0,0,0,-1,1196,533,0,0
-21,491,0,0,0,0,0,0,0,0,0,-1,1203,533,0,0
-14,491,0,0,0,0,0,0,0,0,0,-1,1210,533,0,0
-7,491,0,0,0,0,0,0,0,0,0,-1,1217,533,0,0
0,491,0,0,0,0,0,0,0,0,0,-1,1224,533,0,0
7,491,0,0,0,0,0,0,0,0,0,-1,1231,533,0,0
14,491,0,0,0,0,0,0,0,0,0,-1,1238,533,0,0
21,491,0,0,0,0,0,0,0,0,0,-1,1245,533,0,0
28,491,0,0,0,0,0,0,0,0,0,-1,1252,533,0,0
35,491,0,0,0,0,0,0,0,0,0,-1,1259,533,0,0
42,491,0,0,0,0,0,0,0,0,0,-1,1266,533,0,0
49,491,0,0,0,0,0,0,0,0,0,-1,1273,533,0,0
56,491,0,0,0,0,0,0,0,0,0,-1,1280,533,0,0
63,491,0,0,0,0,0,0,0,0,0,-1,1287,533,0,0
70,491,0,0,0,0,0,0,0,0,0,-1,1294,533,0,0
77,491,0,0,0,0,0,0,0,0,0,-1,1301,533,0,0
84,491,0,0,0,0,0,0,0,0,0,-1,1308,533,0,0
91,491,0,0,0,0,0,0,0,0,0,-1,1315,533,0,0
98,491,0,0,0,0,0,0,0,0,0,-1,1322,533,0,0
105,491,0,0,0,0,0,0,0,0,0,-1,1329,533,0,0
112,491,0,0,0,0,0,0,0,0,0,-1,1336,533,0,0
119,491,0,0,0,0,0,0,0,0,0,-1,1343,533,0,0
126,491,0,0,0,0,0,0,0,0,0,-1,1350,533,0,0
133,491,0,0,0,0,0,0,0,0,0,-1,1357,533,0,0
140,491,0,0,0,0,0,0,0,0,0,-1,1364,533,0,0
147,491,0,0,0,0,0,0,0,0,0,-1,1371,533,0,0
154,491,0,0,0,0,0,0,0,0,0,-1,1378,533,0,0
161,491,0,0,0,0,0,0,0,0,0,-1,1385,533,0,0
168,491,0,0,0,0,0,0,0,0,0,-1,1392,533,0,0
175,491,0,0,0,0,0,0,0,0,0,-1,1399,533,0,0
182,491,0,0,0,0,0,0,0,0,0,-1,1406,533,0,0
189,491,0,0,0,0,0,0,0,0,0,-1,1413,533,0,0
196,491,0,0,0,0,0,0,0,0,0,-1,1420,533,0,0
203,491,0,0,0,0,0,0,0,0,0,-1,1427,533,0,0
210,491,0,0,0,0,0,0,0,0,0,-1,1434,533,0,0
217,491,0,0,0,0,0,0,0,0,0,-1,1441,533,0,0
224,491,0,0,0,0,0,0,0,0,0,-1,1448,533,0,0
231,491,0,0,0,0,0,0,0,0,0,-1,1455,533,0,0
238,491,0,0,0,0,0,0,0,0,0,-1,1462,533,0,0
245,491,0,0,0,0,0,0,0,0,0,-1,1469,533,0,0
252,491,0,0,0,0,0,0,0,0,0,-1,1476,533,0,0
259,491,0,0,0,0,0,0,0,0,0,-1,1483,533,0,0
266,491,0,0,0,0,0,0,0,0,0,-1,1490,533,0,0
273,491,0,0,0,0,0,0,0,0,0,-1,1497,533,0,0
280,491,0,0,0,0,0,0,0,0,0,-1,1504,533,0,0
287,491,0,0,0,0,0,0,0,0,0,-1,1511,533,0,0
294,491,0,0,0,0,0,0,0,0,0,-1,1518,533,0,0
301,491,0,0,0,0,0,0,0,0,0,-1,1525,533,0,0
308,491,0,0,0,0,0,0,0,0,0,-1,1532,533,0,0
315,491,0,0,0,0,0,0,0,0,0,-1,1539,533,0,0
322,491,4.26331,-0.734314,0,0,0,0,0,0,0,-1,1546,533,4.26326,0.734324
329,491,4.25354,-0.783752,0,0,0,0,0,0,0,-1,1553,533,4.25359,0.783734
336,491,4.81604,-0.722107,0,0,0,0,0,0,0,-1,1560,533,4.81605,0.722115
343,491,6.14478,-1.44281,0,0,0,0,0,0,0,-1,1567,533,6.14474,1.44281
350,491,6.36353,-1.30792,0,0,0,0,0,0,0,-1,1574,533,6.36352,1.3079
357,491,6.69482,-1.06018,0,0,0,0,0,0,0,-1,1581,533,6.69489,1.06018
364,491,8.01086,-1.69604,0,0,0,0,0,0,0,-1,1588,533,8.01087,1.69607
371,491,8.2135,-0.539307,0,0,0,0,0,0,0,-1,1595,533,8.21348,0.53929
378,491,13.3589,2.17267,0,0,0,0,0,0,0,-1,1602,533,13.3589,-2.17264
385,491,8.08228,-4.95471,0,0,0,0,0,0,0,-1,1609,533,8.08227,4.95474
392,491,2.88721,-4.30988,0,0,0,0,0,0,0,-1,1616,533,2.88716,4.30986
399,491,8.95862,-8.55518,0,0,0,0,0,0,0,-1,1623,533,8.95864,8.55516
406,491,8.16541,-9.00806,0,0,0,0,0,0,0,-1,1630,533,8.16535,9.00807
413,491,5.31848,-3.7124,0,0,0,0,0,0,0,-1,1637,533,5.31849,3.7124
420,491,4.86389,-3.95892,0,0,0,0,0,0,0,-1,1644,533,4.86387,3.95893
427,491,11.5096,-15.2742,0,0,0,0,0,0,0,-1,1651,533,11.5096,15.2742
434,491,24.1083,-39.8145,0,0,0,0,0,0,0,-1,1658,533,24.1083,39.8145
441,491,24.1215,-39.5212,0,0,0,0,0,0,0,-1,1665,533,24.1215,39.5212
448,491,24.1134,-38.4171,0.000868114,0.00409365,0.0003659,0.00413464,0.000827128,1.45925,0.00252626,0.0304025,1672,533,24.1134,38.4171
455,491,24.0499,-37.3931,0.00100517,0.00310624,8.2989e-05,0.00310952,0.0010019,1.53138,0.00183272,0.0179103,1679,533,24.0499,37.3931
462,491,24.0371,-36.4355,0.00118709,0.00242237,-5.33695e-06,0.0024224,0.00118707,-1.56648,0.00139866,0.0165754,1686,533,24.0371,36.4355
469,491,23.9465,-35.4919,0.00137611,0.0019826,9.76164e-05,0.00199792,0.00136079,1.41508,0.00117845,0.0155845,1693,533,23.9466,35.4919
476,491,23.9353,-34.5198,0.00154381,0.0017699,0.000371954,0.00204561,0.0012681,0.932927,0.0011923,0.0114697,1700,533,23.9353,34.5198
483,491,23.8661,-33.5159,0.00171316,0.00164705,0.000689765,0.00237066,0.000989545,0.761455,0.00137491,0.0134335,1707,533,23.8661,33.516
490,491,23.806,-32.5353,0.00179452,0.00183999,0.00110521,0.0029227,0.000711807,0.795682,0.00175985,0.01126,1714,533,23.8061,32.5353
497,491,23.749,-31.5396,0.00179925,0.00206805,0.0015398,0.00347931,0.000387991,0.828931,0.00220163,0.0115473,1721,533,23.749,31.5396
504,491,23.6841,-30.5103,0.00185157,0.00231977,0.0020429,0.00414193,2.94051e-05,0.842445,0.00275154,0.0137989,1728,533,23.6841,30.5103
511,491,23.5852,-29.4887,0.00180013,0.00265831,0.00255321,0.00481824,-0.000359794,0.868649,0.00333856,0.0137767,1735,533,23.5852,29.4887
518,491,23.5354,-28.4985,0.00158624,0.0030912,0.00292774,0.00536162,-0.000684177,0.911184,0.00382293,0.0111843,1742,533,23.5355,28.4985
525,491,23.4948,-27.484,0.00139188,0.0035192,0.00328726,0.0059106,-0.000999517,0.941867,0.00431236,0.013318,1749,533,23.4948,27.484
532,491,23.4044,-26.4954,0.00118828,0.0040995,0.00366034,0.00658304,-0.00129526,0.974647,0.00487811,0.034567,1756,533,23.4044,26.4953
539,491,23.3595,-25.4118,0,0,0,0,0,0,0,-1,1763,533,23.3595,25.4118
546,491,21.6814,-23.2498,0,0,0,0,0,0,0,-1,1770,533,21.6814,23.2498
553,491,10.5021,-7.77869,0,0,0,0,0,0,0,-1,1777,533,10.502,7.77871
560,491,6.28455,-1.43585,0,0,0,0,0,0,0,-1,1784,533,6.28458,1.43586
567,491,5.67651,-1.3562,0,0,0,0,0,0,0,-1,1791,533,5.67649,1.3562
574,491,8.0719,1.58325,0,0,0,0,0,0,0,-1,1798,533,8.07195,-1.58326
581,491,9.44812,1.60931,0,0,0,0,0,0,0,-1,1805,533,9.44808,-1.60933
588,491,11.0497,1.54962,0,0,0,0,0,0,0,-1,1812,533,11.0496,-1.54963
595,491,0,0,0,0,0,0,0,0,0,-1,1819,533,0,0
602,491,0,0,0,0,0,0,0,0,0,-1,1826,533,0,0
609,491,0,0,0,0,0,0,0,0,0,-1,1833,533,0,0
616,491,0,0,0,0,0,0,0,0,0,-1,1840,533,0,0
623,491,0,0,0,0,0,0,0,0,0,-1,1847,533,0,0
630,491,0,0,0,0,0,0,0,0,0,-1,1854,533,0,0
637,491,0,0,0,0,0,0,0,0,0,-1,1861,533,0,0
644,491,0,0,0,0,0,0,0,0,0,-1,1868,533,0,0
651,491,0,0,0,0,0,0,0,0,0,-1,1875,533,0,0
658,491,0,0,0,0,0,0,0,0,0,-1,1882,533,0,0
665,491,0,0,0,0,0,0,0,0,0,-1,1889,533,0,0
672,491,0,0,0,0,0,0,0,0,0,-1,1896,533,0,0
679,491,0,0,0,0,0,0,0,0,0,-1,1903,533,0,0
686,491,0,0,0,0,0,0,0,0,0,-1,1910,533,0,0
693,491,0,0,0,0,0,0,0,0,0,-1,1917,533,0,0
700,491,0,0,0,0,0,0,0,0,0,-1,1924,533,0,0
707,491,0,0,0,0,0,0,0,0,0,-1,1931,533,0,0
714,491,0,0,0,0,0,0,0,0,0,-1,1938,533,0,0
721,491,0,0,0,0,0,0,0,0,0,-1,1945,533,0,0
728,491,0,0,0,0,0,0,0,0,0,-1,1952,533,0,0
735,491,0,0,0,0,0,0,0,0,0,-1,1959,533,0,0
742,491,0,0,0,0,0,0,0,0,0,-1,1966,533,0,0
749,491,0,0,0,0,0,0,0,0,0,-1,1973,533,0,0
756,491,0,0,0,0,0,0,0,0,0,-1,1980,533,0,0
763,491,0,0,0,0,0,0,0,0,0,-1,1987,533,0,0
770,491,0,0,0,0,0,0,0,0,0,-1,1994,533,0,0
777,491,0,0,0,0,0,0,0,0,0,-1,2001,533,0,0
784,491,0,0,0,0,0,0,0,0,0,-1,2008,533,0,0
791,491,0,0,0,0,0,0,0,0,0,-1,2015,533,0,0
798,491,0,0,0,0,0,0,0,0,0,-1,2022,533,0,0
805,491,0,0,0,0,0,0,0,0,0,-1,2029,533,0,0
812,491,0,0,0,0,0,0,0,0,0,-1,2036,533,0,0
-700,484,0,0,0,0,0,0,0,0,0,-1,524,540,0,0
-693,484,0,0,0,0,0,0,0,0,0,-1,531,540,0,0
-686,484,0,0,0,0,0,0,0,0,0,-1,538,540,0,0
-679,484,0,0,0,0,0,0,0,0,0,-1,545,540,0,0
-672,484,0,0,0,0,0,0,0,0,0,-1,552,540,0,0
-665,484,0,0,0,0,0,0,0,0,0,-1,559,540,0,0
-658,484,0,0,0,0,0,0,0,0,0,-1,566,540,0,0
-651,484,0,0,0,0,0,0,0,0,0,-1,573,540,0,0
-644,484,0,0,0,0,0,0,0,0,0,-1,580,540,0,0
-637,484,0,0,0,0,0,0,0,0,0,-1,587,540,0,0
-630,484,0,0,0,0,0,0,0,0,0,-1,594,540,0,0
-623,484,0,0,0,0,0,0,0,0,0,-1,601,540,0,0
-616,484,0,0,0,0,0,0,0,0,0,-1,608,540,0,0
-609,484,0,0,0,0,0,0,0,0,0,-1,615,540,0,0
-602,484,0,0,0,0,0,0,0,0,0,-1,622,540,0,0
-595,484,0,0,0,0,0,0,0,0,0,-1,629,540,0,0
-588,484,0,0,0,0,0,0,0,0,0,-1,636,540,0,0
-581,484,0,0,0,0,0,0,0,0,0,-1,643,540,0,0
-574,484,0,0,0,0,0,0,0,0,0,-1,650,540,0,0
-567,484,0,0,0,0,0,0,0,0,0,-1,657,540,0,0
-560,484,0,0,0,0,0,0,0,0,0,-1,664,540,0,0
-553,484,0,0,0,0,0,0,0,0,0,-1,671,540,0,0
-546,484,0,0,0,0,0,0,0,0,0,-1,678,540,0,0
-539,484,0,0,0,0,0,0,0,0,0,-1,685,540,0,0
-532,484,0,0,0,0,0,0,0,0,0,-1,692,540,0,0
-525,484,0,0,0,0,0,0,0,0,0,-1,699,540,0,0
-518,484,0,0,0,0,0,0,0,0,0,-1,706,540,0,0
-511,484,0,0,0,0,0,0,0,0,0,-1,713,540,0,0
-504,484,0,0,0,0,0,0,0,0,0,-1,720,540,0,0
-497,484,0,0,0,0,0,0,0,0,0,-1,727,540,0,0
-490,484,0,0,0,0,0,0,0,0,0,-1,734,540,0,0
-483,484,0,0,0,0,0,0,0,0,0,-1,741,540,0,0
-476,484,-8.46552,1.44702,0,0,0,0,0,0,0,-1,748,540,-8.46554,-1.44702
-469,484,-7.82343,1.70355,0,0,0,0,0,0,0,-1,755,540,-7.82345,-1.70355
-462,484,-8.36987,3.08612,0,0,0,0,0,0,0,-1,762,540,-8.36988,-3.0861
-455,484,-6.77197,2.07092,0,0,0,0,0,0,0,-1,769,540,-6.77197,-2.07094
-448,484,3.54895,-1.40106,0,0,0,0,0,0,0,-1,776,540,3.54897,1.40106
-441,484,4.28906,-3.05884,0,0,0,0,0,0,0,-1,783,540,4.28905,3.05883
-434,484,-2.17548,-5.07245,0,0,0,0,0,0,0,-1,790,540,-2.17546,5.07243
-427,484,-6.92731,-22.6038,0,0,0,0,0,0,0,-1,797,540,-6.92732,22.6038
-420,484,-6.79034,-23.9751,0,0,0,0,0,0,0,-1,804,540,-6.79035,23.9751
-413,484,-6.90656,-25.1905,0.000809194,0.0128546,-0.00818965,0.0169977,-0.00333389,-1.10245,0.0125911,0.0383009,811,540,-6.90653,25.1905
-406,484,-7.06927,-26.3573,0.000854982,0.0108889,-0.00710811,0.0145723,-0.00282834,-1.09271,0.010782,0.0216887,818,540,-7.06926,26.3573
-399,484,-7.22827,-27.4127,0.000889933,0.00893289,-0.00597643,0.0121149,-0.00229206,-1.08155,0.0089391,0.0189354,825,540,-7.22827,27.4127
-392,484,-7.30621,-28.421,0.00107731,0.00714443,-0.00497349,0.00993651,-0.00171477,-1.05925,0.00726371,0.0209922,832,540,-7.3062,28.421
-385,484,-7.39478,-29.4554,0.00135694,0.00551234,-0.00403516,0.00797329,-0.00110401,-1.02315,0.00571916,0.0140643,839,540,-7.39477,29.4554
-378,484,-7.44714,-30.467,0.00161831,0.00392069,-0.00310785,0.00608371,-0.0005447,-0.96277,0.00424902,0.0148616,846,540,-7.44716,30.467
-371,484,-7.51001,-31.4697,0.00179395,0.00243896,-0.00223614,0.00437573,-0.000142826,-0.857016,0.00296591,0.0167122,853,540,-7.51003,31.4696
-364,484,-7.57788,-32.4574,0.00189774,0.000902247,-0.00136817,0.00285589,-5.59048e-05,-0.610939,0.00192283,0.0125381,860,540,-7.57788,32.4574
-357,484,-7.63727,-33.4542,0.00202742,-0.000339429,-0.00060311,0.00217224,-0.00048425,-0.235662,0.00163368,0.0139874,867,540,-7.63728,33.4542
-350,484,-7.69983,-34.4261,0.0021306,-0.00148356,8.64228e-05,0.00213267,-0.00148562,0.0238941,0.00210013,0.0168294,874,540,-7.69981,34.4261
-343,484,-7.72925,-35.4155,0.0021826,-0.00251743,0.000728786,0.00229301,-0.00262784,0.150357,0.00284325,0.0242401,881,540,-7.72928,35.4155
-336,484,-7.79559,-36.3993,0.00214199,-0.0035228,0.00133565,0.00244111,-0.00382192,0.22032,0.00364514,0.0262126,888,540,-7.79559,36.3993
-329,484,-7.81946,-37.3227,0.0021194,-0.00451557,0.00195917,0.00265471,-0.00505088,0.266724,0.00451996,0.0379161,895,540,-7.81944,37.3227
-322,484,-7.82977,-38.3103,0,0,0,0,0,0,0,-1,902,540,-7.82979,38.3103
-315,484,-7.77094,-39.3429,0,0,0,0,0,0,0,-1,909,540,-7.77096,39.3429
-308,484,-1.32623,-8.9317,0,0,0,0,0,0,0,-1,916,540,-1.32626,8.93173
-301,484,-1.33453,-6.52667,0,0,0,0,0,0,0,-1,923,540,-1.33454,6.5267
-294,484,-1.61224,-8.17059,0,0,0,0,0,0,0,-1,930,540,-1.61227,8.17058
-287,484,-0.715759,-5.62103,0,0,0,0,0,0,0,-1,937,540,-0.715772,5.62105
-280,484,2.66742,-1.6795,0,0,0,0,0,0,0,-1,944,540,2.6674,1.67949
-273,484,2.53125,-2.22296,0,0,0,0,0,0,0,-1,951,540,2.53128,2.22295
-266,484,2.6778,-2.72058,0,0,0,0,0,0,0,-1,958,540,2.6778,2.72061
-259,484,2.41718,-2.59894,0,0,0,0,0,0,0,-1,965,540,2.41717,2.59892
-252,484,10.6069,-11.696,0,0,0,0,0,0,0,-1,972,540,10.6069,11.696
-245,484,6.34106,-11.6107,0,0,0,0,0,0,0,-1,979,540,6.34104,11.6107
-238,484,4.89319,-8.54059,0,0,0,0,0,0,0,-1,986,540,4.89321,8.5406
-231,484,3.47675,-5.22064,0,0,0,0,0,0,0,-1,993,540,3.47676,5.22067
-224,484,1.71344,-2.03473,0,0,0,0,0,0,0,-1,1000,540,1.71342,2.03472
-217,484,-0.745056,1.17358,0,0,0,0,0,0,0,-1,1007,540,-0.745043,-1.17359
-210,484,0,0,0,0,0,0,0,0,0,-1,1014,540,0,0
-203,484,0,0,0,0,0,0,0,0,0,-1,1021,540,0,0
-196,484,0,0,0,0,0,0,0,0,0,-1,1028,540,0,0
-189,484,0,0,0,0,0,0,0,0,0,-1,1035,540,0,0
-182,484,0,0,0,0,0,0,0,0,0,-1,1042,540,0,0
-175,484,0,0,0,0,0,0,0,0,0,-1,1049,540,0,0
-168,484,0,0,0,0,0,0,0,0,0,-1,1056,540,0,0
-161,484,0,0,0,0,0,0,0,0,0,-1,1063,540,0,0
-154,484,0,0,0,0,0,0,0,0,0,-1,1070,540,0,0
-147,484,0,0,0,0,0,0,0,0,0,-1,1077,540,0,0
-140,484,0,0,0,0,0,0,0,0,0,-1,1084,540,0,0
-133,484,0,0,0,0,0,0,0,0,0,-1,1091,540,0,0
-126,484,0,0,0,0,0,0,0,0,0,-1,1098,540,0,0
-119,484,0,0,0,0,0,0,0,0,0,-1,1105,540,0,0
-112,484,0,0,0,0,0,0,0,0,0,-1,1112,540,0,0
-105,484,0,0,0,0,0,0,0,0,0,-1,1119,540,0,0
-98,484,0,0,0,0,0,0,0,0,0,-1,1126,540,0,0
-91,484,0,0,0,0,0,0,0,0,0,-1,1133,540,0,0
-84,484,0,0,0,0,0,0,0,0,0,-1,1140,540,0,0
-77,484,0,0,0,0,0,0,0,0,0,-1,1147,540,0,0
-70,484,0,0,0,0,0,0,0,0,0,-1,1154,540,0,0
-63,484,0,0,0,0,0,0,0,0,0,-1,1161,540,0,0
-56,484,0,0,0,0,0,0,0,0,0,-1,1168,540,0,0
-49,484,0,0,0,0,0,0,0,0,0,-1,1175,540,0,0
-42,484,0,0,0,0,0,0,0,0,0,-1,1182,540,0,0
-35,484,0,0,0,0,0,0,0,0,0,-1,1189,540,0,0
-28,484,0,0,0,0,0,0,0,0,0,-1,1196,540,0,0
-21,484,0,0,0,0,0,0,0,0,0,-1,1203,540,0,0
-14,484,0,0,0,0,0,0,0,0,0,-1,1210,540,0,0
-7,484,0,0,0,0,0,0,0,0,0,-1,1217,540,0,0
0,484,0,0,0,0,0,0,0,0,0,-1,1224,540,0,0
7,484,0,0,0,0,0,0,0,0,0,-1,1231,540,0,0
14,484,0,0,0,0,0,0,0,0,0,-1,1238,540,0,0
21,484,0,0,0,0,0,0,0,0,0,-1,1245,540,0,0
28,484,0,0,0,0,0,0,0,0,0,-1,1252,540,0,0
35,484,0,0,0,0,0,0,0,0,0,-1,1259,540,0,0
42,484,0,0,0,0,0,0,0,0,0,-1,1266,540,0,0
49,484,0,0,0,0,0,0,0,0,0,-1,1273,540,0,0
56,484,0,0,0,0,0,0,0,0,0,-1,1280,540,0,0
63,484,0,0,0,0,0,0,0,0,0,-1,1287,540,0,0
70,484,0,0,0,0,0,0,0,0,0,-1,1294,540,0,0
77,484,0,0,0,0,0,0,0,0,0,-1,1301,540,0,0
84,484,0,0,0,0,0,0,0,0,0,-1,1308,540,0,0
91,484,0,0,0,0,0,0,0,0,0,-1,1315,540,0,0
98,484,0,0,0,0,0,0,0,0,0,-1,1322,540,0,0
105,484,0,0,0,0,0,0,0,0,0,-1,1329,540,0,0
112,484,0,0,0,0,0,0,0,0,0,-1,1336,540,0,0
119,484,0,0,0,0,0,0,0,0,0,-1,1343,540,0,0
126,484,0,0,0,0,0,0,0,0,0,-1,1350,540,0,0
133,484,0,0,0,0,0,0,0,0,0,-1,1357,540,0,0
140,484,0,0,0,0,0,0,0,0,0,-1,1364,540,0,0
147,484,0,0,0,0,0,0,0,0,0,-1,1371,540,0,0
154,484,0,0,0,0,0,0,0,0,0,-1,1378,540,0,0
161,484,0,0,0,0,0,0,0,0,0,-1,1385,540,0,0
168,484,0,0,0,0,0,0,0,0,0,-1,1392,540,0,0
175,484,0,0,0,0,0,0,0,0,0,-1,1399,540,0,0
182,484,0,0,0,0,0,0,0,0,0,-1,1406,540,0,0
189,484,0,0,0,0,0,0,0,0,0,-1,1413,540,0,0
196,484,0,0,0,0,0,0,0,0,0,-1,1420,540,0,0
203,484,0,0,0,0,0,0,0,0,0,-1,1427,540,0,0
210,484,0,0,0,0,0,0,0,0,0,-1,1434,540,0,0
217,484,0,0,0,0,0,0,0,0,0,-1,1441,540,0,0
224,484,0,0,0,0,0,0,0,0,0,-1,1448,540,0,0
231,484,0,0,0,0,0,0,0,0,0,-1,1455,540,0,0
238,484,0,0,0,0,0,0,0,0,0,-1,1462,540,0,0
245,484,0,0,0,0,0,0,0,0,0,-1,1469,540,0,0
252,484,0,0,0,0,0,0,0,0,0,-1,1476,540,0,0
259,484,0,0,0,0,0,0,0,0,0,-1,1483,540,0,0
266,484,0,0,0,0,0,0,0,0,0,-1,1490,540,0,0
273,484,0,0,0,0,0,0,0,0,0,-1,1497,540,0,0
280,484,0,0,0,0,0,0,0,0,0,-1,1504,540,0,0
287,484,0,0,0,0,0,0,0,0,0,-1,1511,540,0,0
294,484,0,0,0,0,0,0,0,0,0,-1,1518,540,0,0
301,484,0,0,0,0,0,0,0,0,0,-1,1525,540,0,0
308,484,0,0,0,0,0,0,0,0,0,-1,1532,540,0,0
315,484,0,0,0,0,0,0,0,0,0,-1,1539,540,0,0
322,484,0,0,0,0,0,0,0,0,0,-1,1546,540,0,0
329,484,0,0,0,0,0,0,0,0,0,-1,1553,540,0,0
336,484,4.38708,-1.64136,0,0,0,0,0,0,0,-1,1560,540,4.38704,1.64138
343,484,7.57996,-1.05457,0,0,0,0,0,0,0,-1,1567,540,7.57995,1.05454
350,484,8.10425,-1.18878,0,0,0,0,0,0,0,-1,1574,540,8.1043,1.18877
357,484,7.74902,-3.80286,0,0,0,0,0,0,0,-1,1581,540,7.74901,3.80287
364,484,6.31262,-3.87213,0,0,0,0,0,0,0,-1,1588,540,6.31263,3.87215
371,484,7.21008,0.973511,0,0,0,0,0,0,0,-1,1595,540,7.21014,-0.973541
378,484,11.0563,1.5014,0,0,0,0,0,0,0,-1,1602,540,11.0563,-1.5014
385,484,14.3469,2.5545,0,0,0,0,0,0,0,-1,1609,540,14.3469,-2.55453
392,484,7.39453,-4.95026,0,0,0,0,0,0,0,-1,1616,540,7.39448,4.95023
399,484,7.14417,-2.5639,0,0,0,0,0,0,0,-1,1623,540,7.14417,2.56391
406,484,7.88953,-2.47321,0,0,0,0,0,0,0,-1,1630,540,7.88954,2.47323
413,484,4.4895,-1.08673,0,0,0,0,0,0,0,-1,1637,540,4.48952,1.08674
420,484,4.50012,-2.11255,0,0,0,0,0,0,0,-1,1644,540,4.50012,2.11256
427,484,5.28601,-3.54053,0,0,0,0,0,0,0,-1,1651,540,5.28599,3.54051
434,484,11.1488,-13.5359,0,0,0,0,0,0,0,-1,1658,540,11.1489,13.5359
441,484,24.9087,-38.5439,0,0,0,0,0,0,0,-1,1665,540,24.9087,38.5439
448,484,24.9988,-38.5579,0,0,0,0,0,0,0,-1,1672,540,24.9987,38.5579
455,484,25.031,-37.3914,0,0,0,0,0,0,0,-1,1679,540,25.031,37.3913
462,484,25.0448,-36.3807,0.00112258,0.00251786,-0.000548875,0.0027079,0.000932543,-1.23749,0.00158845,0.0347384,1686,540,25.0448,36.3807
469,484,25.009,-35.4355,0.0012587,0.00183094,-0.000472319,0.00209704,0.000992601,-1.05773,0.0012113,0.0206941,1693,540,25.009,35.4355
476,484,24.908,-34.4123,0.00141821,0.00145318,-0.000198542,0.001635,0.00123638,-0.829319,0.000984409,0.0185278,1700,540,24.9079,34.4123
483,484,24.845,-33.4292,0.00158308,0.00120617,0.000105651,0.00161067,0.00117858,0.255478,0.000962638,0.0156502,1707,540,24.8449,33.4292
490,484,24.8147,-32.4821,0.00164209,0.00130811,0.000508391,0.00201022,0.000939988,0.626717,0.00116141,0.0143881,1714,540,24.8147,32.4821
497,484,24.7448,-31.4796,0.00160688,0.00146401,0.000936192,0.00247436,0.000596528,0.747319,0.00149105,0.013697,1721,540,24.7448,31.4795
504,484,24.663,-30.4599,0.00159386,0.00164579,0.00139606,0.00301613,0.000223527,0.794696,0.00194054,0.0164559,1728,540,24.6629,30.4599
511,484,24.6143,-29.4466,0.00147999,0.00194399,0.00187203,0.00359835,-0.000174364,0.847048,0.00245908,0.0198777,1735,540,24.6143,29.4466
518,484,24.5587,-28.4537,0.00121099,0.00232323,0.00223868,0.00407383,-0.00053961,0.90714,0.00291247,0.0166901,1742,540,24.5587,28.4537
525,484,24.4659,-27.4507,0.000968547,0.00270774,0.0025838,0.00456436,-0.000888068,0.947723,0.00337807,0.0138933,1749,540,24.466,27.4507
532,484,24.3864,-26.3974,0.000740368,0.00327712,0.00292703,0.00519877,-0.00118128,0.989852,0.0039194,0.0170307,1756,540,24.3864,26.3974
539,484,24.2751,-25.3497,0.000454999,0.00391816,0.00315378,0.00578446,-0.0014113,1.03645,0.00440279,0.0444936,1763,540,24.2751,25.3498
546,484,24.1801,-24.1694,0,0,0,0,0,0,0,-1,1770,540,24.1801,24.1694
553,484,12.4246,-8.96423,0,0,0,0,0,0,0,-1,1777,540,12.4246,8.96422
560,484,10.0549,-5.47931,0,0,0,0,0,0,0,-1,1784,540,10.055,5.47928
567,484,7.78223,-1.38312,0,0,0,0,0,0,0,-1,1791,540,7.78224,1.38311
574,484,5.74463,1.50922,0,0,0,0,0,0,0,-1,1798,540,5.74463,-1.50924
581,484,10.34,2.9491,0,0,0,0,0,0,0,-1,1805,540,10.34,-2.94912
588,484,10.6669,2.88568,0,0,0,0,0,0,0,-1,1812,540,10.6669,-2.88567
595,484,10.7233,1.04767,0,0,0,0,0,0,0,-1,1819,540,10.7233,-1.04766
602,484,0,0,0,0,0,0,0,0,0,-1,1826,540,0,0
609,484,0,0,0,0,0,0,0,0,0,-1,1833,540,0,0
616,484,0,0,0,0,0,0,0,0,0,-1,1840,540,0,0
623,484,0,0,0,0,0,0,0,0,0,-1,1847,540,0,0
630,484,0,0,0,0,0,0,0,0,0,-1,1854,540,0,0
637,484,0,0,0,0,0,0,0,0,0,-1,1861,540,0,0
644,484,0,0,0,0,0,0,0,0,0,-1,1868,540,0,0
651,484,0,0,0,0,0,0,0,0,0,-1,1875,540,0,0
658,484,0,0,0,0,0,0,0,0,0,-1,1882,540,0,0
665,484,0,0,0,0,0,0,0,0,0,-1,1889,540,0,0
672,484,0,0,0,0,0,0,0,0,0,-1,1896,540,0,0
679,484,0,0,0,0,0,0,0,0,0,-1,1903,540,0,0
686,484,0,0,0,0,0,0,0,0,0,-1,1910,540,0,0
693,484,0,0,0,0,0,0,0,0,0,-1,1917,540,0,0
700,484,0,0,0,0,0,0,0,0,0,-1,1924,540,0,0
707,484,0,0,0,0,0,0,0,0,0,-1,1931,540,0,0
714,484,0,0,0,0,0,0,0,0,0,-1,1938,540,0,0
721,484,0,0,0,0,0,0,0,0,0,-1,1945,540,0,0
728,484,0,0,0,0,0,0,0,0,0,-1,1952,540,0,0
735,484,0,0,0,0,0,0,0,0,0,-1,1959,540,0,0
742,484,0,0,0,0,0,0,0,0,0,-1,1966,540,0,0
749,484,0,0,0,0,0,0,0,0,0,-1,1973,540,0,0
756,484,0,0,0,0,0,0,0,0,0,-1,1980,540,0,0
763,484,0,0,0,0,0,0,0,0,0,-1,1987,540,0,0
770,484,0,0,0,0,0,0,0,0,0,-1,1994,540,0,0
777,484,0,0,0,0,0,0,0,0,0,-1,2001,540,0,0
784,484,0,0,0,0,0,0,0,0,0,-1,2008,540,0,0
791,484,0,0,0,0,0,0,0,0,0,-1,2015,540,0,0
798,484,0,0,0,0,0,0,0,0,0,-1,2022,540,0,0
805,484,0,0,0,0,0,0,0,0,0,-1,2029,540,0,0
812,484,0,0,0,0,0,0,0,0,0,-1,2036,540,0,0
-700,477,0,0,0,0,0,0,0,0,0,-1,524,547,0,0
-693,477,0,0,0,0,0,0,0,0,0,-1,531,547,0,0
-686,477,0,0,0,0,0,0,0,0,0,-1,538,547,0,0
-679,477,0,0,0,0,0,0,0,0,0,-1,545,547,0,0
-672,477,0,0,0,0,0,0,0,0,0,-1,552,547,0,0
-665,477,0,0,0,0,0,0,0,0,0,-1,559,547,0,0
-658,477,0,0,0,0,0,0,0,0,0,-1,566,547,0,0
-651,477,0,0,0,0,0,0,0,0,0,-1,573,547,0,0
-644,477,0,0,0,0,0,0,0,0,0,-1,580,547,0,0
-637,477,0,0,0,0,0,0,0,0,0,-1,587,547,0,0
-630,477,0,0,0,0,0,0,0,0,0,-1,594,547,0,0
-623,477,0,0,0,0,0,0,0,0,0,-1,601,547,0,0
-616,477,0,0,0,0,0,0,0,0,0,-1,608,547,0,0
-609,477,0,0,0,0,0,0,0,0,0,-1,615,547,0,0
-602,477,0,0,0,0,0,0,0,0,0,-1,622,547,0,0
-595,477,0,0,0,0,0,0,0,0,0,-1,629,547,0,0
-588,477,0,0,0,0,0,0,0,0,0,-1,636,547,0,0
-581,477,0,0,0,0,0,0,0,0,0,-1,643,547,0,0
-574,477,0,0,0,0,0,0,0,0,0,-1,650,547,0,0
-567,477,0,0,0,0,0,0,0,0,0,-1,657,547,0,0
-560,477,0,0,0,0,0,0,0,0,0,-1,664,547,0,0
-553,477,0,0,0,0,0,0,0,0,0,-1,671,547,0,0
-546,477,0,0,0,0,0,0,0,0,0,-1,678,547,0,0
-539,477,0,0,0,0,0,0,0,0,0,-1,685,547,0,0
-532,477,0,0,0,0,0,0,0,0,0,-1,692,547,0,0
-525,477,0,0,0,0,0,0,0,0,0,-1,699,547,0,0
-518,477,0,0,0,0,0,0,0,0,0,-1,706,547,0,0
-511,477,0,0,0,0,0,0,0,0,0,-1,713,547,0,0
-504,477,0,0,0,0,0,0,0,0,0,-1,720,547,0,0
-497,477,0,0,0,0,0,0,0,0,0,-1,727,547,0,0
-490,477,0,0,0,0,0,0,0,0,0,-1,734,547,0,0
-483,477,-7.73151,-0.224182,0,0,0,0,0,0,0,-1,741,547,-7.73152,0.224176
-476,477,-6.25806,-0.310547,0,0,0,0,0,0,0,-1,748,547,-6.25804,0.310549
-469,477,-7.26617,0.525085,0,0,0,0,0,0,0,-1,755,547,-7.2662,-0.525111
-462,477,-6.65143,1.06042,0,0,0,0,0,0,0,-1,762,547,-6.65143,-1.06043
-455,477,-5.31757,0.429016,0,0,0,0,0,0,0,-1,769,547,-5.31756,-0.42902
-448,477,-4.0697,0.273376,0,0,0,0,0,0,0,-1,776,547,-4.06971,-0.273363
-441,477,-2.47504,-4.76971,0,0,0,0,0,0,0,-1,783,547,-2.47505,4.76973
-434,477,-7.57751,-22.2794,0,0,0,0,0,0,0,-1,790,547,-7.57751,22.2794
-427,477,-8.0484,-22.5795,0,0,0,0,0,0,0,-1,797,547,-8.04838,22.5795
-420,477,-7.97083,-23.808,0.000379559,0.0113018,-0.00673547,0.0145119,-0.00283057,-1.12604,0.0107431,0.0404913,804,547,-7.97083,23.808
-413,477,-8.00226,-25.1664,0.000509675,0.00969126,-0.00608005,0.012719,-0.00251809,-1.10876,0.00943144,0.0227107,811,547,-8.00228,25.1664
-406,477,-8.1358,-26.3015,0.000611523,0.00804649,-0.00522137,0.0107386,-0.00208055,-1.09476,0.0079439,0.0121484,818,547,-8.13583,26.3015
-399,477,-8.2002,-27.3088,0.00069882,0.00643539,-0.00430063,0.00873648,-0.00160227,-1.0795,0.00642535,0.0210197,825,547,-8.20019,27.3088
-392,477,-8.30804,-28.3459,0.000923454,0.00494071,-0.00347733,0.00694786,-0.00108369,-1.0473,0.00503218,0.0195551,832,547,-8.30805,28.3459
-385,477,-8.3692,-29.3703,0.00125647,0.00357482,-0.0027094,0.00536259,-0.000531305,-0.987533,0.00376468,0.0155348,839,547,-8.36921,29.3703
-378,477,-8.43921,-30.3924,0.00158058,0.00219155,-0.00191965,0.00382987,-5.77422e-05,-0.864305,0.00257271,0.0139863,846,547,-8.43921,30.3924
-371,477,-8.5141,-31.3806,0.00183548,0.000913061,-0.00118344,0.00264441,0.000104131,-0.599593,0.00172927,0.0143046,853,547,-8.51409,31.3806
-364,477,-8.57178,-32.3694,0.0020331,-0.000375689,-0.00046014,0.00211801,-0.000460595,-0.182469,0.00158796,0.0142306,860,547,-8.57175,32.3694
-357,477,-8.6568,-33.3718,0.00224841,-0.00143077,0.00017628,0.00225683,-0.0014392,0.0477672,0.00215124,0.0117767,867,547,-8.65679,33.3718
-350,477,-8.7063,-34.3626,0.00242926,-0.00243302,0.00073311,0.00253739,-0.00254115,0.146439,0.0029321,0.0115076,874,547,-8.7063,34.3626
-343,477,-8.69104,-35.403,0.00250955,-0.0032474,0.00126061,0.00277349,-0.00351134,0.206392,0.00363687,0.0216394,881,547,-8.69102,35.403
-336,477,-8.68591,-36.3834,0.00247542,-0.00414512,0.00176556,0.00291682,-0.00458653,0.244988,0.00436767,0.0420516,888,547,-8.68593,36.3833
-329,477,-8.65826,-37.3521,0,0,0,0,0,0,0,-1,895,547,-8.65825,37.3521
-322,477,-5.91638,-27.4468,0,0,0,0,0,0,0,-1,902,547,-5.91639,27.4468
-315,477,-1.67358,-9.15253,0,0,0,0,0,0,0,-1,909,547,-1.67356,9.15253
-308,477,-1.30127,-6.55188,0,0,0,0,0,0,0,-1,916,547,-1.30128,6.55185
-301,477,-1.21185,-6.28351,0,0,0,0,0,0,0,-1,923,547,-1.21184,6.28352
-294,477,-0.352905,3.27142,0,0,0,0,0,0,0,-1,930,547,-0.35292,-3.27144
-287,477,3.54364,2.15399,0,0,0,0,0,0,0,-1,937,547,3.54362,-2.15396
-280,477,1.97308,-0.954163,0,0,0,0,0,0,0,-1,944,547,1.9731,0.954178
-273,477,2.11621,-3.76709,0,0,0,0,0,0,0,-1,951,547,2.11619,3.76706
-266,477,2.04669,-3.42389,0,0,0,0,0,0,0,-1,958,547,2.04671,3.42391
-259,477,-1.33478,-3.41205,0,0,0,0,0,0,0,-1,965,547,-1.3348,3.41206
-252,477,0.597168,-5.32922,0,0,0,0,0,0,0,-1,972,547,0.597144,5.32924
-245,477,8.2309,-8.48492,0,0,0,0,0,0,0,-1,979,547,8.23091,8.48494
-238,477,6.60938,-5.64063,0,0,0,0,0,0,0,-1,986,547,6.60938,5.64063
-231,477,4.71716,-2.52484,0,0,0,0,0,0,0,-1,993,547,4.71716,2.52483
-224,477,0,0,0,0,0,0,0,0,0,-1,1000,547,0,0
-217,477,0,0,0,0,0,0,0,0,0,-1,1007,547,0,0
-210,477,0,0,0,0,0,0,0,0,0,-1,1014,547,0,0
-203,477,0,0,0,0,0,0,0,0,0,-1,1021,547,0,0
-196,477,0,0,0,0,0,0,0,0,0,-1,1028,547,0,0
-189,477,0,0,0,0,0,0,0,0,0,-1,1035,547,0,0
-182,477,0,0,0,0,0,0,0,0,0,-1,1042,547,0,0
-175,477,0,0,0,0,0,0,0,0,0,-1,1049,547,0,0
-168,477,0,0,0,0,0,0,0,0,0,-1,1056,547,0,0
-161,477,0,0,0,0,0,0,0,0,0,-1,1063,547,0,0
-154,477,0,0,0,0,0,0,0,0,0,-1,1070,547,0,0
-147,477,0,0,0,0,0,0,0,0,0,-1,1077,547,0,0
-140,477,0,0,0,0,0,0,0,0,0,-1,1084,547,0,0
-133,477,0,0,0,0,0,0,0,0,0,-1,1091,547,0,0
-126,477,0,0,0,0,0,0,0,0,0,-1,1098,547,0,0
-119,477,0,0,0,0,0,0,0,0,0,-1,1105,547,0,0
-112,477,0,0,0,0,0,0,0,0,0,-1,1112,547,0,0
-105,477,0,0,0,0,0,0,0,0,0,-1,1119,547,0,0
-98,477,0,0,0,0,0,0,0,0,0,-1,1126,547,0,0
-91,477,0,0,0,0,0,0,0,0,0,-1,1133,547,0,0
-84,477,0,0,0,0,0,0,0,0,0,-1,1140,547,0,0
-77,477,0,0,0,0,0,0,0,0,0,-1,1147,547,0,0
-70,477,0,0,0,0,0,0,0,0,0,-1,1154,547,0,0
-63,477,0,0,0,0,0,0,0,0,0,-1,1161,547,0,0
-56,477,0,0,0,0,0,0,0,0,0,-1,1168,547,0,0
-49,477,0,0,0,0,0,0,0,0,0,-1,1175,547,0,0
-42,477,0,0,0,0,0,0,0,0,0,-1,1182,547,0,0
-35,477,0,0,0,0,0,0,0,0,0,-1,1189,547,0,0
-28,477,0,0,0,0,0,0,0,0,0,-1,1196,547,0,0
-21,477,0,0,0,0,0,0,0,0,0,-1,1203,547,0,0
-14,477,0,0,0,0,0,0,0,0,0,-1,1210,547,0,0
-7,477,0,0,0,0,0,0,0,0,0,-1,1217,547,0,0
0,477,0,0,0,0,0,0,0,0,0,-1,1224,547,0,0
7,477,0,0,0,0,0,0,0,0,0,-1,1231,547,0,0
14,477,0,0,0,0,0,0,0,0,0,-1,1238,547,0,0
21,477,0,0,0,0,0,0,0,0,0,-1,1245,547,0,0
28,477,0,0,0,0,0,0,0,0,0,-1,1252,547,0,0
35,477,0,0,0,0,0,0,0,0,0,-1,1259,547,0,0
42,477,0,0,0,0,0,0,0,0,0,-1,1266,547,0,0
49,477,0,0,0,0,0,0,0,0,0,-1,1273,547,0,0
56,477,0,0,0,0,0,0,0,0,0,-1,1280,547,0,0
63,477,0,0,0,0,0,0,0,0,0,-1,1287,547,0,0
70,477,0,0,0,0,0,0,0,0,0,-1,1294,547,0,0
77,477,0,0,0,0,0,0,0,0,0,-1,1301,547,0,0
84,477,0,0,0,0,0,0,0,0,0,-1,1308,547,0,0
91,477,0,0,0,0,0,0,0,0,0,-1,1315,547,0,0
98,477,0,0,0,0,0,0,0,0,0,-1,1322,547,0,0
105,477,0,0,0,0,0,0,0,0,0,-1,1329,547,0,0
112,477,0,0,0,0,0,0,0,0,0,-1,1336,547,0,0
119,477,0,0,0,0,0,0,0,0,0,-1,1343,547,0,0
126,477,0,0,0,0,0,0,0,0,0,-1,1350,547,0,0
133,477,0,0,0,0,0,0,0,0,0,-1,1357,547,0,0
140,477,0,0,0,0,0,0,0,0,0,-1,1364,547,0,0
147,477,0,0,0,0,0,0,0,0,0,-1,1371,547,0,0
154,477,0,0,0,0,0,0,0,0,0,-1,1378,547,0,0
161,477,0,0,0,0,0,0,0,0,0,-1,1385,547,0,0
168,477,0,0,0,0,0,0,0,0,0,-1,1392,547,0,0
175,477,0,0,0,0,0,0,0,0,0,-1,1399,547,0,0
182,477,0,0,0,0,0,0,0,0,0,-1,1406,547,0,0
189,477,0,0,0,0,0,0,0,0,0,-1,1413,547,0,0
196,477,0,0,0,0,0,0,0,0,0,-1,1420,547,0,0
203,477,0,0,0,0,0,0,0,0,0,-1,1427,547,0,0
210,477,0,0,0,0,0,0,0,0,0,-1,1434,547,0,0
217,477,0,0,0,0,0,0,0,0,0,-1,1441,547,0,0
224,477,0,0,0,0,0,0,0,0,0,-1,1448,547,0,0
231,477,0,0,0,0,0,0,0,0,0,-1,1455,547,0,0
238,477,0,0,0,0,0,0,0,0,0,-1,1462,547,0,0
245,477,0,0,0,0,0,0,0,0,0,-1,1469,547,0,0
252,477,0,0,0,0,0,0,0,0,0,-1,1476,547,0,0
259,477,0,0,0,0,0,0,0,0,0,-1,1483,547,0,0
266,477,0,0,0,0,0,0,0,0,0,-1,1490,547,0,0
273,477,0,0,0,0,0,0,0,0,0,-1,1497,547,0,0
280,477,0,0,0,0,0,0,0,0,0,-1,1504,547,0,0
287,477,0,0,0,0,0,0,0,0,0,-1,1511,547,0,0
294,477,0,0,0,0,0,0,0,0,0,-1,1518,547,0,0
301,477,0,0,0,0,0,0,0,0,0,-1,1525,547,0,0
308,477,0,0,0,0,0,0,0,0,0,-1,1532,547,0,0
315,477,0,0,0,0,0,0,0,0,0,-1,1539,547,0,0
322,477,0,0,0,0,0,0,0,0,0,-1,1546,547,0,0
329,477,0,0,0,0,0,0,0,0,0,-1,1553,547,0,0
336,477,0,0,0,0,0,0,0,0,0,-1,1560,547,0,0
343,477,0,0,0,0,0,0,0,0,0,-1,1567,547,0,0
350,477,1.7699,-3.32275,0,0,0,0,0,0,0,-1,1574,547,1.7699,3.32272
357,477,3.073,-4.83313,0,0,0,0,0,0,0,-1,1581,547,3.07303,4.83316
364,477,4.30127,-4.22864,0,0,0,0,0,0,0,-1,1588,547,4.30125,4.22865
371,477,4.57703,0.283264,0,0,0,0,0,0,0,-1,1595,547,4.57706,-0.283262
378,477,8.57947,1.05969,0,0,0,0,0,0,0,-1,1602,547,8.5795,-1.05972
385,477,12.3726,2.02356,0,0,0,0,0,0,0,-1,1609,547,12.3725,-2.02355
392,477,16.4678,2.76843,0,0,0,0,0,0,0,-1,1616,547,16.4678,-2.76845
399,477,8.00037,-2.29523,0,0,0,0,0,0,0,-1,1623,547,8.00031,2.2952
406,477,4.82495,2.7475,0,0,0,0,0,0,0,-1,1630,547,4.825,-2.74752
413,477,4.88171,-0.336426,0,0,0,0,0,0,0,-1,1637,547,4.88169,0.336398
420,477,3.34875,0.102722,0,0,0,0,0,0,0,-1,1644,547,3.34871,-0.1027
427,477,1.66772,-0.373108,0,0,0,0,0,0,0,-1,1651,547,1.66768,0.373104
434,477,3.76978,-2.30798,0,0,0,0,0,0,0,-1,1658,547,3.76974,2.30801
441,477,4.05444,-2.80402,0,0,0,0,0,0,0,-1,1665,547,4.05444,2.804
448,477,10.4247,-11.7421,0,0,0,0,0,0,0,-1,1672,547,10.4247,11.7421
455,477,13.3054,-16.8109,0,0,0,0,0,0,0,-1,1679,547,13.3054,16.8109
462,477,26.0125,-36.5181,0,0,0,0,0,0,0,-1,1686,547,26.0124,36.5181
469,477,26.0492,-35.369,0,0,0,0,0,0,0,-1,1693,547,26.0492,35.369
476,477,25.912,-34.4092,0.00137402,0.00107268,-0.000697255,0.0019367,0.00051,-0.678988,0.00115915,0.0316721,1700,547,25.912,34.4092
483,477,25.8658,-33.3753,0.00155849,0.000751518,-0.000401185,0.00172399,0.000586013,-0.39127,0.00101221,0.0162459,1707,547,25.8658,33.3753
490,477,25.8108,-32.4111,0.00161545,0.000795668,-1.14111e-05,0.00161561,0.000795509,-0.0139161,0.000932808,0.0151105,1714,547,25.8108,32.4111
497,477,25.7487,-31.3939,0.0015573,0.000911295,0.000418279,0.00176278,0.000705821,0.456612,0.00102445,0.0141458,1721,547,25.7487,31.3939
504,477,25.6652,-30.3809,0.00148899,0.00104488,0.00083773,0.0021336,0.000400274,0.655843,0.00130953,0.0187965,1728,547,25.6652,30.3809
511,477,25.6555,-29.4158,0.00133656,0.00130293,0.00128269,0.00260254,3.69465e-05,0.778845,0.00172284,0.0233957,1735,547,25.6555,29.4158
518,477,25.5956,-28.421,0.00104877,0.00163331,0.00164911,0.00301585,-0.00033377,0.873103,0.00213056,0.0204567,1742,547,25.5956,28.421
525,477,25.45,-27.3781,0.000787113,0.00199431,0.00198802,0.00346835,-0.000686923,0.932785,0.00257197,0.0173686,1749,547,25.4499,27.3781
532,477,25.3213,-26.3496,0.000554706,0.0025356,0.00231751,0.00406544,-0.000975137,0.987338,0.00308711,0.0203444,1756,547,25.3213,26.3496
539,477,25.2874,-25.2639,0.000304386,0.00319646,0.00258623,0.00471346,-0.00121261,1.04031,0.00361496,0.0194978,1763,547,25.2874,25.2638
546,477,25.1531,-24.3,7.95166e-05,0.00416746,0.0028714,0.00564808,-0.0014011,1.09471,0.00430903,0.0470422,1770,547,25.153,24.3
553,477,25.1901,-23.1352,0,0,0,0,0,0,0,-1,1777,547,25.19,23.1352
560,477,19.4597,-16.1135,0,0,0,0,0,0,0,-1,1784,547,19.4597,16.1135
567,477,13.9529,-8.70972,0,0,0,0,0,0,0,-1,1791,547,13.9529,8.7097
574,477,6.82593,-0.916992,0,0,0,0,0,0,0,-1,1798,547,6.82598,0.916977
581,477,9.29321,-0.557007,0,0,0,0,0,0,0,-1,1805,547,9.29324,0.55703
588,477,9.75195,0.422729,0,0,0,0,0,0,0,-1,1812,547,9.75198,-0.42273
595,477,9.89172,1.21326,0,0,0,0,0,0,0,-1,1819,547,9.89174,-1.21328
602,477,6.5271,-0.964417,0,0,0,0,0,0,0,-1,1826,547,6.52706,0.964427
609,477,0,0,0,0,0,0,0,0,0,-1,1833,547,0,0
616,477,0,0,0,0,0,0,0,0,0,-1,1840,547,0,0
623,477,0,0,0,0,0,0,0,0,0,-1,1847,547,0,0
630,477,0,0,0,0,0,0,0,0,0,-1,1854,547,0,0
637,477,0,0,0,0,0,0,0,0,0,-1,1861,547,0,0
644,477,0,0,0,0,0,0,0,0,0,-1,1868,547,0,0
651,477,0,0,0,0,0,0,0,0,0,-1,1875,547,0,0
658,477,0,0,0,0,0,0,0,0,0,-1,1882,547,0,0
665,477,0,0,0,0,0,0,0,0,0,-1,1889,547,0,0
672,477,0,0,0,0,0,0,0,0,0,-1,1896,547,0,0
679,477,0,0,0,0,0,0,0,0,0,-1,1903,547,0,0
686,477,0,0,0,0,0,0,0,0,0,-1,1910,547,0,0
693,477,0,0,0,0,0,0,0,0,0,-1,1917,547,0,0
700,477,0,0,0,0,0,0,0,0,0,-1,1924,547,0,0
707,477,0,0,0,0,0,0,0,0,0,-1,1931,547,0,0
714,477,0,0,0,0,0,0,0,0,0,-1,1938,547,0,0
721,477,0,0,0,0,0,0,0,0,0,-1,1945,547,0,0
728,477,0,0,0,0,0,0,0,0,0,-1,1952,547,0,0
735,477,0,0,0,0,0,0,0,0,0,-1,1959,547,0,0
742,477,0,0,0,0,0,0,0,0,0,-1,1966,547,0,0
749,477,0,0,0,0,0,0,0,0,0,-1,1973,547,0,0
756,477,0,0,0,0,0,0,0,0,0,-1,1980,547,0,0
763,477,0,0,0,0,0,0,0,0,0,-1,1987,547,0,0
770,477,0,0,0,0,0,0,0,0,0,-1,1994,547,0,0
777,477,0,0,0,0,0,0,0,0,0,-1,2001,547,0,0
784,477,0,0,0,0,0,0,0,0,0,-1,2008,547,0,0
791,477,0,0,0,0,0,0,0,0,0,-1,2015,547,0,0
798,477,0,0,0,0,0,0,0,0,0,-1,2022,547,0,0
805,477,0,0,0,0,0,0,0,0,0,-1,2029,547,0,0
812,477,0,0,0,0,0,0,0,0,0,-1,2036,547,0,0
-700,470,0,0,0,0,0,0,0,0,0,-1,524,554,0,0
-693,470,0,0,0,0,0,0,0,0,0,-1,531,554,0,0
-686,470,0,0,0,0,0,0,0,0,0,-1,538,554,0,0
-679,470,0,0,0,0,0,0,0,0,0,-1,545,554,0,0
-672,470,0,0,0,0,0,0,0,0,0,-1,552,554,0,0
-665,470,0,0,0,0,0,0,0,0,0,-1,559,554,0,0
-658,470,0,0,0,0,0,0,0,0,0,-1,566,554,0,0
-651,470,0,0,0,0,0,0,0,0,0,-1,573,554,0,0
-644,470,0,0,0,0,0,0,0,0,0,-1,580,554,0,0
-637,470,0,0,0,0,0,0,0,0,0,-1,587,554,0,0
-630,470,0,0,0,0,0,0,0,0,0,-1,594,554,0,0
-623,470,0,0,0,0,0,0,0,0,0,-1,601,554,0,0
-616,470,0,0,0,0,0,0,0,0,0,-1,608,554,0,0
-609,470,0,0,0,0,0,0,0,0,0,-1,615,554,0,0
-602,470,0,0,0,0,0,0,0,0,0,-1,622,554,0,0
-595,470,0,0,0,0,0,0,0,0,0,-1,629,554,0,0
-588,470,0,0,0,0,0,0,0,0,0,-1,636,554,0,0
-581,470,0,0,0,0,0,0,0,0,0,-1,643,554,0,0
-574,470,0,0,0,0,0,0,0,0,0,-1,650,554,0,0
-567,470,0,0,0,0,0,0,0,0,0,-1,657,554,0,0
-560,470,0,0,0,0,0,0,0,0,0,-1,664,554,0,0
-553,470,0,0,0,0,0,0,0,0,0,-1,671,554,0,0
-546,470,0,0,0,0,0,0,0,0,0,-1,678,554,0,0
-539,470,0,0,0,0,0,0,0,0,0,-1,685,554,0,0
-532,470,0,0,0,0,0,0,0,0,0,-1,692,554,0,0
-525,470,0,0,0,0,0,0,0,0,0,-1,699,554,0,0
-518,470,0,0,0,0,0,0,0,0,0,-1,706,554,0,0
-511,470,0,0,0,0,0,0,0,0,0,-1,713,554,0,0
-504,470,0,0,0,0,0,0,0,0,0,-1,720,554,0,0
-497,470,0,0,0,0,0,0,0,0,0,-1,727,554,0,0
-490,470,-9.13263,-1.03125,0,0,0,0,0,0,0,-1,734,554,-9.1326,1.03127
-483,470,-7.68677,-1.03955,0,0,0,0,0,0,0,-1,741,554,-7.68678,1.03958
-476,470,-6.17969,-1.03394,0,0,0,0,0,0,0,-1,748,554,-6.17971,1.03395
-469,470,-6.23016,-0.651855,0,0,0,0,0,0,0,-1,755,554,-6.23014,0.651829
-462,470,-4.87915,-1.03705,0,0,0,0,0,0,0,-1,762,554,-4.87914,1.03702
-455,470,-4.14777,-1.37079,0,0,0,0,0,0,0,-1,769,554,-4.14779,1.37078
-448,470,-2.9314,-5.74518,0,0,0,0,0,0,0,-1,776,554,-2.93137,5.74518
-441,470,-8.03943,-19.0135,0,0,0,0,0,0,0,-1,783,554,-8.03942,19.0135
-434,470,-8.87921,-21.979,0,0,0,0,0,0,0,-1,790,554,-8.87919,21.979
-427,470,-8.96698,-23.0425,0.000262258,0.00974087,-0.00540559,0.0121905,-0.00218742,-1.14531,0.00894576,0.0290926,797,554,-8.96696,23.0426
-420,470,-9.00983,-24.1351,0.000334063,0.00847088,-0.0049455,0.0108064,-0.00200143,-1.1296,0.00795575,0.0188661,804,554,-9.00983,24.1351
-413,470,-9.08533,-25.2172,0.000440658,0.00718282,-0.00443426,0.00938191,-0.00175844,-1.11041,0.00691568,0.0148557,811,554,-9.08533,25.2172
-406,470,-9.14038,-26.2485,0.000518713,0.00579389,-0.00370689,0.0077058,-0.00139319,-1.09461,0.00565905,0.0137233,818,554,-9.14036,26.2485
-399,470,-9.19897,-27.2673,0.000626399,0.00447793,-0.00294317,0.00606938,-0.00096505,-1.0751,0.00440333,0.0178465,825,554,-9.19897,27.2673
-392,470,-9.27472,-28.2853,0.000868646,0.00322988,-0.00225103,0.00459111,-0.000492588,-1.02692,0.00323745,0.0167965,832,554,-9.27471,28.2853
-385,470,-9.37207,-29.2935,0.00123375,0.00208127,-0.00161013,0.00332247,-7.44243e-06,-0.914073,0.00221746,0.0121189,839,554,-9.37208,29.2935
-378,470,-9.44281,-30.3157,0.00161146,0.00087835,-0.000934165,0.00224841,0.000241398,-0.598435,0.00142531,0.0166051,846,554,-9.44279,30.3157
-371,470,-9.51563,-31.3221,0.00195773,-0.000227446,-0.00031866,0.00200326,-0.000272967,-0.141892,0.00143517,0.0151761,853,554,-9.51562,31.3221
-364,470,-9.57733,-32.2947,0.00228488,-0.00127314,0.00025938,0.00230369,-0.00129195,0.0723898,0.00210316,0.0156088,860,554,-9.57734,32.2947
-357,470,-9.67126,-33.2817,0.00262895,-0.00218537,0.000773181,0.00275008,-0.0023065,0.155396,0.00292315,0.014727,867,554,-9.67128,33.2817
-350,470,-9.70117,-34.3214,0.00295052,-0.00311474,0.00120125,0.00317977,-0.00334398,0.188573,0.00376688,0.0129323,874,554,-9.70118,34.3214
-343,470,-9.6944,-35.4542,0,0,0,0,0,0,0,-1,881,554,-9.6944,35.4542
-336,470,-9.50897,-36.4199,0,0,0,0,0,0,0,-1,888,554,-9.50896,36.4199
-329,470,-2.78516,-12.3594,0,0,0,0,0,0,0,-1,895,554,-2.78517,12.3594
-322,470,-2.30829,-11.4527,0,0,0,0,0,0,0,-1,902,554,-2.30827,11.4527
-315,470,-1.04797,-8.29529,0,0,0,0,0,0,0,-1,909,554,-1.04797,8.29526
-308,470,-1.39368,-6.68152,0,0,0,0,0,0,0,-1,916,554,-1.39369,6.68149
-301,470,-0.0340576,3.34888,0,0,0,0,0,0,0,-1,923,554,-0.0340496,-3.3489
-294,470,-1.18378,3.22266,0,0,0,0,0,0,0,-1,930,554,-1.18376,-3.22268
-287,470,-2.15454,3.2204,0,0,0,0,0,0,0,-1,937,554,-2.15452,-3.22037
-280,470,-3.00537,3.099,0,0,0,0,0,0,0,-1,944,554,-3.00536,-3.09898
-273,470,-12.3932,3.65009,0,0,0,0,0,0,0,-1,951,554,-12.3932,-3.65011
-266,470,-11.5706,1.16028,0,0,0,0,0,0,0,-1,958,554,-11.5706,-1.16031
-259,470,-7.50415,-2.77167,0,0,0,0,0,0,0,-1,965,554,-7.50413,2.7717
-252,470,-0.371155,-5.87823,0,0,0,0,0,0,0,-1,972,554,-0.37114,5.87821
-245,470,1.33221,-6.81122,0,0,0,0,0,0,0,-1,979,554,1.33223,6.8112
-238,470,0,0,0,0,0,0,0,0,0,-1,986,554,0,0
-231,470,0,0,0,0,0,0,0,0,0,-1,993,554,0,0
-224,470,0,0,0,0,0,0,0,0,0,-1,1000,554,0,0
-217,470,0,0,0,0,0,0,0,0,0,-1,1007,554,0,0
-210,470,0,0,0,0,0,0,0,0,0,-1,1014,554,0,0
-203,470,0,0,0,0,0,0,0,0,0,-1,1021,554,0,0
-196,470,0,0,0,0,0,0,0,0,0,-1,1028,554,0,0
-189,470,0,0,0,0,0,0,0,0,0,-1,1035,554,0,0
-182,470,0,0,0,0,0,0,0,0,0,-1,1042,554,0,0
-175,470,0,0,0,0,0,0,0,0,0,-1,1049,554,0,0
-168,470,0,0,0,0,0,0,0,0,0,-1,1056,554,0,0
-161,470,0,0,0,0,0,0,0,0,0,-1,1063,554,0,0
-154,470,0,0,0,0,0,0,0,0,0,-1,1070,554,0,0
-147,470,0,0,0,0,0,0,0,0,0,-1,1077,554,0,0
-140,470,0,0,0,0,0,0,0,0,0,-1,1084,554,0,0
-133,470,0,0,0,0,0,0,0,0,0,-1,1091,554,0,0
-126,470,0,0,0,0,0,0,0,0,0,-1,1098,554,0,0
-119,470,0,0,0,0,0,0,0,0,0,-1,1105,554,0,0
-112,470,0,0,0,0,0,0,0,0,0,-1,1112,554,0,0
-105,470,0,0,0,0,0,0,0,0,0,-1,1119,554,0,0
-98,470,0,0,0,0,0,0,0,0,0,-1,1126,554,0,0
-91,470,0,0,0,0,0,0,0,0,0,-1,1133,554,0,0
-84,470,0,0,0,0,0,0,0,0,0,-1,1140,554,0,0
-77,470,0,0,0,0,0,0,0,0,0,-1,1147,554,0,0
-70,470,0,0,0,0,0,0,0,0,0,-1,1154,554,0,0
-63,470,0,0,0,0,0,0,0,0,0,-1,1161,554,0,0
-56,470,0,0,0,0,0,0,0,0,0,-1,1168,554,0,0
-49,470,0,0,0,0,0,0,0,0,0,-1,1175,554,0,0
-42,470,0,0,0,0,0,0,0,0,0,-1,1182,554,0,0
-35,470,0,0,0,0,0,0,0,0,0,-1,1189,554,0,0
-28,470,0,0,0,0,0,0,0,0,0,-1,1196,554,0,0
-21,470,0,0,0,0,0,0,0,0,0,-1,1203,554,0,0
-14,470,0,0,0,0,0,0,0,0,0,-1,1210,554,0,0
-7,470,0,0,0,0,0,0,0,0,0,-1,1217,554,0,0
0,470,0,0,0,0,0,0,0,0,0,-1,1224,554,0,0
7,470,0,0,0,0,0,0,0,0,0,-1,1231,554,0,0
14,470,0,0,0,0,0,0,0,0,0,-1,1238,554,0,0
21,470,0,0,0,0,0,0,0,0,0,-1,1245,554,0,0
28,470,0,0,0,0,0,0,0,0,0,-1,1252,554,0,0
35,470,0,0,0,0,0,0,0,0,0,-1,1259,554,0,0
42,470,0,0,0,0,0,0,0,0,0,-1,1266,554,0,0
49,470,0,0,0,0,0,0,0,0,0,-1,1273,554,0,0
56,470,0,0,0,0,0,0,0,0,0,-1,1280,554,0,0
63,470,0,0,0,0,0,0,0,0,0,-1,1287,554,0,0
70,470,0,0,0,0,0,0,0,0,0,-1,1294,554,0,0
77,470,0,0,0,0,0,0,0,0,0,-1,1301,554,0,0
84,470,0,0,0,0,0,0,0,0,0,-1,1308,554,0,0
91,470,0,0,0,0,0,0,0,0,0,-1,1315,554,0,0
98,470,0,0,0,0,0,0,0,0,0,-1,1322,554,0,0
105,470,0,0,0,0,0,0,0,0,0,-1,1329,554,0,0
112,470,0,0,0,0,0,0,0,0,0,-1,1336,554,0,0
119,470,0,0,0,0,0,0,0,0,0,-1,1343,554,0,0
126,470,0,0,0,0,0,0,0,0,0,-1,1350,554,0,0
133,470,0,0,0,0,0,0,0,0,0,-1,1357,554,0,0
140,470,0,0,0,0,0,0,0,0,0,-1,1364,554,0,0
147,470,0,0,0,0,0,0,0,0,0,-1,1371,554,0,0
154,470,0,0,0,0,0,0,0,0,0,-1,1378,554,0,0
161,470,0,0,0,0,0,0,0,0,0,-1,1385,554,0,0
168,470,0,0,0,0,0,0,0,0,0,-1,1392,554,0,0
175,470,0,0,0,0,0,0,0,0,0,-1,1399,554,0,0
182,470,0,0,0,0,0,0,0,0,0,-1,1406,554,0,0
189,470,0,0,0,0,0,0,0,0,0,-1,1413,554,0,0
196,470,0,0,0,0,0,0,0,0,0,-1,1420,554,0,0
203,470,0,0,0,0,0,0,0,0,0,-1,1427,554,0,0
210,470,0,0,0,0,0,0,0,0,0,-1,1434,554,0,0
217,470,0,0,0,0,0,0,0,0,0,-1,1441,554,0,0
224,470,0,0,0,0,0,0,0,0,0,-1,1448,554,0,0
231,470,0,0,0,0,0,0,0,0,0,-1,1455,554,0,0
238,470,0,0,0,0,0,0,0,0,0,-1,1462,554,0,0
245,470,0,0,0,0,0,0,0,0,0,-1,1469,554,0,0
252,470,0,0,0,0,0,0,0,0,0,-1,1476,554,0,0
259,470,0,0,0,0,0,0,0,0,0,-1,1483,554,0,0
266,470,0,0,0,0,0,0,0,0,0,-1,1490,554,0,0
273,470,0,0,0,0,0,0,0,0,0,-1,1497,554,0,0
280,470,0,0,0,0,0,0,0,0,0,-1,1504,554,0,0
287,470,0,0,0,0,0,0,0,0,0,-1,1511,554,0,0
294,470,0,0,0,0,0,0,0,0,0,-1,1518,554,0,0
301,470,0,0,0,0,0,0,0,0,0,-1,1525,554,0,0
308,470,0,0,0,0,0,0,0,0,0,-1,1532,554,0,0
315,470,0,0,0,0,0,0,0,0,0,-1,1539,554,0,0
322,470,0,0,0,0,0,0,0,0,0,-1,1546,554,0,0
329,470,0,0,0,0,0,0,0,0,0,-1,1553,554,0,0
336,470,0,0,0,0,0,0,0,0,0,-1,1560,554,0,0
343,470,0,0,0,0,0,0,0,0,0,-1,1567,554,0,0
350,470,0,0,0,0,0,0,0,0,0,-1,1574,554,0,0
357,470,0,0,0,0,0,0,0,0,0,-1,1581,554,0,0
364,470,1.33423,0.293335,0,0,0,0,0,0,0,-1,1588,554,1.33422,-0.293348
371,470,2.22498,-0.0305176,0,0,0,0,0,0,0,-1,1595,554,2.22494,0.0305046
378,470,6.27051,0.710083,0,0,0,0,0,0,0,-1,1602,554,6.27054,-0.710093
385,470,10.3657,1.47296,0,0,0,0,0,0,0,-1,1609,554,10.3657,-1.47299
392,470,15.3881,3.01935,0,0,0,0,0,0,0,-1,1616,554,15.388,-3.01937
399,470,18.4479,2.93793,0,0,0,0,0,0,0,-1,1623,554,18.4479,-2.93792
406,470,15.1896,1.36676,0,0,0,0,0,0,0,-1,1630,554,15.1896,-1.36679
413,470,6.55383,1.99207,0,0,0,0,0,0,0,-1,1637,554,6.5538,-1.99208
420,470,4.47095,0.845703,0,0,0,0,0,0,0,-1,1644,554,4.47098,-0.845718
427,470,3.51038,1.19684,0,0,0,0,0,0,0,-1,1651,554,3.51039,-1.19684
434,470,3.31775,-1.37427,0,0,0,0,0,0,0,-1,1658,554,3.31781,1.37426
441,470,2.55457,-2.05902,0,0,0,0,0,0,0,-1,1665,554,2.55461,2.05904
448,470,3.27258,-2.64032,0,0,0,0,0,0,0,-1,1672,554,3.27257,2.64029
455,470,10.3658,-9.82233,0,0,0,0,0,0,0,-1,1679,554,10.3659,9.82233
462,470,11.0651,-11.9958,0,0,0,0,0,0,0,-1,1686,554,11.0651,11.9958
469,470,15.4242,-19.0521,0,0,0,0,0,0,0,-1,1693,554,15.4242,19.0521
476,470,26.8599,-34.4529,0,0,0,0,0,0,0,-1,1700,554,26.8598,34.4529
483,470,26.887,-33.304,0.00176216,0.000430594,-0.000641625,0.00202101,0.000171742,-0.383462,0.0012939,0.0217716,1707,554,26.8869,33.304
490,470,26.8107,-32.3212,0.00178558,0.00039446,-0.000329061,0.00185949,0.000320549,-0.220944,0.00114783,0.0138367,1714,554,26.8106,32.3211
497,470,26.7545,-31.3157,0.00167835,0.000452825,6.12876e-05,0.00168141,0.000449768,0.0498434,0.00100514,0.0139637,1721,554,26.7545,31.3157
504,470,26.6908,-30.3557,0.00152264,0.000527704,0.000400628,0.0016639,0.000386441,0.338994,0.00100552,0.0210825,1728,554,26.6908,30.3557
511,470,26.6749,-29.4334,0.00132609,0.000725055,0.000789322,0.00187017,0.000180978,0.603507,0.00119104,0.0290633,1735,554,26.6749,29.4334
518,470,26.6478,-28.4059,0.00103511,0.000994868,0.00114863,0.00216379,-0.000133812,0.77664,0.00148914,0.0279093,1742,554,26.6479,28.406
525,470,26.5117,-27.3038,0.000766667,0.00133592,0.00147909,0.00255752,-0.000454933,0.880452,0.00187514,0.0164881,1749,554,26.5117,27.3038
532,470,26.3636,-26.2094,0.000542897,0.00185981,0.0017987,0.00311679,-0.000714083,0.960859,0.0023523,0.014525,1756,554,26.3637,26.2094
539,470,26.2672,-25.1833,0.000344968,0.00253739,0.00209886,0.00380907,-0.000926713,1.02606,0.0028981,0.0179188,1763,554,26.2672,25.1833
546,470,26.2136,-24.1797,0.000227813,0.00350906,0.00242568,0.00479684,-0.00105997,1.08274,0.00360356,0.0171923,1770,554,26.2136,24.1797
553,470,26.225,-23.1296,0.000219464,0.00470274,0.0028283,0.00607001,-0.00114781,1.1205,0.00447858,0.0277116,1777,554,26.225,23.1296
560,470,26.2711,-21.8714,0,0,0,0,0,0,0,-1,1784,554,26.2711,21.8714
567,470,26.0892,-20.6848,0,0,0,0,0,0,0,-1,1791,554,26.0892,20.6848
574,470,14.2793,-8.07147,0,0,0,0,0,0,0,-1,1798,554,14.2793,8.07147
581,470,8.24646,-4.06317,0,0,0,0,0,0,0,-1,1805,554,8.24648,4.06318
588,470,11.1803,1.74927,0,0,0,0,0,0,0,-1,1812,554,11.1803,-1.74926
595,470,4.72192,3.44116,0,0,0,0,0,0,0,-1,1819,554,4.72191,-3.44116
602,470,14.4307,2.76141,0,0,0,0,0,0,0,-1,1826,554,14.4306,-2.76139
609,470,20.9181,4.41058,0,0,0,0,0,0,0,-1,1833,554,20.9181,-4.4106
616,470,0,0,0,0,0,0,0,0,0,-1,1840,554,0,0
623,470,0,0,0,0,0,0,0,0,0,-1,1847,554,0,0
630,470,0,0,0,0,0,0,0,0,0,-1,1854,554,0,0
637,470,0,0,0,0,0,0,0,0,0,-1,1861,554,0,0
644,470,0,0,0,0,0,0,0,0,0,-1,1868,554,0,0
651,470,0,0,0,0,0,0,0,0,0,-1,1875,554,0,0
658,470,0,0,0,0,0,0,0,0,0,-1,1882,554,0,0
665,470,0,0,0,0,0,0,0,0,0,-1,1889,554,0,0
672,470,0,0,0,0,0,0,0,0,0,-1,1896,554,0,0
679,470,0,0,0,0,0,0,0,0,0,-1,1903,554,0,0
686,470,0,0,0,0,0,0,0,0,0,-1,1910,554,0,0
693,470,0,0,0,0,0,0,0,0,0,-1,1917,554,0,0
700,470,0,0,0,0,0,0,0,0,0,-1,1924,554,0,0
707,470,0,0,0,0,0,0,0,0,0,-1,1931,554,0,0
714,470,0,0,0,0,0,0,0,0,0,-1,1938,554,0,0
721,470,0,0,0,0,0,0,0,0,0,-1,1945,554,0,0
728,470,0,0,0,0,0,0,0,0,0,-1,1952,554,0,0
735,470,0,0,0,0,0,0,0,0,0,-1,1959,554,0,0
742,470,0,0,0,0,0,0,0,0,0,-1,1966,554,0,0
749,470,0,0,0,0,0,0,0,0,0,-1,1973,554,0,0
756,470,0,0,0,0,0,0,0,0,0,-1,1980,554,0,0
763,470,0,0,0,0,0,0,0,0,0,-1,1987,554,0,0
770,470,0,0,0,0,0,0,0,0,0,-1,1994,554,0,0
777,470,0,0,0,0,0,0,0,0,0,-1,2001,554,0,0
784,470,0,0,0,0,0,0,0,0,0,-1,2008,554,0,0
791,470,0,0,0,0,0,0,0,0,0,-1,2015,554,0,0
798,470,0,0,0,0,0,0,0,0,0,-1,2022,554,0,0
805,470,0,0,0,0,0,0,0,0,0,-1,2029,554,0,0
812,470,0,0,0,0,0,0,0,0,0,-1,2036,554,0,0
-700,463,0,0,0,0,0,0,0,0,0,-1,524,561,0,0
-693,463,0,0,0,0,0,0,0,0,0,-1,531,561,0,0
-686,463,0,0,0,0,0,0,0,0,0,-1,538,561,0,0
-679,463,0,0,0,0,0,0,0,0,0,-1,545,561,0,0
-672,463,0,0,0,0,0,0,0,0,0,-1,552,561,0,0
-665,463,0,0,0,0,0,0,0,0,0,-1,559,561,0,0
-658,463,0,0,0,0,0,0,0,0,0,-1,566,561,0,0
-651,463,0,0,0,0,0,0,0,0,0,-1,573,561,0,0
-644,463,0,0,0,0,0,0,0,0,0,-1,580,561,0,0
-637,463,0,0,0,0,0,0,0,0,0,-1,587,561,0,0
-630,463,0,0,0,0,0,0,0,0,0,-1,594,561,0,0
-623,463,0,0,0,0,0,0,0,0,0,-1,601,561,0,0
-616,463,0,0,0,0,0,0,0,0,0,-1,608,561,0,0
-609,463,0,0,0,0,0,0,0,0,0,-1,615,561,0,0
-602,463,0,0,0,0,0,0,0,0,0,-1,622,561,0,0
-595,463,0,0,0,0,0,0,0,0,0,-1,629,561,0,0
-588,463,0,0,0,0,0,0,0,0,0,-1,636,561,0,0
-581,463,0,0,0,0,0,0,0,0,0,-1,643,561,0,0
-574,463,0,0,0,0,0,0,0,0,0,-1,650,561,0,0
-567,463,0,0,0,0,0,0,0,0,0,-1,657,561,0,0
-560,463,0,0,0,0,0,0,0,0,0,-1,664,561,0,0
-553,463,0,0,0,0,0,0,0,0,0,-1,671,561,0,0
-546,463,0,0,0,0,0,0,0,0,0,-1,678,561,0,0
-539,463,0,0,0,0,0,0,0,0,0,-1,685,561,0,0
-532,463,0,0,0,0,0,0,0,0,0,-1,692,561,0,0
-525,463,0,0,0,0,0,0,0,0,0,-1,699,561,0,0
-518,463,0,0,0,0,0,0,0,0,0,-1,706,561,0,0
-511,463,0,0,0,0,0,0,0,0,0,-1,713,561,0,0
-504,463,0,0,0,0,0,0,0,0,0,-1,720,561,0,0
-497,463,-9.81451,-1.67126,0,0,0,0,0,0,0,-1,727,561,-9.81452,1.67127
-490,463,-8.57043,-1.58942,0,0,0,0,0,0,0,-1,734,561,-8.57045,1.58944
-483,463,-7.29224,-1.7226,0,0,0,0,0,0,0,-1,741,561,-7.29226,1.72261
-476,463,-5.77704,-1.7312,0,0,0,0,0,0,0,-1,748,561,-5.77703,1.73121
-469,463,-5.14545,-2.138,0,0,0,0,0,0,0,-1,755,561,-5.14546,2.13799
-462,463,-3.13672,-3.07977,0,0,0,0,0,0,0,-1,762,561,-3.13672,3.07974
-455,463,-2.91406,-5.61798,0,0,0,0,0,0,0,-1,769,561,-2.91406,5.61801
-448,463,-4.00177,-8.54681,0,0,0,0,0,0,0,-1,776,561,-4.00175,8.54683
-441,463,-9.89594,-20.4661,0,0,0,0,0,0,0,-1,783,561,-9.89593,20.4661
-434,463,-9.88684,-21.9874,0,0,0,0,0,0,0,-1,790,561,-9.88681,21.9874
-427,463,-9.94818,-23.0498,7.45969e-05,0.007032,-0.00375264,0.0086703,-0.0015637,-1.15917,0.00636577,0.0127814,797,561,-9.9482,23.0498
-420,463,-10.0074,-24.0983,0.00012673,0.00603938,-0.00336323,0.00756091,-0.0013948,-1.14595,0.00556412,0.0101328,804,561,-10.0074,24.0983
-413,463,-10.087,-25.1465,0.000232466,0.00497692,-0.00293985,0.00638229,-0.0011729,-1.12487,0.00469492,0.0110043,811,561,-10.0871,25.1465
-406,463,-10.1714,-26.1768,0.000313911,0.00380855,-0.00231544,0.00496199,-0.000839524,-1.10863,0.00362042,0.0118001,818,561,-10.1714,26.1768
-399,463,-10.2395,-27.1753,0.000474759,0.0027519,-0.00169542,0.00365558,-0.000428925,-1.08109,0.00259189,0.0126952,825,561,-10.2395,27.1753
-392,463,-10.3204,-28.1932,0.000782295,0.00174788,-0.00114251,0.00250542,2.47585e-05,-0.985304,0.00166209,0.0127678,832,561,-10.3204,28.1932
-385,463,-10.406,-29.2417,0.0012534,0.000838169,-0.000661747,0.00173933,0.000352232,-0.633393,0.0010618,0.0132615,839,561,-10.406,29.2417
-378,463,-10.4774,-30.2473,0.00179278,-0.000118084,-0.000170863,0.00180793,-0.000133242,-0.0884815,0.00125207,0.013853,846,561,-10.4774,30.2473
-371,463,-10.544,-31.2595,0.00237786,-0.000958433,0.000218507,0.00239211,-0.000972683,0.0651233,0.00199945,0.0140528,853,561,-10.544,31.2595
-364,463,-10.5886,-32.2164,0.00302652,-0.00160218,0.000504957,0.00308097,-0.00165663,0.107409,0.00277615,0.016172,860,561,-10.5885,32.2164
-357,463,-10.6722,-33.1744,0.00371533,-0.00221366,0.000733476,0.00380472,-0.00230305,0.121275,0.00356167,0.0209793,867,561,-10.6723,33.1744
-350,463,-10.653,-34.2812,0.00440789,-0.00289528,0.000844153,0.00450419,-0.00299158,0.113592,0.00435696,0.0452223,874,561,-10.653,34.2812
-343,463,-10.3496,-35.4136,0,0,0,0,0,0,0,-1,881,561,-10.3496,35.4137
-336,463,-2.94928,-12.2127,0,0,0,0,0,0,0,-1,888,561,-2.94925,12.2127
-329,463,-2.64307,-12.7037,0,0,0,0,0,0,0,-1,895,561,-2.64307,12.7038
-322,463,-1.82898,-9.11957,0,0,0,0,0,0,0,-1,902,561,-1.829,9.11957
-315,463,-0.944763,-5.96234,0,0,0,0,0,0,0,-1,909,561,-0.94479,5.96237
-308,463,-1.1535,-3.17889,0,0,0,0,0,0,0,-1,916,561,-1.15352,3.17889
-301,463,-1.50366,-3.15338,0,0,0,0,0,0,0,-1,923,561,-1.50364,3.15341
-294,463,-2.35889,-3.93463,0,0,0,0,0,0,0,-1,930,561,-2.35886,3.93465
-287,463,-2.80322,2.73999,0,0,0,0,0,0,0,-1,937,561,-2.80322,-2.74
-280,463,-12.864,5.25146,0,0,0,0,0,0,0,-1,944,561,-12.864,-5.25149
-273,463,-12.4598,3.39178,0,0,0,0,0,0,0,-1,951,561,-12.4598,-3.3918
-266,463,-8.78101,-3.7356,0,0,0,0,0,0,0,-1,958,561,-8.78098,3.73562
-259,463,-6.23285,-5.68842,0,0,0,0,0,0,0,-1,965,561,-6.23288,5.68843
-252,463,0,0,0,0,0,0,0,0,0,-1,972,561,0,0
-245,463,0,0,0,0,0,0,0,0,0,-1,979,561,0,0
-238,463,0,0,0,0,0,0,0,0,0,-1,986,561,0,0
-231,463,0,0,0,0,0,0,0,0,0,-1,993,561,0,0
-224,463,0,0,0,0,0,0,0,0,0,-1,1000,561,0,0
-217,463,0,0,0,0,0,0,0,0,0,-1,1007,561,0,0
-210,463,0,0,0,0,0,0,0,0,0,-1,1014,561,0,0
-203,463,0,0,0,0,0,0,0,0,0,-1,1021,561,0,0
-196,463,0,0,0,0,0,0,0,0,0,-1,1028,561,0,0
-189,463,0,0,0,0,0,0,0,0,0,-1,1035,561,0,0
-182,463,0,0,0,0,0,0,0,0,0,-1,1042,561,0,0
-175,463,0,0,0,0,0,0,0,0,0,-1,1049,561,0,0
-168,463,0,0,0,0,0,0,0,0,0,-1,1056,561,0,0
-161,463,0,0,0,0,0,0,0,0,0,-1,1063,561,0,0
-154,463,0,0,0,0,0,0,0,0,0,-1,1070,561,0,0
-147,463,0,0,0,0,0,0,0,0,0,-1,1077,561,0,0
-140,463,0,0,0,0,0,0,0,0,0,-1,1084,561,0,0
-133,463,0,0,0,0,0,0,0,0,0,-1,1091,561,0,0
-126,463,0,0,0,0,0,0,0,0,0,-1,1098,561,0,0
-119,463,0,0,0,0,0,0,0,0,0,-1,1105,561,0,0
-112,463,0,0,0,0,0,0,0,0,0,-1,1112,561,0,0
-105,463,0,0,0,0,0,0,0,0,0,-1,1119,561,0,0
-98,463,0,0,0,0,0,0,0,0,0,-1,1126,561,0,0
-91,463,0,0,0,0,0,0,0,0,0,-1,1133,561,0,0
-84,463,0,0,0,0,0,0,0,0,0,-1,1140,561,0,0
-77,463,0,0,0,0,0,0,0,0,0,-1,1147,561,0,0
-70,463,0,0,0,0,0,0,0,0,0,-1,1154,561,0,0
-63,463,0,0,0,0,0,0,0,0,0,-1,1161,561,0,0
-56,463,0,0,0,0,0,0,0,0,0,-1,1168,561,0,0
-49,463,0,0,0,0,0,0,0,0,0,-1,1175,561,0,0
-42,463,0,0,0,0,0,0,0,0,0,-1,1182,561,0,0
-35,463,0,0,0,0,0,0,0,0,0,-1,1189,561,0,0
-28,463,0,0,0,0,0,0,0,0,0,-1,1196,561,0,0
-21,463,0,0,0,0,0,0,0,0,0,-1,1203,561,0,0
-14,463,0,0,0,0,0,0,0,0,0,-1,1210,561,0,0
-7,463,0,0,0,0,0,0,0,0,0,-1,1217,561,0,0
0,463,0,0,0,0,0,0,0,0,0,-1,1224,561,0,0
7,463,0,0,0,0,0,0,0,0,0,-1,1231,561,0,0
14,463,0,0,0,0,0,0,0,0,0,-1,1238,561,0,0
21,463,0,0,0,0,0,0,0,0,0,-1,1245,561,0,0
28,463,0,0,0,0,0,0,0,0,0,-1,1252,561,0,0
35,463,0,0,0,0,0,0,0,0,0,-1,1259,561,0,0
42,463,0,0,0,0,0,0,0,0,0,-1,1266,561,0,0
49,463,0,0,0,0,0,0,0,0,0,-1,1273,561,0,0
56,463,0,0,0,0,0,0,0,0,0,-1,1280,561,0,0
63,463,0,0,0,0,0,0,0,0,0,-1,1287,561,0,0
70,463,0,0,0,0,0,0,0,0,0,-1,1294,561,0,0
77,463,0,0,0,0,0,0,0,0,0,-1,1301,561,0,0
84,463,0,0,0,0,0,0,0,0,0,-1,1308,561,0,0
91,463,0,0,0,0,0,0,0,0,0,-1,1315,561,0,0
98,463,0,0,0,0,0,0,0,0,0,-1,1322,561,0,0
105,463,0,0,0,0,0,0,0,0,0,-1,1329,561,0,0
112,463,0,0,0,0,0,0,0,0,0,-1,1336,561,0,0
119,463,0,0,0,0,0,0,0,0,0,-1,1343,561,0,0
126,463,0,0,0,0,0,0,0,0,0,-1,1350,561,0,0
133,463,0,0,0,0,0,0,0,0,0,-1,1357,561,0,0
140,463,0,0,0,0,0,0,0,0,0,-1,1364,561,0,0
147,463,0,0,0,0,0,0,0,0,0,-1,1371,561,0,0
154,463,0,0,0,0,0,0,0,0,0,-1,1378,561,0,0
161,463,0,0,0,0,0,0,0,0,0,-1,1385,561,0,0
168,463,0,0,0,0,0,0,0,0,0,-1,1392,561,0,0
175,463,0,0,0,0,0,0,0,0,0,-1,1399,561,0,0
182,463,0,0,0,0,0,0,0,0,0,-1,1406,561,0,0
189,463,0,0,0,0,0,0,0,0,0,-1,1413,561,0,0
196,463,0,0,0,0,0,0,0,0,0,-1,1420,561,0,0
203,463,0,0,0,0,0,0,0,0,0,-1,1427,561,0,0
210,463,0,0,0,0,0,0,0,0,0,-1,1434,561,0,0
217,463,0,0,0,0,0,0,0,0,0,-1,1441,561,0,0
224,463,0,0,0,0,0,0,0,0,0,-1,1448,561,0,0
231,463,0,0,0,0,0,0,0,0,0,-1,1455,561,0,0
238,463,0,0,0,0,0,0,0,0,0,-1,1462,561,0,0
245,463,0,0,0,0,0,0,0,0,0,-1,1469,561,0,0
252,463,0,0,0,0,0,0,0,0,0,-1,1476,561,0,0
259,463,0,0,0,0,0,0,0,0,0,-1,1483,561,0,0
266,463,0,0,0,0,0,0,0,0,0,-1,1490,561,0,0
273,463,0,0,0,0,0,0,0,0,0,-1,1497,561,0,0
280,463,0,0,0,0,0,0,0,0,0,-1,1504,561,0,0
287,463,0,0,0,0,0,0,0,0,0,-1,1511,561,0,0
294,463,0,0,0,0,0,0,0,0,0,-1,1518,561,0,0
301,463,0,0,0,0,0,0,0,0,0,-1,1525,561,0,0
308,463,0,0,0,0,0,0,0,0,0,-1,1532,561,0,0
315,463,0,0,0,0,0,0,0,0,0,-1,1539,561,0,0
322,463,0,0,0,0,0,0,0,0,0,-1,1546,561,0,0
329,463,0,0,0,0,0,0,0,0,0,-1,1553,561,0,0
336,463,0,0,0,0,0,0,0,0,0,-1,1560,561,0,0
343,463,0,0,0,0,0,0,0,0,0,-1,1567,561,0,0
350,463,0,0,0,0,0,0,0,0,0,-1,1574,561,0,0
357,463,0,0,0,0,0,0,0,0,0,-1,1581,561,0,0
364,463,0,0,0,0,0,0,0,0,0,-1,1588,561,0,0
371,463,1.75842,0.152588,0,0,0,0,0,0,0,-1,1595,561,1.75844,-0.152558
378,463,4.58813,-0.0444336,0,0,0,0,0,0,0,-1,1602,561,4.58809,0.0444505
385,463,8.88574,1.65057,0,0,0,0,0,0,0,-1,1609,561,8.88575,-1.65055
392,463,14.0912,2.50513,0,0,0,0,0,0,0,-1,1616,561,14.0912,-2.5051
399,463,21.4769,2.7002,0,0,0,0,0,0,0,-1,1623,561,21.477,-2.70017
406,463,26.2987,4.32318,0,0,0,0,0,0,0,-1,1630,561,26.2987,-4.3232
413,463,26.5011,2.65222,0,0,0,0,0,0,0,-1,1637,561,26.5011,-2.65224
420,463,8.849,2.26611,0,0,0,0,0,0,0,-1,1644,561,8.84899,-2.26613
427,463,5.12207,1.69183,0,0,0,0,0,0,0,-1,1651,561,5.12206,-1.69184
434,463,4.59814,1.81995,0,0,0,0,0,0,0,-1,1658,561,4.59812,-1.81994
441,463,1.76392,-5.99225,0,0,0,0,0,0,0,-1,1665,561,1.7639,5.99225
448,463,2.49939,-4.30536,0,0,0,0,0,0,0,-1,1672,561,2.49941,4.30536
455,463,4.40295,-3.02557,0,0,0,0,0,0,0,-1,1679,561,4.40299,3.02558
462,463,5.38293,-4.06445,0,0,0,0,0,0,0,-1,1686,561,5.38289,4.06444
469,463,5.94373,-4.50647,0,0,0,0,0,0,0,-1,1693,561,5.94368,4.50646
476,463,15.2559,-17.3189,0,0,0,0,0,0,0,-1,1700,561,15.2558,17.3189
483,463,27.884,-33.3374,0,0,0,0,0,0,0,-1,1707,561,27.884,33.3374
490,463,27.8423,-32.3319,0.00203938,2.33765e-05,-0.000520897,0.00216602,-0.000103259,-0.238484,0.00147963,0.0346291,1714,561,27.8423,32.3319
497,463,27.7299,-31.2408,0.00194549,9.11656e-05,-0.000150812,0.00195768,7.89801e-05,-0.0806237,0.0012796,0.0162048,1721,561,27.7298,31.2408
504,463,27.6748,-30.2379,0.00172417,0.000146875,0.000112498,0.00173215,0.000138892,0.0708457,0.00111137,0.0182566,1728,561,27.6748,30.2379
511,463,27.6707,-29.3079,0.00150273,0.000281441,0.000441994,0.0016459,0.000138265,0.313266,0.00105421,0.0265111,1735,561,27.6706,29.3079
518,463,27.6602,-28.2792,0.0012207,0.000487464,0.000794219,0.00172884,-2.06698e-05,0.569165,0.00115951,0.0269562,1742,561,27.6601,28.2792
525,463,27.5223,-27.2338,0.000934363,0.000816448,0.00110161,0.00197859,-0.000227778,0.758664,0.00140117,0.0197435,1749,561,27.5224,27.2338
532,463,27.4668,-26.1735,0.000697486,0.00131956,0.00139257,0.00243541,-0.000418362,0.895272,0.00177953,0.0170296,1756,561,27.4668,26.1735
539,463,27.3173,-25.1351,0.000506275,0.00198946,0.0016934,0.00309653,-0.000600802,0.991783,0.00229103,0.0204201,1763,561,27.3172,25.1351
546,463,27.2264,-24.1774,0.000406151,0.00290273,0.00201428,0.00402416,-0.000715279,1.06279,0.00295024,0.0171198,1770,561,27.2265,24.1774
553,463,27.2006,-23.0963,0.000395908,0.00401098,0.00238638,0.0051971,-0.000790212,1.10952,0.00375595,0.0123321,1777,561,27.2005,23.0963
560,463,27.1886,-21.9083,0.00055293,0.00535497,0.00281046,0.00665038,-0.000742482,1.13889,0.00470067,0.0246948,1784,561,27.1886,21.9083
567,463,26.9652,-20.879,0.000821366,0.00698429,0.00335687,0.00845957,-0.000653923,1.15672,0.00586984,0.0410819,1791,561,26.9652,20.879
574,463,27.0665,-19.821,0,0,0,0,0,0,0,-1,1798,561,27.0666,19.821
581,463,9.4939,-3.88245,0,0,0,0,0,0,0,-1,1805,561,9.49392,3.88245
588,463,1.97424,2.16016,0,0,0,0,0,0,0,-1,1812,561,1.97422,-2.16013
595,463,9.98657,2.99854,0,0,0,0,0,0,0,-1,1819,561,9.98662,-2.99856
602,463,17.2202,4.91302,0,0,0,0,0,0,0,-1,1826,561,17.2202,-4.91305
609,463,17.96,4.03131,0,0,0,0,0,0,0,-1,1833,561,17.96,-4.03132
616,463,20.8352,3.15131,0,0,0,0,0,0,0,-1,1840,561,20.8352,-3.1513
623,463,0,0,0,0,0,0,0,0,0,-1,1847,561,0,0
630,463,0,0,0,0,0,0,0,0,0,-1,1854,561,0,0
637,463,0,0,0,0,0,0,0,0,0,-1,1861,561,0,0
644,463,0,0,0,0,0,0,0,0,0,-1,1868,561,0,0
651,463,0,0,0,0,0,0,0,0,0,-1,1875,561,0,0
658,463,0,0,0,0,0,0,0,0,0,-1,1882,561,0,0
665,463,0,0,0,0,0,0,0,0,0,-1,1889,561,0,0
672,463,0,0,0,0,0,0,0,0,0,-1,1896,561,0,0
679,463,0,0,0,0,0,0,0,0,0,-1,1903,561,0,0
686,463,0,0,0,0,0,0,0,0,0,-1,1910,561,0,0
693,463,0,0,0,0,0,0,0,0,0,-1,1917,561,0,0
700,463,0,0,0,0,0,0,0,0,0,-1,1924,561,0,0
707,463,0,0,0,0,0,0,0,0,0,-1,1931,561,0,0
714,463,0,0,0,0,0,0,0,0,0,-1,1938,561,0,0
721,463,0,0,0,0,0,0,0,0,0,-1,1945,561,0,0
728,463,0,0,0,0,0,0,0,0,0,-1,1952,561,0,0
735,463,0,0,0,0,0,0,0,0,0,-1,1959,561,0,0
742,463,0,0,0,0,0,0,0,0,0,-1,1966,561,0,0
749,463,0,0,0,0,0,0,0,0,0,-1,1973,561,0,0
756,463,0,0,0,0,0,0,0,0,0,-1,1980,561,0,0
763,463,0,0,0,0,0,0,0,0,0,-1,1987,561,0,0
770,463,0,0,0,0,0,0,0,0,0,-1,1994,561,0,0
777,463,0,0,0,0,0,0,0,0,0,-1,2001,561,0,0
784,463,0,0,0,0,0,0,0,0,0,-1,2008,561,0,0
791,463,0,0,0,0,0,0,0,0,0,-1,2015,561,0,0
798,463,0,0,0,0,0,0,0,0,0,-1,2022,561,0,0
805,463,0,0,0,0,0,0,0,0,0,-1,2029,561,0,0
812,463,0,0,0,0,0,0,0,0,0,-1,2036,561,0,0
-700,456,0,0,0,0,0,0,0,0,0,-1,524,568,0,0
-693,456,0,0,0,0,0,0,0,0,0,-1,531,568,0,0
-686,456,0,0,0,0,0,0,0,0,0,-1,538,568,0,0
-679,456,0,0,0,0,0,0,0,0,0,-1,545,568,0,0
-672,456,0,0,0,0,0,0,0,0,0,-1,552,568,0,0
-665,456,0,0,0,0,0,0,0,0,0,-1,559,568,0,0
-658,456,0,0,0,0,0,0,0,0,0,-1,566,568,0,0
-651,456,0,0,0,0,0,0,0,0,0,-1,573,568,0,0
-644,456,0,0,0,0,0,0,0,0,0,-1,580,568,0,0
-637,456,0,0,0,0,0,0,0,0,0,-1,587,568,0,0
-630,456,0,0,0,0,0,0,0,0,0,-1,594,568,0,0
-623,456,0,0,0,0,0,0,0,0,0,-1,601,568,0,0
-616,456,0,0,0,0,0,0,0,0,0,-1,608,568,0,0
-609,456,0,0,0,0,0,0,0,0,0,-1,615,568,0,0
-602,456,0,0,0,0,0,0,0,0,0,-1,622,568,0,0
-595,456,0,0,0,0,0,0,0,0,0,-1,629,568,0,0
-588,456,0,0,0,0,0,0,0,0,0,-1,636,568,0,0
-581,456,0,0,0,0,0,0,0,0,0,-1,643,568,0,0
-574,456,0,0,0,0,0,0,0,0,0,-1,650,568,0,0
-567,456,0,0,0,0,0,0,0,0,0,-1,657,568,0,0
-560,456,0,0,0,0,0,0,0,0,0,-1,664,568,0,0
-553,456,0,0,0,0,0,0,0,0,0,-1,671,568,0,0
-546,456,0,0,0,0,0,0,0,0,0,-1,678,568,0,0
-539,456,0,0,0,0,0,0,0,0,0,-1,685,568,0,0
-532,456,0,0,0,0,0,0,0,0,0,-1,692,568,0,0
-525,456,0,0,0,0,0,0,0,0,0,-1,699,568,0,0
-518,456,0,0,0,0,0,0,0,0,0,-1,706,568,0,0
-511,456,0,0,0,0,0,0,0,0,0,-1,713,568,0,0
-504,456,-10.3994,-2.34839,0,0,0,0,0,0,0,-1,720,568,-10.3994,2.3484
-497,456,-9.21375,-2.38068,0,0,0,0,0,0,0,-1,727,568,-9.21372,2.38069
-490,456,-8.09058,-2.31824,0,0,0,0,0,0,0,-1,734,568,-8.09057,2.31821
-483,456,-6.66119,-2.24329,0,0,0,0,0,0,0,-1,741,568,-6.66121,2.24331
-476,456,-5.1499,-2.21185,0,0,0,0,0,0,0,-1,748,568,-5.14992,2.21184
-469,456,-2.81238,-3.51501,0,0,0,0,0,0,0,-1,755,568,-2.81237,3.51501
-462,456,-4.2431,-5.27478,0,0,0,0,0,0,0,-1,762,568,-4.24312,5.27476
-455,456,-5.98364,-8.72119,0,0,0,0,0,0,0,-1,769,568,-5.98364,8.72122
-448,456,-10.723,-19.1761,0,0,0,0,0,0,0,-1,776,568,-10.723,19.1761
-441,456,-11.0083,-20.7065,0,0,0,0,0,0,0,-1,783,568,-11.0083,20.7065
-434,456,-10.9182,-21.9178,-0.000157341,0.00578382,-0.00274915,0.00686073,-0.00123425,-1.19744,0.00503591,0.0268757,790,568,-10.9182,21.9178
-427,456,-10.9696,-22.9738,8.16038e-05,0.00499461,-0.00258097,0.00610123,-0.00102501,-1.16575,0.00444869,0.00984204,797,568,-10.9696,22.9738
-420,456,-11.0384,-24.0107,0.000217114,0.00421294,-0.00228674,0.00525161,-0.000821555,-1.14444,0.00380461,0.00976284,804,568,-11.0384,24.0107
-413,456,-11.1127,-25.0432,0.000373786,0.00334457,-0.00195618,0.0043154,-0.000597044,-1.11012,0.0030952,0.00975185,811,568,-11.1127,25.0432
-406,456,-11.218,-26.0646,0.000495381,0.00237092,-0.00143844,0.00315028,-0.000283975,-1.07427,0.00220096,0.0103661,818,568,-11.218,26.0646
-399,456,-11.2974,-27.0822,0.000709586,0.00153509,-0.000942959,0.00215167,9.29987e-05,-0.991695,0.00140448,0.0121763,825,568,-11.2974,27.0822
-392,456,-11.347,-28.1147,0.00105124,0.000736322,-0.000491483,0.00140987,0.000377692,-0.630376,0.000842718,0.0121194,832,568,-11.347,28.1148
-385,456,-11.4106,-29.1415,0.00155866,1.71434e-05,-0.00010252,0.00156545,1.0355e-05,-0.066118,0.0010402,0.0116761,839,568,-11.4107,29.1415
-378,456,-11.4949,-30.1601,0.00215694,-0.000727292,0.000288027,0.00218542,-0.000755774,0.0985656,0.0017637,0.0127366,846,568,-11.4949,30.1601
-371,456,-11.5649,-31.1542,0.0028465,-0.00133297,0.000550481,0.00291779,-0.00140426,0.128785,0.00254582,0.013323,853,568,-11.5649,31.1542
-364,456,-11.5974,-32.1149,0.00366338,-0.00155951,0.00064786,0.00374255,-0.00163867,0.121588,0.00318501,0.0231273,860,568,-11.5973,32.1149
-357,456,-11.6238,-33.1838,0,0,0,0,0,0,0,-1,867,568,-11.6239,33.1838
-350,456,-11.5304,-34.4797,0,0,0,0,0,0,0,-1,874,568,-11.5304,34.4798
-343,456,-3.39081,-12.0217,0,0,0,0,0,0,0,-1,881,568,-3.39078,12.0217
-336,456,-3.04517,-12.4623,0,0,0,0,0,0,0,-1,888,568,-3.04519,12.4624
-329,456,-1.06183,-10.7184,0,0,0,0,0,0,0,-1,895,568,-1.06184,10.7184
-322,456,-0.662537,-7.66632,0,0,0,0,0,0,0,-1,902,568,-0.662564,7.66633
-315,456,-0.675476,-3.38397,0,0,0,0,0,0,0,-1,909,568,-0.675473,3.38399
-308,456,-1.1618,-3.15314,0,0,0,0,0,0,0,-1,916,568,-1.16178,3.15314
-301,456,-1.83551,-3.26447,0,0,0,0,0,0,0,-1,923,568,-1.8355,3.26449
-294,456,-2.93414,-3.35449,0,0,0,0,0,0,0,-1,930,568,-2.93413,3.35451
-287,456,-3.7569,-3.53101,0,0,0,0,0,0,0,-1,937,568,-3.75692,3.53101
-280,456,-13.072,4.52856,0,0,0,0,0,0,0,-1,944,568,-13.072,-4.52855
-273,456,-8.26538,-6.66748,0,0,0,0,0,0,0,-1,951,568,-8.26536,6.66745
-266,456,-5.71527,-9.36884,0,0,0,0,0,0,0,-1,958,568,-5.71529,9.36885
-259,456,0,0,0,0,0,0,0,0,0,-1,965,568,0,0
-252,456,0,0,0,0,0,0,0,0,0,-1,972,568,0,0
-245,456,0,0,0,0,0,0,0,0,0,-1,979,568,0,0
-238,456,0,0,0,0,0,0,0,0,0,-1,986,568,0,0
-231,456,0,0,0,0,0,0,0,0,0,-1,993,568,0,0
-224,456,0,0,0,0,0,0,0,0,0,-1,1000,568,0,0
-217,456,0,0,0,0,0,0,0,0,0,-1,1007,568,0,0
-210,456,0,0,0,0,0,0,0,0,0,-1,1014,568,0,0
-203,456,0,0,0,0,0,0,0,0,0,-1,1021,568,0,0
-196,456,0,0,0,0,0,0,0,0,0,-1,1028,568,0,0
-189,456,0,0,0,0,0,0,0,0,0,-1,1035,568,0,0
-182,456,0,0,0,0,0,0,0,0,0,-1,1042,568,0,0
-175,456,0,0,0,0,0,0,0,0,0,-1,1049,568,0,0
-168,456,0,0,0,0,0,0,0,0,0,-1,1056,568,0,0
-161,456,0,0,0,0,0,0,0,0,0,-1,1063,568,0,0
-154,456,0,0,0,0,0,0,0,0,0,-1,1070,568,0,0
-147,456,0,0,0,0,0,0,0,0,0,-1,1077,568,0,0
-140,456,0,0,0,0,0,0,0,0,0,-1,1084,568,0,0
-133,456,0,0,0,0,0,0,0,0,0,-1,1091,568,0,0
-126,456,0,0,0,0,0,0,0,0,0,-1,1098,568,0,0
-119,456,0,0,0,0,0,0,0,0,0,-1,1105,568,0,0
-112,456,0,0,0,0,0,0,0,0,0,-1,1112,568,0,0
-105,456,0,0,0,0,0,0,0,0,0,-1,1119,568,0,0
-98,456,0,0,0,0,0,0,0,0,0,-1,1126,568,0,0
-91,456,0,0,0,0,0,0,0,0,0,-1,1133,568,0,0
-84,456,0,0,0,0,0,0,0,0,0,-1,1140,568,0,0
-77,456,0,0,0,0,0,0,0,0,0,-1,1147,568,0,0
-70,456,0,0,0,0,0,0,0,0,0,-1,1154,568,0,0
-63,456,0,0,0,0,0,0,0,0,0,-1,1161,568,0,0
-56,456,0,0,0,0,0,0,0,0,0,-1,1168,568,0,0
-49,456,0,0,0,0,0,0,0,0,0,-1,1175,568,0,0
-42,456,0,0,0,0,0,0,0,0,0,-1,1182,568,0,0
-35,456,0,0,0,0,0,0,0,0,0,-1,1189,568,0,0
-28,456,0,0,0,0,0,0,0,0,0,-1,1196,568,0,0
-21,456,0,0,0,0,0,0,0,0,0,-1,1203,568,0,0
-14,456,0,0,0,0,0,0,0,0,0,-1,1210,568,0,0
-7,456,0,0,0,0,0,0,0,0,0,-1,1217,568,0,0
0,456,0,0,0,0,0,0,0,0,0,-1,1224,568,0,0
7,456,0,0,0,0,0,0,0,0,0,-1,1231,568,0,0
14,456,0,0,0,0,0,0,0,0,0,-1,1238,568,0,0
21,456,0,0,0,0,0,0,0,0,0,-1,1245,568,0,0
28,456,0,0,0,0,0,0,0,0,0,-1,1252,568,0,0
35,456,0,0,0,0,0,0,0,0,0,-1,1259,568,0,0
42,456,0,0,0,0,0,0,0,0,0,-1,1266,568,0,0
49,456,0,0,0,0,0,0,0,0,0,-1,1273,568,0,0
56,456,0,0,0,0,0,0,0,0,0,-1,1280,568,0,0
63,456,0,0,0,0,0,0,0,0,0,-1,1287,568,0,0
70,456,0,0,0,0,0,0,0,0,0,-1,1294,568,0,0
77,456,0,0,0,0,0,0,0,0,0,-1,1301,568,0,0
84,456,0,0,0,0,0,0,0,0,0,-1,1308,568,0,0
91,456,0,0,0,0,0,0,0,0,0,-1,1315,568,0,0
98,456,0,0,0,0,0,0,0,0,0,-1,1322,568,0,0
105,456,0,0,0,0,0,0,0,0,0,-1,1329,568,0,0
112,456,0,0,0,0,0,0,0,0,0,-1,1336,568,0,0
119,456,0,0,0,0,0,0,0,0,0,-1,1343,568,0,0
126,456,0,0,0,0,0,0,0,0,0,-1,1350,568,0,0
133,456,0,0,0,0,0,0,0,0,0,-1,1357,568,0,0
140,456,0,0,0,0,0,0,0,0,0,-1,1364,568,0,0
147,456,0,0,0,0,0,0,0,0,0,-1,1371,568,0,0
154,456,0,0,0,0,0,0,0,0,0,-1,1378,568,0,0
161,456,0,0,0,0,0,0,0,0,0,-1,1385,568,0,0
168,456,0,0,0,0,0,0,0,0,0,-1,1392,568,0,0
175,456,0,0,0,0,0,0,0,0,0,-1,1399,568,0,0
182,456,0,0,0,0,0,0,0,0,0,-1,1406,568,0,0
189,456,0,0,0,0,0,0,0,0,0,-1,1413,568,0,0
196,456,0,0,0,0,0,0,0,0,0,-1,1420,568,0,0
203,456,0,0,0,0,0,0,0,0,0,-1,1427,568,0,0
210,456,0,0,0,0,0,0,0,0,0,-1,1434,568,0,0
217,456,0,0,0,0,0,0,0,0,0,-1,1441,568,0,0
224,456,0,0,0,0,0,0,0,0,0,-1,1448,568,0,0
231,456,0,0,0,0,0,0,0,0,0,-1,1455,568,0,0
238,456,0,0,0,0,0,0,0,0,0,-1,1462,568,0,0
245,456,0,0,0,0,0,0,0,0,0,-1,1469,568,0,0
252,456,0,0,0,0,0,0,0,0,0,-1,1476,568,0,0
259,456,0,0,0,0,0,0,0,0,0,-1,1483,568,0,0
266,456,0,0,0,0,0,0,0,0,0,-1,1490,568,0,0
273,456,0,0,0,0,0,0,0,0,0,-1,1497,568,0,0
280,456,0,0,0,0,0,0,0,0,0,-1,1504,568,0,0
287,456,0,0,0,0,0,0,0,0,0,-1,1511,568,0,0
294,456,0,0,0,0,0,0,0,0,0,-1,1518,568,0,0
301,456,0,0,0,0,0,0,0,0,0,-1,1525,568,0,0
308,456,0,0,0,0,0,0,0,0,0,-1,1532,568,0,0
315,456,0,0,0,0,0,0,0,0,0,-1,1539,568,0,0
322,456,0,0,0,0,0,0,0,0,0,-1,1546,568,0,0
329,456,0,0,0,0,0,0,0,0,0,-1,1553,568,0,0
336,456,0,0,0,0,0,0,0,0,0,-1,1560,568,0,0
343,456,0,0,0,0,0,0,0,0,0,-1,1567,568,0,0
350,456,0,0,0,0,0,0,0,0,0,-1,1574,568,0,0
357,456,0,0,0,0,0,0,0,0,0,-1,1581,568,0,0
364,456,0,0,0,0,0,0,0,0,0,-1,1588,568,0,0
371,456,0,0,0,0,0,0,0,0,0,-1,1595,568,0,0
378,456,0,0,0,0,0,0,0,0,0,-1,1602,568,0,0
385,456,5.66284,0.660645,0,0,0,0,0,0,0,-1,1609,568,5.66285,-0.660615
392,456,17.5027,4.32971,0,0,0,0,0,0,0,-1,1616,568,17.5026,-4.32971
399,456,24.1917,5.99652,0,0,0,0,0,0,0,-1,1623,568,24.1916,-5.99651
406,456,24.446,4.53003,0,0,0,0,0,0,0,-1,1630,568,24.446,-4.53005
413,456,24.9418,2.90521,0,0,0,0,0,0,0,-1,1637,568,24.9418,-2.90524
420,456,25.3048,1.04712,0,0,0,0,0,0,0,-1,1644,568,25.3048,-1.04713
427,456,6.21375,2.02905,0,0,0,0,0,0,0,-1,1651,568,6.21372,-2.02904
434,456,3.0719,-4.86285,0,0,0,0,0,0,0,-1,1658,568,3.07184,4.86287
441,456,2.90344,-4.70459,0,0,0,0,0,0,0,-1,1665,568,2.90346,4.7046
448,456,3.06995,-4.93689,0,0,0,0,0,0,0,-1,1672,568,3.06991,4.93687
455,456,3.46582,-3.43701,0,0,0,0,0,0,0,-1,1679,568,3.46585,3.43698
462,456,4.68445,-4.45831,0,0,0,0,0,0,0,-1,1686,568,4.68439,4.45833
469,456,4.93201,-2.289,0,0,0,0,0,0,0,-1,1693,568,4.93197,2.28903
476,456,4.8363,-2.79364,0,0,0,0,0,0,0,-1,1700,568,4.83636,2.79363
483,456,12.8522,-13.692,0,0,0,0,0,0,0,-1,1707,568,12.8522,13.6919
490,456,28.7179,-32.5856,0,0,0,0,0,0,0,-1,1714,568,28.7179,32.5856
497,456,28.7031,-31.1796,0,0,0,0,0,0,0,-1,1721,568,28.7031,31.1796
504,456,28.6428,-30.1397,0.00214792,-1.50328e-06,-3.30813e-05,0.00214842,-2.01236e-06,-0.015386,0.00143295,0.0182374,1728,568,28.6428,30.1397
511,456,28.6432,-29.1622,0.00182832,1.23942e-05,0.000212526,0.00185286,-1.21471e-05,0.114965,0.00123931,0.0158903,1735,568,28.6432,29.1622
518,456,28.6317,-28.1705,0.00149912,0.000110292,0.00053657,0.00168227,-7.28573e-05,0.328933,0.00114657,0.0183345,1742,568,28.6317,28.1704
525,456,28.5211,-27.1483,0.00114597,0.000399485,0.000797859,0.00165357,-0.00010812,0.566618,0.00114013,0.0172765,1749,568,28.5211,27.1483
532,456,28.4784,-26.0862,0.000861501,0.000848329,0.00104277,0.00189771,-0.000187877,0.78224,0.00133219,0.0181367,1756,568,28.4784,26.0862
539,456,28.3391,-25.0256,0.000666009,0.00147274,0.00132088,0.00245046,-0.000311719,0.933589,0.00174684,0.0270254,1763,568,28.3391,25.0256
546,456,28.202,-24.0156,0.000584824,0.00229081,0.00160761,0.00325771,-0.000382077,1.02931,0.00230972,0.0307923,1770,568,28.2021,24.0156
553,456,28.1294,-22.9512,0.000578665,0.0033001,0.00194219,0.0043108,-0.000432038,1.09097,0.00302817,0.0164714,1777,568,28.1293,22.9512
560,456,28.1293,-21.973,0.000718934,0.00448703,0.00237276,0.00563277,-0.000426807,1.12094,0.00390523,0.0110783,1784,568,28.1293,21.973
567,456,28.0873,-20.9367,0.00106387,0.00596278,0.00298309,0.0073732,-0.000346555,1.12914,0.00503496,0.0237007,1791,568,28.0872,20.9367
574,456,28.0682,-19.8771,0,0,0,0,0,0,0,-1,1798,568,28.0682,19.8771
581,456,16.2228,-9.08563,0,0,0,0,0,0,0,-1,1805,568,16.2228,9.08562
588,456,5.23901,-0.0901489,0,0,0,0,0,0,0,-1,1812,568,5.23906,0.0901656
595,456,6.90063,3.14886,0,0,0,0,0,0,0,-1,1819,568,6.90066,-3.14887
602,456,16.894,4.10938,0,0,0,0,0,0,0,-1,1826,568,16.8941,-4.1094
609,456,14.9966,3.5708,0,0,0,0,0,0,0,-1,1833,568,14.9966,-3.57083
616,456,17.7407,2.6579,0,0,0,0,0,0,0,-1,1840,568,17.7408,-2.6579
623,456,20.6838,1.7121,0,0,0,0,0,0,0,-1,1847,568,20.6838,-1.71208
630,456,0,0,0,0,0,0,0,0,0,-1,1854,568,0,0
637,456,0,0,0,0,0,0,0,0,0,-1,1861,568,0,0
644,456,0,0,0,0,0,0,0,0,0,-1,1868,568,0,0
651,456,0,0,0,0,0,0,0,0,0,-1,1875,568,0,0
658,456,0,0,0,0,0,0,0,0,0,-1,1882,568,0,0
665,456,0,0,0,0,0,0,0,0,0,-1,1889,568,0,0
672,456,0,0,0,0,0,0,0,0,0,-1,1896,568,0,0
679,456,0,0,0,0,0,0,0,0,0,-1,1903,568,0,0
686,456,0,0,0,0,0,0,0,0,0,-1,1910,568,0,0
693,456,0,0,0,0,0,0,0,0,0,-1,1917,568,0,0
700,456,0,0,0,0,0,0,0,0,0,-1,1924,568,0,0
707,456,0,0,0,0,0,0,0,0,0,-1,1931,568,0,0
714,456,0,0,0,0,0,0,0,0,0,-1,1938,568,0,0
721,456,0,0,0,0,0,0,0,0,0,-1,1945,568,0,0
728,456,0,0,0,0,0,0,0,0,0,-1,1952,568,0,0
735,456,0,0,0,0,0,0,0,0,0,-1,1959,568,0,0
742,456,0,0,0,0,0,0,0,0,0,-1,1966,568,0,0
749,456,0,0,0,0,0,0,0,0,0,-1,1973,568,0,0
756,456,0,0,0,0,0,0,0,0,0,-1,1980,568,0,0
763,456,0,0,0,0,0,0,0,0,0,-1,1987,568,0,0
770,456,0,0,0,0,0,0,0,0,0,-1,1994,568,0,0
777,456,0,0,0,0,0,0,0,0,0,-1,2001,568,0,0
784,456,0,0,0,0,0,0,0,0,0,-1,2008,568,0,0
791,456,0,0,0,0,0,0,0,0,0,-1,2015,568,0,0
798,456,0,0,0,0,0,0,0,0,0,-1,2022,568,0,0
805,456,0,0,0,0,0,0,0,0,0,-1,2029,568,0,0
812,456,0,0,0,0,0,0,0,0,0,-1,2036,568,0,0
-700,449,0,0,0,0,0,0,0,0,0,-1,524,575,0,0
-693,449,0,0,0,0,0,0,0,0,0,-1,531,575,0,0
-686,449,0,0,0,0,0,0,0,0,0,-1,538,575,0,0
-679,449,0,0,0,0,0,0,0,0,0,-1,545,575,0,0
-672,449,0,0,0,0,0,0,0,0,0,-1,552,575,0,0
-665,449,0,0,0,0,0,0,0,0,0,-1,559,575,0,0
-658,449,0,0,0,0,0,0,0,0,0,-1,566,575,0,0
-651,449,0,0,0,0,0,0,0,0,0,-1,573,575,0,0
-644,449,0,0,0,0,0,0,0,0,0,-1,580,575,0,0
-637,449,0,0,0,0,0,0,0,0,0,-1,587,575,0,0
-630,449,0,0,0,0,0,0,0,0,0,-1,594,575,0,0
-623,449,0,0,0,0,0,0,0,0,0,-1,601,575,0,0
-616,449,0,0,0,0,0,0,0,0,0,-1,608,575,0,0
-609,449,0,0,0,0,0,0,0,0,0,-1,615,575,0,0
-602,449,0,0,0,0,0,0,0,0,0,-1,622,575,0,0
-595,449,0,0,0,0,0,0,0,0,0,-1,629,575,0,0
-588,449,0,0,0,0,0,0,0,0,0,-1,636,575,0,0
-581,449,0,0,0,0,0,0,0,0,0,-1,643,575,0,0
-574,449,0,0,0,0,0,0,0,0,0,-1,650,575,0,0
-567,449,0,0,0,0,0,0,0,0,0,-1,657,575,0,0
-560,449,0,0,0,0,0,0,0,0,0,-1,664,575,0,0
-553,449,0,0,0,0,0,0,0,0,0,-1,671,575,0,0
-546,449,0,0,0,0,0,0,0,0,0,-1,678,575,0,0
-539,449,0,0,0,0,0,0,0,0,0,-1,685,575,0,0
-532,449,0,0,0,0,0,0,0,0,0,-1,692,575,0,0
-525,449,0,0,0,0,0,0,0,0,0,-1,699,575,0,0
-518,449,0,0,0,0,0,0,0,0,0,-1,706,575,0,0
-511,449,-0.941345,-4.4519,0,0,0,0,0,0,0,-1,713,575,-0.941356,4.45191
-504,449,-14.1078,0.318237,0,0,0,0,0,0,0,-1,720,575,-14.1078,-0.318231
-497,449,-8.61292,-3.09009,0,0,0,0,0,0,0,-1,727,575,-8.61291,3.09011
-490,449,-7.50995,-2.96252,0,0,0,0,0,0,0,-1,734,575,-7.50995,2.96251
-483,449,-5.77789,-2.50061,0,0,0,0,0,0,0,-1,741,575,-5.77792,2.50059
-476,449,-4.1723,-2.07739,0,0,0,0,0,0,0,-1,748,575,-4.17228,2.0774
-469,449,-5.0976,-5.78448,0,0,0,0,0,0,0,-1,755,575,-5.09758,5.78451
-462,449,-6.54181,-9.54535,0,0,0,0,0,0,0,-1,762,575,-6.54178,9.54536
-455,449,-10.5233,-17.2827,0,0,0,0,0,0,0,-1,769,575,-10.5232,17.2827
-448,449,-11.7505,-19.6014,0,0,0,0,0,0,0,-1,776,575,-11.7505,19.6014
-441,449,-11.811,-20.9093,-0.000612552,0.00470109,-0.00175667,0.00522933,-0.00114079,-1.27869,0.00392218,0.0293577,783,575,-11.8109,20.9093
-434,449,-11.9592,-21.8671,-0.000168339,0.00404014,-0.00178215,0.00469341,-0.000821612,-1.21944,0.00343572,0.0146098,790,575,-11.9592,21.8671
-427,449,-12.0062,-22.8843,0.000141198,0.00343614,-0.00168927,0.00414829,-0.000570944,-1.17184,0.00297416,0.0132855,797,575,-12.0062,22.8843
-420,449,-12.0657,-23.9235,0.000359552,0.00283594,-0.00147867,0.00352637,-0.000330877,-1.13396,0.00246861,0.0136771,804,575,-12.0658,23.9235
-413,449,-12.1324,-24.9543,0.000571274,0.0021439,-0.0012264,0.00281441,-9.92441e-05,-1.07046,0.00191022,0.0119765,811,575,-12.1324,24.9544
-406,449,-12.2399,-25.9917,0.000735438,0.00135623,-0.000808448,0.00191182,0.000179847,-0.968691,0.00121903,0.0118915,818,575,-12.2398,25.9917
-399,449,-12.329,-27.027,0.00100109,0.000712631,-0.000428316,0.00130881,0.000404912,-0.622994,0.000773729,0.0110062,825,575,-12.329,27.0269
-392,449,-12.3687,-28.0482,0.00137171,8.60561e-05,-7.10237e-05,0.00137562,8.21444e-05,-0.0550202,0.000890961,0.0111363,832,575,-12.3687,28.0482
-385,449,-12.4291,-29.0516,0.00190351,-0.000496341,0.000241023,0.00192748,-0.000520308,0.0991133,0.00148904,0.0110719,839,575,-12.4291,29.0516
-378,449,-12.5129,-30.0488,0.00255642,-0.00107166,0.000545441,0.00263665,-0.00115189,0.146039,0.0022426,0.010988,846,575,-12.5129,30.0488
-371,449,-12.5576,-31.0684,0.00333943,-0.00149607,0.000701081,0.00343903,-0.00159567,0.141116,0.00297102,0.0179097,853,575,-12.5576,31.0684
-364,449,-12.5146,-32.1198,0,0,0,0,0,0,0,-1,860,575,-12.5146,32.1198
-357,449,-5.88049,-15.8704,0,0,0,0,0,0,0,-1,867,575,-5.88051,15.8704
-350,449,-2.8764,-9.90204,0,0,0,0,0,0,0,-1,874,575,-2.87638,9.90203
-343,449,-2.98492,-9.2254,0,0,0,0,0,0,0,-1,881,575,-2.98491,9.22541
-336,449,-1.29523,-9.54626,0,0,0,0,0,0,0,-1,888,575,-1.29525,9.54626
-329,449,-0.733398,-7.78937,0,0,0,0,0,0,0,-1,895,575,-0.733398,7.78937
-322,449,-0.628845,-3.16669,0,0,0,0,0,0,0,-1,902,575,-0.628861,3.16667
-315,449,-0.540344,-3.21918,0,0,0,0,0,0,0,-1,909,575,-0.540336,3.21917
-308,449,-1.04413,-2.99341,0,0,0,0,0,0,0,-1,916,575,-1.04415,2.99338
-301,449,-1.58691,-2.80725,0,0,0,0,0,0,0,-1,923,575,-1.58692,2.80728
-294,449,-3.71118,-2.76086,0,0,0,0,0,0,0,-1,930,575,-3.71119,2.76087
-287,449,-4.4082,-2.69525,0,0,0,0,0,0,0,-1,937,575,-4.40822,2.69526
-280,449,0.723999,-14.2697,0,0,0,0,0,0,0,-1,944,575,0.723977,14.2696
-273,449,0,0,0,0,0,0,0,0,0,-1,951,575,0,0
-266,449,0,0,0,0,0,0,0,0,0,-1,958,575,0,0
-259,449,0,0,0,0,0,0,0,0,0,-1,965,575,0,0
-252,449,0,0,0,0,0,0,0,0,0,-1,972,575,0,0
-245,449,0,0,0,0,0,0,0,0,0,-1,979,575,0,0
-238,449,0,0,0,0,0,0,0,0,0,-1,986,575,0,0
-231,449,0,0,0,0,0,0,0,0,0,-1,993,575,0,0
-224,449,0,0,0,0,0,0,0,0,0,-1,1000,575,0,0
-217,449,0,0,0,0,0,0,0,0,0,-1,1007,575,0,0
-210,449,0,0,0,0,0,0,0,0,0,-1,1014,575,0,0
-203,449,0,0,0,0,0,0,0,0,0,-1,1021,575,0,0
-196,449,0,0,0,0,0,0,0,0,0,-1,1028,575,0,0
-189,449,0,0,0,0,0,0,0,0,0,-1,1035,575,0,0
-182,449,0,0,0,0,0,0,0,0,0,-1,1042,575,0,0
-175,449,0,0,0,0,0,0,0,0,0,-1,1049,575,0,0
-168,449,0,0,0,0,0,0,0,0,0,-1,1056,575,0,0
-161,449,0,0,0,0,0,0,0,0,0,-1,1063,575,0,0
-154,449,0,0,0,0,0,0,0,0,0,-1,1070,575,0,0
-147,449,0,0,0,0,0,0,0,0,0,-1,1077,575,0,0
-140,449,0,0,0,0,0,0,0,0,0,-1,1084,575,0,0
-133,449,0,0,0,0,0,0,0,0,0,-1,1091,575,0,0
-126,449,0,0,0,0,0,0,0,0,0,-1,1098,575,0,0
-119,449,0,0,0,0,0,0,0,0,0,-1,1105,575,0,0
-112,449,0,0,0,0,0,0,0,0,0,-1,1112,575,0,0
-105,449,0,0,0,0,0,0,0,0,0,-1,1119,575,0,0
-98,449,0,0,0,0,0,0,0,0,0,-1,1126,575,0,0
-91,449,0,0,0,0,0,0,0,0,0,-1,1133,575,0,0
-84,449,0,0,0,0,0,0,0,0,0,-1,1140,575,0,0
-77,449,0,0,0,0,0,0,0,0,0,-1,1147,575,0,0
-70,449,0,0,0,0,0,0,0,0,0,-1,1154,575,0,0
-63,449,0,0,0,0,0,0,0,0,0,-1,1161,575,0,0
-56,449,0,0,0,0,0,0,0,0,0,-1,1168,575,0,0
-49,449,0,0,0,0,0,0,0,0,0,-1,1175,575,0,0
-42,449,0,0,0,0,0,0,0,0,0,-1,1182,575,0,0
-35,449,0,0,0,0,0,0,0,0,0,-1,1189,575,0,0
-28,449,0,0,0,0,0,0,0,0,0,-1,1196,575,0,0
-21,449,0,0,0,0,0,0,0,0,0,-1,1203,575,0,0
-14,449,0,0,0,0,0,0,0,0,0,-1,1210,575,0,0
-7,449,0,0,0,0,0,0,0,0,0,-1,1217,575,0,0
0,449,0,0,0,0,0,0,0,0,0,-1,1224,575,0,0
7,449,0,0,0,0,0,0,0,0,0,-1,1231,575,0,0
14,449,0,0,0,0,0,0,0,0,0,-1,1238,575,0,0
21,449,0,0,0,0,0,0,0,0,0,-1,1245,575,0,0
28,449,0,0,0,0,0,0,0,0,0,-1,1252,575,0,0
35,449,0,0,0,0,0,0,0,0,0,-1,1259,575,0,0
42,449,0,0,0,0,0,0,0,0,0,-1,1266,575,0,0
49,449,0,0,0,0,0,0,0,0,0,-1,1273,575,0,0
56,449,0,0,0,0,0,0,0,0,0,-1,1280,575,0,0
63,449,0,0,0,0,0,0,0,0,0,-1,1287,575,0,0
70,449,0,0,0,0,0,0,0,0,0,-1,1294,575,0,0
77,449,0,0,0,0,0,0,0,0,0,-1,1301,575,0,0
84,449,0,0,0,0,0,0,0,0,0,-1,1308,575,0,0
91,449,0,0,0,0,0,0,0,0,0,-1,1315,575,0,0
98,449,0,0,0,0,0,0,0,0,0,-1,1322,575,0,0
105,449,0,0,0,0,0,0,0,0,0,-1,1329,575,0,0
112,449,0,0,0,0,0,0,0,0,0,-1,1336,575,0,0
119,449,0,0,0,0,0,0,0,0,0,-1,1343,575,0,0
126,449,0,0,0,0,0,0,0,0,0,-1,1350,575,0,0
133,449,0,0,0,0,0,0,0,0,0,-1,1357,575,0,0
140,449,0,0,0,0,0,0,0,0,0,-1,1364,575,0,0
147,449,0,0,0,0,0,0,0,0,0,-1,1371,575,0,0
154,449,0,0,0,0,0,0,0,0,0,-1,1378,575,0,0
161,449,0,0,0,0,0,0,0,0,0,-1,1385,575,0,0
168,449,0,0,0,0,0,0,0,0,0,-1,1392,575,0,0
175,449,0,0,0,0,0,0,0,0,0,-1,1399,575,0,0
182,449,0,0,0,0,0,0,0,0,0,-1,1406,575,0,0
189,449,0,0,0,0,0,0,0,0,0,-1,1413,575,0,0
196,449,0,0,0,0,0,0,0,0,0,-1,1420,575,0,0
203,449,0,0,0,0,0,0,0,0,0,-1,1427,575,0,0
210,449,0,0,0,0,0,0,0,0,0,-1,1434,575,0,0
217,449,0,0,0,0,0,0,0,0,0,-1,1441,575,0,0
224,449,0,0,0,0,0,0,0,0,0,-1,1448,575,0,0
231,449,0,0,0,0,0,0,0,0,0,-1,1455,575,0,0
238,449,0,0,0,0,0,0,0,0,0,-1,1462,575,0,0
245,449,0,0,0,0,0,0,0,0,0,-1,1469,575,0,0
252,449,0,0,0,0,0,0,0,0,0,-1,1476,575,0,0
259,449,0,0,0,0,0,0,0,0,0,-1,1483,575,0,0
266,449,0,0,0,0,0,0,0,0,0,-1,1490,575,0,0
273,449,0,0,0,0,0,0,0,0,0,-1,1497,575,0,0
280,449,0,0,0,0,0,0,0,0,0,-1,1504,575,0,0
287,449,0,0,0,0,0,0,0,0,0,-1,1511,575,0,0
294,449,0,0,0,0,0,0,0,0,0,-1,1518,575,0,0
301,449,0,0,0,0,0,0,0,0,0,-1,1525,575,0,0
308,449,0,0,0,0,0,0,0,0,0,-1,1532,575,0,0
315,449,0,0,0,0,0,0,0,0,0,-1,1539,575,0,0
322,449,0,0,0,0,0,0,0,0,0,-1,1546,575,0,0
329,449,0,0,0,0,0,0,0,0,0,-1,1553,575,0,0
336,449,0,0,0,0,0,0,0,0,0,-1,1560,575,0,0
343,449,0,0,0,0,0,0,0,0,0,-1,1567,575,0,0
350,449,0,0,0,0,0,0,0,0,0,-1,1574,575,0,0
357,449,0,0,0,0,0,0,0,0,0,-1,1581,575,0,0
364,449,0,0,0,0,0,0,0,0,0,-1,1588,575,0,0
371,449,0,0,0,0,0,0,0,0,0,-1,1595,575,0,0
378,449,0,0,0,0,0,0,0,0,0,-1,1602,575,0,0
385,449,0,0,0,0,0,0,0,0,0,-1,1609,575,0,0
392,449,7.95471,3.66217,0,0,0,0,0,0,0,-1,1616,575,7.95471,-3.66218
399,449,19.9791,5.565,0,0,0,0,0,0,0,-1,1623,575,19.9791,-5.56499
406,449,24.9847,4.55969,0,0,0,0,0,0,0,-1,1630,575,24.9848,-4.55968
413,449,30.4159,3.15027,0,0,0,0,0,0,0,-1,1637,575,30.4159,-3.15028
420,449,23.9675,1.29718,0,0,0,0,0,0,0,-1,1644,575,23.9675,-1.29721
427,449,24.4276,-0.596558,0,0,0,0,0,0,0,-1,1651,575,24.4277,0.596569
434,449,25.61,-2.96594,0,0,0,0,0,0,0,-1,1658,575,25.61,2.96595
441,449,3.89856,-6.06458,0,0,0,0,0,0,0,-1,1665,575,3.89855,6.06459
448,449,4.03198,-5.18207,0,0,0,0,0,0,0,-1,1672,575,4.03197,5.18207
455,449,4.21948,-4.09467,0,0,0,0,0,0,0,-1,1679,575,4.21952,4.09465
462,449,4.23181,-2.96924,0,0,0,0,0,0,0,-1,1686,575,4.23185,2.96926
469,449,4.51672,-2.95135,0,0,0,0,0,0,0,-1,1693,575,4.51672,2.95135
476,449,4.71838,-1.86688,0,0,0,0,0,0,0,-1,1700,575,4.71842,1.86689
483,449,4.87878,-1.73126,0,0,0,0,0,0,0,-1,1707,575,4.87875,1.73128
490,449,5.73279,-2.74573,0,0,0,0,0,0,0,-1,1714,575,5.73282,2.74575
497,449,17.2095,-16.4381,0,0,0,0,0,0,0,-1,1721,575,17.2094,16.4381
504,449,29.6051,-30.0903,0,0,0,0,0,0,0,-1,1728,575,29.6051,30.0903
511,449,29.6392,-29.1124,0.0023162,-0.000162043,0.000120332,0.00232203,-0.000167872,0.0484035,0.0016069,0.0183989,1735,575,29.6391,29.1124
518,449,29.6078,-28.0814,0.00198397,-0.000181418,0.000413648,0.00206029,-0.000257746,0.182471,0.00146701,0.0145109,1742,575,29.6078,28.0814
525,449,29.5092,-27.0538,0.00157305,6.61818e-05,0.00061418,0.00179166,-0.000152434,0.341963,0.00124836,0.0142741,1749,575,29.5092,27.0538
532,449,29.4316,-26.0345,0.0012295,0.000452811,0.000796933,0.00172768,-4.5361e-05,0.558679,0.0011672,0.0131017,1756,575,29.4317,26.0345
539,449,29.3181,-24.9984,0.00100435,0.00102447,0.00103371,0.00204817,-1.93492e-05,0.790264,0.00137194,0.0202253,1763,575,29.3181,24.9984
546,449,29.2507,-23.8879,0.000889519,0.0017438,0.00126698,0.0026537,-2.03815e-05,0.947981,0.00177596,0.0354684,1770,575,29.2507,23.8879
553,449,29.151,-22.8863,0.000809814,0.00265041,0.00153986,0.00352402,-6.37951e-05,1.05474,0.0023709,0.0229911,1777,575,29.151,22.8863
560,449,29.1455,-21.9056,0.000823891,0.00369384,0.00191429,0.00465128,-0.00013355,1.10702,0.00314632,0.0143735,1784,575,29.1456,21.9055
567,449,29.0785,-20.8891,0.00101991,0.00500321,0.00245984,0.0061766,-0.00015348,1.1257,0.00416983,0.0102689,1791,575,29.0785,20.8891
574,449,29.0238,-19.7953,0.0011765,0.00636653,0.00309133,0.00780766,-0.00026463,1.13457,0.00529552,0.0312207,1798,575,29.0238,19.7953
581,449,29.0204,-18.4636,0,0,0,0,0,0,0,-1,1805,575,29.0204,18.4636
588,449,12.3274,-4.5672,0,0,0,0,0,0,0,-1,1812,575,12.3274,4.5672
595,449,15.9352,-5.65479,0,0,0,0,0,0,0,-1,1819,575,15.9352,5.65478
602,449,9.46167,4.17444,0,0,0,0,0,0,0,-1,1826,575,9.46164,-4.17442
609,449,12.2028,3.18652,0,0,0,0,0,0,0,-1,1833,575,12.2027,-3.18655
616,449,14.9438,2.19867,0,0,0,0,0,0,0,-1,1840,575,14.9438,-2.19867
623,449,9.83789,-0.0820313,0,0,0,0,0,0,0,-1,1847,575,9.83794,0.0820443
630,449,8.90686,4.99329,0,0,0,0,0,0,0,-1,1854,575,8.90685,-4.99327
637,449,0,0,0,0,0,0,0,0,0,-1,1861,575,0,0
644,449,0,0,0,0,0,0,0,0,0,-1,1868,575,0,0
651,449,0,0,0,0,0,0,0,0,0,-1,1875,575,0,0
658,449,0,0,0,0,0,0,0,0,0,-1,1882,575,0,0
665,449,0,0,0,0,0,0,0,0,0,-1,1889,575,0,0
672,449,0,0,0,0,0,0,0,0,0,-1,1896,575,0,0
679,449,0,0,0,0,0,0,0,0,0,-1,1903,575,0,0
686,449,0,0,0,0,0,0,0,0,0,-1,1910,575,0,0
693,449,0,0,0,0,0,0,0,0,0,-1,1917,575,0,0
700,449,0,0,0,0,0,0,0,0,0,-1,1924,575,0,0
707,449,0,0,0,0,0,0,0,0,0,-1,1931,575,0,0
714,449,0,0,0,0,0,0,0,0,0,-1,1938,575,0,0
721,449,0,0,0,0,0,0,0,0,0,-1,1945,575,0,0
728,449,0,0,0,0,0,0,0,0,0,-1,1952,575,0,0
735,449,0,0,0,0,0,0,0,0,0,-1,1959,575,0,0
742,449,0,0,0,0,0,0,0,0,0,-1,1966,575,0,0
749,449,0,0,0,0,0,0,0,0,0,-1,1973,575,0,0
756,449,0,0,0,0,0,0,0,0,0,-1,1980,575,0,0
763,449,0,0,0,0,0,0,0,0,0,-1,1987,575,0,0
770,449,0,0,0,0,0,0,0,0,0,-1,1994,575,0,0
777,449,0,0,0,0,0,0,0,0,0,-1,2001,575,0,0
784,449,0,0,0,0,0,0,0,0,0,-1,2008,575,0,0
791,449,0,0,0,0,0,0,0,0,0,-1,2015,575,0,0
798,449,0,0,0,0,0,0,0,0,0,-1,2022,575,0,0
805,449,0,0,0,0,0,0,0,0,0,-1,2029,575,0,0
812,449,0,0,0,0,0,0,0,0,0,-1,2036,575,0,0
-700,442,0,0,0,0,0,0,0,0,0,-1,524,582,0,0
-693,442,0,0,0,0,0,0,0,0,0,-1,531,582,0,0
-686,442,0,0,0,0,0,0,0,0,0,-1,538,582,0,0
-679,442,0,0,0,0,0,0,0,0,0,-1,545,582,0,0
-672,442,0,0,0,0,0,0,0,0,0,-1,552,582,0,0
-665,442,0,0,0,0,0,0,0,0,0,-1,559,582,0,0
-658,442,0,0,0,0,0,0,0,0,0,-1,566,582,0,0
-651,442,0,0,0,0,0,0,0,0,0,-1,573,582,0,0
-644,442,0,0,0,0,0,0,0,0,0,-1,580,582,0,0
-637,442,0,0,0,0,0,0,0,0,0,-1,587,582,0,0
-630,442,0,0,0,0,0,0,0,0,0,-1,594,582,0,0
-623,442,0,0,0,0,0,0,0,0,0,-1,601,582,0,0
-616,442,0,0,0,0,0,0,0,0,0,-1,608,582,0,0
-609,442,0,0,0,0,0,0,0,0,0,-1,615,582,0,0
-602,442,0,0,0,0,0,0,0,0,0,-1,622,582,0,0
-595,442,0,0,0,0,0,0,0,0,0,-1,629,582,0,0
-588,442,0,0,0,0,0,0,0,0,0,-1,636,582,0,0
-581,442,0,0,0,0,0,0,0,0,0,-1,643,582,0,0
-574,442,0,0,0,0,0,0,0,0,0,-1,650,582,0,0
-567,442,0,0,0,0,0,0,0,0,0,-1,657,582,0,0
-560,442,0,0,0,0,0,0,0,0,0,-1,664,582,0,0
-553,442,0,0,0,0,0,0,0,0,0,-1,671,582,0,0
-546,442,0,0,0,0,0,0,0,0,0,-1,678,582,0,0
-539,442,0,0,0,0,0,0,0,0,0,-1,685,582,0,0
-532,442,0,0,0,0,0,0,0,0,0,-1,692,582,0,0
-525,442,0,0,0,0,0,0,0,0,0,-1,699,582,0,0
-518,442,-0.493774,-5.72943,0,0,0,0,0,0,0,-1,706,582,-0.493791,5.72946
-511,442,-1.33008,-6.18512,0,0,0,0,0,0,0,-1,713,582,-1.33006,6.18511
-504,442,-3.20807,-6.34082,0,0,0,0,0,0,0,-1,720,582,-3.2081,6.34083
-497,442,-13.6886,-0.250122,0,0,0,0,0,0,0,-1,727,582,-13.6886,0.250143
-490,442,-9.09039,-3.64862,0,0,0,0,0,0,0,-1,734,582,-9.09037,3.64861
-483,442,-7.36499,-1.01892,0,0,0,0,0,0,0,-1,741,582,-7.365,1.01895
-476,442,-4.84784,-4.44141,0,0,0,0,0,0,0,-1,748,582,-4.84787,4.44138
-469,442,-12.5662,-15.0365,0,0,0,0,0,0,0,-1,755,582,-12.5662,15.0365
-462,442,-11.9753,-16.9217,0,0,0,0,0,0,0,-1,762,582,-11.9753,16.9217
-455,442,-12.7766,-18.5364,0,0,0,0,0,0,0,-1,769,582,-12.7766,18.5364
-448,442,-12.7827,-19.6917,-0.00110942,0.00377729,-0.000938903,0.00395148,-0.00128361,-1.38736,0.00315059,0.0248244,776,582,-12.7827,19.6916
-441,442,-12.8939,-20.7552,-0.00047789,0.00316853,-0.00107739,0.00346307,-0.000772427,-1.30394,0.00260465,0.0139641,783,582,-12.8939,20.7552
-434,442,-12.976,-21.8011,-3.42531e-05,0.00262358,-0.00109478,0.00301645,-0.00042713,-1.22625,0.00216742,0.0130705,790,582,-12.976,21.8011
-427,442,-13.0494,-22.8196,0.000311873,0.00216854,-0.00104762,0.00263995,-0.000159545,-1.14795,0.00181549,0.0131615,797,582,-13.0494,22.8196
-420,442,-13.1096,-23.8613,0.000580761,0.00172857,-0.000901393,0.00222325,8.60794e-05,-1.06888,0.00145432,0.014373,804,582,-13.1096,23.8613
-413,442,-13.179,-24.9034,0.00081634,0.00121227,-0.00070732,0.00174881,0.000279806,-0.921849,0.0010847,0.0126168,811,582,-13.179,24.9034
-406,442,-13.2634,-25.9481,0.000997995,0.000642235,-0.000386742,0.0012458,0.000394427,-0.569851,0.000735216,0.011484,818,582,-13.2633,25.9481
-399,442,-13.3463,-26.9705,0.00129497,0.000220556,-0.000128932,0.00131022,0.0002053,-0.117775,0.000813728,0.00999009,825,582,-13.3463,26.9705
-392,442,-13.4041,-27.9613,0.00167735,-0.000177895,0.000119076,0.00168496,-0.000185506,0.0638347,0.00118997,0.0110572,832,582,-13.404,27.9613
-385,442,-13.473,-28.9632,0.00220903,-0.000567296,0.000330602,0.00224786,-0.000606121,0.116901,0.00173624,0.0130311,839,582,-13.473,28.9632
-378,442,-13.5144,-30.0021,0.00289821,-0.000896631,0.000515265,0.00296693,-0.000965349,0.132583,0.00236631,0.0206177,846,582,-13.5144,30.0021
-371,442,-13.5233,-31.1014,0,0,0,0,0,0,0,-1,853,582,-13.5233,31.1014
-364,442,-6.89764,-17.5333,0,0,0,0,0,0,0,-1,860,582,-6.89765,17.5333
-357,442,-4.9115,-11.2649,0,0,0,0,0,0,0,-1,867,582,-4.91147,11.2649
-350,442,-1.75372,-6.27618,0,0,0,0,0,0,0,-1,874,582,-1.75371,6.27618
-343,442,-1.4599,-4.63605,0,0,0,0,0,0,0,-1,881,582,-1.4599,4.63607
-336,442,-1.4054,-2.64313,0,0,0,0,0,0,0,-1,888,582,-1.40539,2.64315
-329,442,-0.952576,-2.76923,0,0,0,0,0,0,0,-1,895,582,-0.952571,2.7692
-322,442,-0.972534,-2.63208,0,0,0,0,0,0,0,-1,902,582,-0.972512,2.6321
-315,442,-0.445557,-2.89764,0,0,0,0,0,0,0,-1,909,582,-0.445582,2.89765
-308,442,-0.654175,-3.07831,0,0,0,0,0,0,0,-1,916,582,-0.654145,3.07832
-301,442,-1.37427,-2.41455,0,0,0,0,0,0,0,-1,923,582,-1.37425,2.41453
-294,442,-2.99963,-2.07855,0,0,0,0,0,0,0,-1,930,582,-2.99964,2.07857
-287,442,3.91034,-10.1913,0,0,0,0,0,0,0,-1,937,582,3.91034,10.1913
-280,442,0,0,0,0,0,0,0,0,0,-1,944,582,0,0
-273,442,0,0,0,0,0,0,0,0,0,-1,951,582,0,0
-266,442,0,0,0,0,0,0,0,0,0,-1,958,582,0,0
-259,442,0,0,0,0,0,0,0,0,0,-1,965,582,0,0
-252,442,0,0,0,0,0,0,0,0,0,-1,972,582,0,0
-245,442,0,0,0,0,0,0,0,0,0,-1,979,582,0,0
-238,442,0,0,0,0,0,0,0,0,0,-1,986,582,0,0
-231,442,0,0,0,0,0,0,0,0,0,-1,993,582,0,0
-224,442,0,0,0,0,0,0,0,0,0,-1,1000,582,0,0
-217,442,0,0,0,0,0,0,0,0,0,-1,1007,582,0,0
-210,442,0,0,0,0,0,0,0,0,0,-1,1014,582,0,0
-203,442,0,0,0,0,0,0,0,0,0,-1,1021,582,0,0
-196,442,0,0,0,0,0,0,0,0,0,-1,1028,582,0,0
-189,442,0,0,0,0,0,0,0,0,0,-1,1035,582,0,0
-182,442,0,0,0,0,0,0,0,0,0,-1,1042,582,0,0
-175,442,0,0,0,0,0,0,0,0,0,-1,1049,582,0,0
-168,442,0,0,0,0,0,0,0,0,0,-1,1056,582,0,0
-161,442,0,0,0,0,0,0,0,0,0,-1,1063,582,0,0
-154,442,0,0,0,0,0,0,0,0,0,-1,1070,582,0,0
-147,442,0,0,0,0,0,0,0,0,0,-1,1077,582,0,0
-140,442,0,0,0,0,0,0,0,0,0,-1,1084,582,0,0
-133,442,0,0,0,0,0,0,0,0,0,-1,1091,582,0,0
-126,442,0,0,0,0,0,0,0,0,0,-1,1098,582,0,0
-119,442,0,0,0,0,0,0,0,0,0,-1,1105,582,0,0
-112,442,0,0,0,0,0,0,0,0,0,-1,1112,582,0,0
-105,442,0,0,0,0,0,0,0,0,0,-1,1119,582,0,0
-98,442,0,0,0,0,0,0,0,0,0,-1,1126,582,0,0
-91,442,0,0,0,0,0,0,0,0,0,-1,1133,582,0,0
-84,442,0,0,0,0,0,0,0,0,0,-1,1140,582,0,0
-77,442,0,0,0,0,0,0,0,0,0,-1,1147,582,0,0
-70,442,0,0,0,0,0,0,0,0,0,-1,1154,582,0,0
-63,442,0,0,0,0,0,0,0,0,0,-1,1161,582,0,0
-56,442,0,0,0,0,0,0,0,0,0,-1,1168,582,0,0
-49,442,0,0,0,0,0,0,0,0,0,-1,1175,582,0,0
-42,442,0,0,0,0,0,0,0,0,0,-1,1182,582,0,0
-35,442,0,0,0,0,0,0,0,0,0,-1,1189,582,0,0
-28,442,0,0,0,0,0,0,0,0,0,-1,1196,582,0,0
-21,442,0,0,0,0,0,0,0,0,0,-1,1203,582,0,0
-14,442,0,0,0,0,0,0,0,0,0,-1,1210,582,0,0
-7,442,0,0,0,0,0,0,0,0,0,-1,1217,582,0,0
0,442,0,0,0,0,0,0,0,0,0,-1,1224,582,0,0
7,442,0,0,0,0,0,0,0,0,0,-1,1231,582,0,0
14,442,0,0,0,0,0,0,0,0,0,-1,1238,582,0,0
21,442,0,0,0,0,0,0,0,0,0,-1,1245,582,0,0
28,442,0,0,0,0,0,0,0,0,0,-1,1252,582,0,0
35,442,0,0,0,0,0,0,0,0,0,-1,1259,582,0,0
42,442,0,0,0,0,0,0,0,0,0,-1,1266,582,0,0
49,442,0,0,0,0,0,0,0,0,0,-1,1273,582,0,0
56,442,0,0,0,0,0,0,0,0,0,-1,1280,582,0,0
63,442,0,0,0,0,0,0,0,0,0,-1,1287,582,0,0
70,442,0,0,0,0,0,0,0,0,0,-1,1294,582,0,0
77,442,0,0,0,0,0,0,0,0,0,-1,1301,582,0,0
84,442,0,0,0,0,0,0,0,0,0,-1,1308,582,0,0
91,442,0,0,0,0,0,0,0,0,0,-1,1315,582,0,0
98,442,0,0,0,0,0,0,0,0,0,-1,1322,582,0,0
105,442,0,0,0,0,0,0,0,0,0,-1,1329,582,0,0
112,442,0,0,0,0,0,0,0,0,0,-1,1336,582,0,0
119,442,0,0,0,0,0,0,0,0,0,-1,1343,582,0,0
126,442,0,0,0,0,0,0,0,0,0,-1,1350,582,0,0
133,442,0,0,0,0,0,0,0,0,0,-1,1357,582,0,0
140,442,0,0,0,0,0,0,0,0,0,-1,1364,582,0,0
147,442,0,0,0,0,0,0,0,0,0,-1,1371,582,0,0
154,442,0,0,0,0,0,0,0,0,0,-1,1378,582,0,0
161,442,0,0,0,0,0,0,0,0,0,-1,1385,582,0,0
168,442,0,0,0,0,0,0,0,0,0,-1,1392,582,0,0
175,442,0,0,0,0,0,0,0,0,0,-1,1399,582,0,0
182,442,0,0,0,0,0,0,0,0,0,-1,1406,582,0,0
189,442,0,0,0,0,0,0,0,0,0,-1,1413,582,0,0
196,442,0,0,0,0,0,0,0,0,0,-1,1420,582,0,0
203,442,0,0,0,0,0,0,0,0,0,-1,1427,582,0,0
210,442,0,0,0,0,0,0,0,0,0,-1,1434,582,0,0
217,442,0,0,0,0,0,0,0,0,0,-1,1441,582,0,0
224,442,0,0,0,0,0,0,0,0,0,-1,1448,582,0,0
231,442,0,0,0,0,0,0,0,0,0,-1,1455,582,0,0
238,442,0,0,0,0,0,0,0,0,0,-1,1462,582,0,0
245,442,0,0,0,0,0,0,0,0,0,-1,1469,582,0,0
252,442,0,0,0,0,0,0,0,0,0,-1,1476,582,0,0
259,442,0,0,0,0,0,0,0,0,0,-1,1483,582,0,0
266,442,0,0,0,0,0,0,0,0,0,-1,1490,582,0,0
273,442,0,0,0,0,0,0,0,0,0,-1,1497,582,0,0
280,442,0,0,0,0,0,0,0,0,0,-1,1504,582,0,0
287,442,0,0,0,0,0,0,0,0,0,-1,1511,582,0,0
294,442,0,0,0,0,0,0,0,0,0,-1,1518,582,0,0
301,442,0,0,0,0,0,0,0,0,0,-1,1525,582,0,0
308,442,0,0,0,0,0,0,0,0,0,-1,1532,582,0,0
315,442,0,0,0,0,0,0,0,0,0,-1,1539,582,0,0
322,442,0,0,0,0,0,0,0,0,0,-1,1546,582,0,0
329,442,0,0,0,0,0,0,0,0,0,-1,1553,582,0,0
336,442,0,0,0,0,0,0,0,0,0,-1,1560,582,0,0
343,442,0,0,0,0,0,0,0,0,0,-1,1567,582,0,0
350,442,0,0,0,0,0,0,0,0,0,-1,1574,582,0,0
357,442,0,0,0,0,0,0,0,0,0,-1,1581,582,0,0
364,442,0,0,0,0,0,0,0,0,0,-1,1588,582,0,0
371,442,0,0,0,0,0,0,0,0,0,-1,1595,582,0,0
378,442,0,0,0,0,0,0,0,0,0,-1,1602,582,0,0
385,442,0,0,0,0,0,0,0,0,0,-1,1609,582,0,0
392,442,0,0,0,0,0,0,0,0,0,-1,1616,582,0,0
399,442,0,0,0,0,0,0,0,0,0,-1,1623,582,0,0
406,442,17.6321,4.08295,0,0,0,0,0,0,0,-1,1630,582,17.6321,-4.08293
413,442,25.4768,2.74445,0,0,0,0,0,0,0,-1,1637,582,25.4768,-2.74444
420,442,22.7478,1.55011,0,0,0,0,0,0,0,-1,1644,582,22.7478,-1.55009
427,442,23.2969,-0.456787,0,0,0,0,0,0,0,-1,1651,582,23.2968,0.456769
434,442,23.9512,-2.49365,0,0,0,0,0,0,0,-1,1658,582,23.9512,2.49366
441,442,24.8251,-4.43958,0,0,0,0,0,0,0,-1,1665,582,24.8251,4.43956
448,442,4.7749,-5.88562,0,0,0,0,0,0,0,-1,1672,582,4.7749,5.8856
455,442,4.87024,-4.60687,0,0,0,0,0,0,0,-1,1679,582,4.87019,4.60686
462,442,5.02307,-3.72821,0,0,0,0,0,0,0,-1,1686,582,5.02311,3.7282
469,442,5.12976,-2.98834,0,0,0,0,0,0,0,-1,1693,582,5.12971,2.98834
476,442,5.4624,1.76947,0,0,0,0,0,0,0,-1,1700,582,5.46234,-1.76944
483,442,5.98486,1.87042,0,0,0,0,0,0,0,-1,1707,582,5.98492,-1.87045
490,442,5.04407,-2.35834,0,0,0,0,0,0,0,-1,1714,582,5.04411,2.35837
497,442,6.20984,-3.07831,0,0,0,0,0,0,0,-1,1721,582,6.2098,3.07833
504,442,20.9276,-19.7709,0,0,0,0,0,0,0,-1,1728,582,20.9276,19.771
511,442,30.6082,-29.0674,0,0,0,0,0,0,0,-1,1735,582,30.6082,29.0674
518,442,30.5948,-27.9576,0.0025922,-0.000366426,0.000396682,0.00264446,-0.000418689,0.130995,0.00191783,0.017987,1742,582,30.5949,27.9576
525,442,30.5056,-26.96,0.00204624,-0.000174781,0.00051073,0.00215805,-0.000286595,0.21553,0.00154313,0.0116692,1749,582,30.5056,26.96
532,442,30.4473,-25.9472,0.00159354,0.000131071,0.00061439,0.00181739,-9.27746e-05,0.349391,0.00124367,0.0132966,1756,582,30.4473,25.9472
539,442,30.38,-24.909,0.00132236,0.000645717,0.000799044,0.00185175,0.000116321,0.585138,0.00119761,0.0174649,1763,582,30.3801,24.909
546,442,30.3597,-23.8342,0.00117455,0.00126924,0.000980928,0.00220397,0.000239825,0.809512,0.00139625,0.0235413,1770,582,30.3597,23.8342
553,442,30.2233,-22.8214,0.00104473,0.00207345,0.00120264,0.0028671,0.000251075,0.987474,0.00183345,0.0225849,1777,582,30.2233,22.8214
560,442,30.1868,-21.8356,0.000974547,0.00298319,0.00152328,0.00380343,0.0001543,1.07685,0.00248579,0.0152715,1784,582,30.1868,21.8356
567,442,30.0886,-20.8203,0.00108509,0.00411727,0.00200583,0.00511551,8.68517e-05,1.10901,0.00338176,0.0108921,1791,582,30.0886,20.8203
574,442,30.0177,-19.7875,0.00122875,0.0053316,0.00256953,0.00656816,-7.80798e-06,1.12227,0.00438138,0.0138676,1798,582,30.0177,19.7875
581,442,30.0313,-18.6196,0.00143442,0.00677899,0.00326127,0.00832298,-0.000109573,1.12863,0.00558554,0.0350898,1805,582,30.0313,18.6196
588,442,30.1274,-17.4249,0,0,0,0,0,0,0,-1,1812,582,30.1275,17.4249
595,442,16.27,-6.47083,0,0,0,0,0,0,0,-1,1819,582,16.27,6.47082
602,442,16.2213,-4.49225,0,0,0,0,0,0,0,-1,1826,582,16.2213,4.49223
609,442,12.761,2.97223,0,0,0,0,0,0,0,-1,1833,582,12.761,-2.97221
616,442,9.78345,-0.103394,0,0,0,0,0,0,0,-1,1840,582,9.78341,0.103424
623,442,9.23828,0.326721,0,0,0,0,0,0,0,-1,1847,582,9.23829,-0.326727
630,442,7.74304,2.3924,0,0,0,0,0,0,0,-1,1854,582,7.7431,-2.39238
637,442,5.87805,1.84027,0,0,0,0,0,0,0,-1,1861,582,5.87807,-1.84025
644,442,0,0,0,0,0,0,0,0,0,-1,1868,582,0,0
651,442,0,0,0,0,0,0,0,0,0,-1,1875,582,0,0
658,442,0,0,0,0,0,0,0,0,0,-1,1882,582,0,0
665,442,0,0,0,0,0,0,0,0,0,-1,1889,582,0,0
672,442,0,0,0,0,0,0,0,0,0,-1,1896,582,0,0
679,442,0,0,0,0,0,0,0,0,0,-1,1903,582,0,0
686,442,0,0,0,0,0,0,0,0,0,-1,1910,582,0,0
693,442,0,0,0,0,0,0,0,0,0,-1,1917,582,0,0
700,442,0,0,0,0,0,0,0,0,0,-1,1924,582,0,0
707,442,0,0,0,0,0,0,0,0,0,-1,1931,582,0,0
714,442,0,0,0,0,0,0,0,0,0,-1,1938,582,0,0
721,442,0,0,0,0,0,0,0,0,0,-1,1945,582,0,0
728,442,0,0,0,0,0,0,0,0,0,-1,1952,582,0,0
735,442,0,0,0,0,0,0,0,0,0,-1,1959,582,0,0
742,442,0,0,0,0,0,0,0,0,0,-1,1966,582,0,0
749,442,0,0,0,0,0,0,0,0,0,-1,1973,582,0,0
756,442,0,0,0,0,0,0,0,0,0,-1,1980,582,0,0
763,442,0,0,0,0,0,0,0,0,0,-1,1987,582,0,0
770,442,0,0,0,0,0,0,0,0,0,-1,1994,582,0,0
777,442,0,0,0,0,0,0,0,0,0,-1,2001,582,0,0
784,442,0,0,0,0,0,0,0,0,0,-1,2008,582,0,0
791,442,0,0,0,0,0,0,0,0,0,-1,2015,582,0,0
798,442,0,0,0,0,0,0,0,0,0,-1,2022,582,0,0
805,442,0,0,0,0,0,0,0,0,0,-1,2029,582,0,0
812,442,0,0,0,0,0,0,0,0,0,-1,2036,582,0,0
-700,435,0,0,0,0,0,0,0,0,0,-1,524,589,0,0
-693,435,0,0,0,0,0,0,0,0,0,-1,531,589,0,0
-686,435,0,0,0,0,0,0,0,0,0,-1,538,589,0,0
-679,435,0,0,0,0,0,0,0,0,0,-1,545,589,0,0
-672,435,0,0,0,0,0,0,0,0,0,-1,552,589,0,0
-665,435,0,0,0,0,0,0,0,0,0,-1,559,589,0,0
-658,435,0,0,0,0,0,0,0,0,0,-1,566,589,0,0
-651,435,0,0,0,0,0,0,0,0,0,-1,573,589,0,0
-644,435,0,0,0,0,0,0,0,0,0,-1,580,589,0,0
-637,435,0,0,0,0,0,0,0,0,0,-1,587,589,0,0
-630,435,0,0,0,0,0,0,0,0,0,-1,594,589,0,0
-623,435,0,0,0,0,0,0,0,0,0,-1,601,589,0,0
-616,435,0,0,0,0,0,0,0,0,0,-1,608,589,0,0
-609,435,0,0,0,0,0,0,0,0,0,-1,615,589,0,0
-602,435,0,0,0,0,0,0,0,0,0,-1,622,589,0,0
-595,435,0,0,0,0,0,0,0,0,0,-1,629,589,0,0
-588,435,0,0,0,0,0,0,0,0,0,-1,636,589,0,0
-581,435,0,0,0,0,0,0,0,0,0,-1,643,589,0,0
-574,435,0,0,0,0,0,0,0,0,0,-1,650,589,0,0
-567,435,0,0,0,0,0,0,0,0,0,-1,657,589,0,0
-560,435,0,0,0,0,0,0,0,0,0,-1,664,589,0,0
-553,435,0,0,0,0,0,0,0,0,0,-1,671,589,0,0
-546,435,0,0,0,0,0,0,0,0,0,-1,678,589,0,0
-539,435,0,0,0,0,0,0,0,0,0,-1,685,589,0,0
-532,435,0,0,0,0,0,0,0,0,0,-1,692,589,0,0
-525,435,-10.0776,10.0547,0,0,0,0,0,0,0,-1,699,589,-10.0776,-10.0547
-518,435,-1.83093,-5.82367,0,0,0,0,0,0,0,-1,706,589,-1.83093,5.8237
-511,435,-2.45154,-5.33118,0,0,0,0,0,0,0,-1,713,589,-2.45151,5.33115
-504,435,-3.07208,-4.83862,0,0,0,0,0,0,0,-1,720,589,-3.0721,4.8386
-497,435,-6.31012,-5.84698,0,0,0,0,0,0,0,-1,727,589,-6.31012,5.84697
-490,435,-5.81903,-0.458679,0,0,0,0,0,0,0,-1,734,589,-5.81902,0.458684
-483,435,-6.96503,-3.01624,0,0,0,0,0,0,0,-1,741,589,-6.96505,3.01623
-476,435,-13.7272,-14.1022,0,0,0,0,0,0,0,-1,748,589,-13.7272,14.1022
-469,435,-13.6132,-16.1974,0,0,0,0,0,0,0,-1,755,589,-13.6132,16.1975
-462,435,-13.7756,-17.1926,0,0,0,0,0,0,0,-1,762,589,-13.7755,17.1925
-455,435,-13.8182,-18.5045,-0.00160837,0.0031647,-0.000352774,0.00319063,-0.0016343,-1.49742,0.00283357,0.0323468,769,589,-13.8182,18.5045
-448,435,-13.844,-19.6412,-0.000872844,0.00266157,-0.000555983,0.00274696,-0.00095824,-1.41839,0.00222074,0.01434,776,589,-13.844,19.6412
-441,435,-13.9117,-20.6737,-0.000270972,0.00217218,-0.00068153,0.00234943,-0.000448228,-1.31635,0.00173511,0.0115896,783,589,-13.9117,20.6737
-434,435,-13.9984,-21.7003,0.000166648,0.00172328,-0.000707312,0.00199666,-0.000106733,-1.20198,0.00136807,0.0129143,790,589,-13.9984,21.7003
-427,435,-14.0893,-22.7599,0.000536027,0.00138348,-0.000705424,0.00178265,0.000136851,-1.05585,0.00114555,0.0106967,797,589,-14.0893,22.76
-420,435,-14.1521,-23.7998,0.000842782,0.0010625,-0.000618829,0.00158114,0.000324135,-0.873246,0.000964382,0.0112762,804,589,-14.1521,23.7998
-413,435,-14.2161,-24.842,0.00109302,0.000683228,-0.000467291,0.00139836,0.000377886,-0.578783,0.000835276,0.0116921,811,589,-14.216,24.842
-406,435,-14.2822,-25.8771,0.00129413,0.000299206,-0.000234038,0.00134644,0.000246902,-0.219869,0.000827692,0.0122008,818,589,-14.2822,25.8771
-399,435,-14.3617,-26.8943,0.00163737,3.94257e-05,-8.898e-05,0.00164231,3.44862e-05,-0.0554554,0.00108356,0.0103613,825,589,-14.3617,26.8944
-392,435,-14.4434,-27.9032,0.00205734,-0.000192226,6.69661e-05,0.00205934,-0.000194218,0.0297333,0.001442,0.0110768,832,589,-14.4434,27.9032
-385,435,-14.4923,-28.926,0.00260184,-0.000469318,0.000216442,0.00261702,-0.000484497,0.0700145,0.0019266,0.0245824,839,589,-14.4923,28.926
-378,435,-14.4692,-30.0533,0,0,0,0,0,0,0,-1,846,589,-14.4693,30.0533
-371,435,-10.247,-21.7153,0,0,0,0,0,0,0,-1,853,589,-10.247,21.7153
-364,435,-5.62848,-11.5937,0,0,0,0,0,0,0,-1,860,589,-5.62847,11.5937
-357,435,-5.57343,-10.9666,0,0,0,0,0,0,0,-1,867,589,-5.57342,10.9666
-350,435,-0.86676,-3.69836,0,0,0,0,0,0,0,-1,874,589,-0.866784,3.69834
-343,435,-1.60706,-2.36835,0,0,0,0,0,0,0,-1,881,589,-1.60706,2.36838
-336,435,-2.07263,-1.94012,0,0,0,0,0,0,0,-1,888,589,-2.07265,1.94014
-329,435,-2.55963,-1.5517,0,0,0,0,0,0,0,-1,895,589,-2.5596,1.55168
-322,435,-3.08545,-1.55255,0,0,0,0,0,0,0,-1,902,589,-3.08544,1.55254
-315,435,-0.404297,-2.63763,0,0,0,0,0,0,0,-1,909,589,-0.404276,2.63761
-308,435,-1.70056,-1.90369,0,0,0,0,0,0,0,-1,916,589,-1.70056,1.90367
-301,435,-1.19391,-2.41632,0,0,0,0,0,0,0,-1,923,589,-1.1939,2.41635
-294,435,3.78278,-10.3275,0,0,0,0,0,0,0,-1,930,589,3.78281,10.3275
-287,435,0,0,0,0,0,0,0,0,0,-1,937,589,0,0
-280,435,0,0,0,0,0,0,0,0,0,-1,944,589,0,0
-273,435,0,0,0,0,0,0,0,0,0,-1,951,589,0,0
-266,435,0,0,0,0,0,0,0,0,0,-1,958,589,0,0
-259,435,0,0,0,0,0,0,0,0,0,-1,965,589,0,0
-252,435,0,0,0,0,0,0,0,0,0,-1,972,589,0,0
-245,435,0,0,0,0,0,0,0,0,0,-1,979,589,0,0
-238,435,0,0,0,0,0,0,0,0,0,-1,986,589,0,0
-231,435,0,0,0,0,0,0,0,0,0,-1,993,589,0,0
-224,435,0,0,0,0,0,0,0,0,0,-1,1000,589,0,0
-217,435,0,0,0,0,0,0,0,0,0,-1,1007,589,0,0
-210,435,0,0,0,0,0,0,0,0,0,-1,1014,589,0,0
-203,435,0,0,0,0,0,0,0,0,0,-1,1021,589,0,0
-196,435,0,0,0,0,0,0,0,0,0,-1,1028,589,0,0
-189,435,0,0,0,0,0,0,0,0,0,-1,1035,589,0,0
-182,435,0,0,0,0,0,0,0,0,0,-1,1042,589,0,0
-175,435,0,0,0,0,0,0,0,0,0,-1,1049,589,0,0
-168,435,0,0,0,0,0,0,0,0,0,-1,1056,589,0,0
-161,435,0,0,0,0,0,0,0,0,0,-1,1063,589,0,0
-154,435,0,0,0,0,0,0,0,0,0,-1,1070,589,0,0
-147,435,0,0,0,0,0,0,0,0,0,-1,1077,589,0,0
-140,435,0,0,0,0,0,0,0,0,0,-1,1084,589,0,0
-133,435,0,0,0,0,0,0,0,0,0,-1,1091,589,0,0
-126,435,0,0,0,0,0,0,0,0,0,-1,1098,589,0,0
-119,435,0,0,0,0,0,0,0,0,0,-1,1105,589,0,0
-112,435,0,0,0,0,0,0,0,0,0,-1,1112,589,0,0
-105,435,0,0,0,0,0,0,0,0,0,-1,1119,589,0,0
-98,435,0,0,0,0,0,0,0,0,0,-1,1126,589,0,0
-91,435,0,0,0,0,0,0,0,0,0,-1,1133,589,0,0
-84,435,0,0,0,0,0,0,0,0,0,-1,1140,589,0,0
-77,435,0,0,0,0,0,0,0,0,0,-1,1147,589,0,0
-70,435,0,0,0,0,0,0,0,0,0,-1,1154,589,0,0
-63,435,0,0,0,0,0,0,0,0,0,-1,1161,589,0,0
-56,435,0,0,0,0,0,0,0,0,0,-1,1168,589,0,0
-49,435,0,0,0,0,0,0,0,0,0,-1,1175,589,0,0
-42,435,0,0,0,0,0,0,0,0,0,-1,1182,589,0,0
-35,435,0,0,0,0,0,0,0,0,0,-1,1189,589,0,0
-28,435,0,0,0,0,0,0,0,0,0,-1,1196,589,0,0
-21,435,0,0,0,0,0,0,0,0,0,-1,1203,589,0,0
-14,435,0,0,0,0,0,0,0,0,0,-1,1210,589,0,0
-7,435,0,0,0,0,0,0,0,0,0,-1,1217,589,0,0
0,435,0,0,0,0,0,0,0,0,0,-1,1224,589,0,0
7,435,0,0,0,0,0,0,0,0,0,-1,1231,589,0,0
14,435,0,0,0,0,0,0,0,0,0,-1,1238,589,0,0
21,435,0,0,0,0,0,0,0,0,0,-1,1245,589,0,0
28,435,0,0,0,0,0,0,0,0,0,-1,1252,589,0,0
35,435,0,0,0,0,0,0,0,0,0,-1,1259,589,0,0
42,435,0,0,0,0,0,0,0,0,0,-1,1266,589,0,0
49,435,0,0,0,0,0,0,0,0,0,-1,1273,589,0,0
56,435,0,0,0,0,0,0,0,0,0,-1,1280,589,0,0
63,435,0,0,0,0,0,0,0,0,0,-1,1287,589,0,0
70,435,0,0,0,0,0,0,0,0,0,-1,1294,589,0,0
77,435,0,0,0,0,0,0,0,0,0,-1,1301,589,0,0
84,435,0,0,0,0,0,0,0,0,0,-1,1308,589,0,0
91,435,0,0,0,0,0,0,0,0,0,-1,1315,589,0,0
98,435,0,0,0,0,0,0,0,0,0,-1,1322,589,0,0
105,435,0,0,0,0,0,0,0,0,0,-1,1329,589,0,0
112,435,0,0,0,0,0,0,0,0,0,-1,1336,589,0,0
119,435,0,0,0,0,0,0,0,0,0,-1,1343,589,0,0
126,435,0,0,0,0,0,0,0,0,0,-1,1350,589,0,0
133,435,0,0,0,0,0,0,0,0,0,-1,1357,589,0,0
140,435,0,0,0,0,0,0,0,0,0,-1,1364,589,0,0
147,435,0,0,0,0,0,0,0,0,0,-1,1371,589,0,0
154,435,0,0,0,0,0,0,0,0,0,-1,1378,589,0,0
161,435,0,0,0,0,0,0,0,0,0,-1,1385,589,0,0
168,435,0,0,0,0,0,0,0,0,0,-1,1392,589,0,0
175,435,0,0,0,0,0,0,0,0,0,-1,1399,589,0,0
182,435,0,0,0,0,0,0,0,0,0,-1,1406,589,0,0
189,435,0,0,0,0,0,0,0,0,0,-1,1413,589,0,0
196,435,0,0,0,0,0,0,0,0,0,-1,1420,589,0,0
203,435,0,0,0,0,0,0,0,0,0,-1,1427,589,0,0
210,435,0,0,0,0,0,0,0,0,0,-1,1434,589,0,0
217,435,0,0,0,0,0,0,0,0,0,-1,1441,589,0,0
224,435,0,0,0,0,0,0,0,0,0,-1,1448,589,0,0
231,435,0,0,0,0,0,0,0,0,0,-1,1455,589,0,0
238,435,0,0,0,0,0,0,0,0,0,-1,1462,589,0,0
245,435,0,0,0,0,0,0,0,0,0,-1,1469,589,0,0
252,435,0,0,0,0,0,0,0,0,0,-1,1476,589,0,0
259,435,0,0,0,0,0,0,0,0,0,-1,1483,589,0,0
266,435,0,0,0,0,0,0,0,0,0,-1,1490,589,0,0
273,435,0,0,0,0,0,0,0,0,0,-1,1497,589,0,0
280,435,0,0,0,0,0,0,0,0,0,-1,1504,589,0,0
287,435,0,0,0,0,0,0,0,0,0,-1,1511,589,0,0
294,435,0,0,0,0,0,0,0,0,0,-1,1518,589,0,0
301,435,0,0,0,0,0,0,0,0,0,-1,1525,589,0,0
308,435,0,0,0,0,0,0,0,0,0,-1,1532,589,0,0
315,435,0,0,0,0,0,0,0,0,0,-1,1539,589,0,0
322,435,0,0,0,0,0,0,0,0,0,-1,1546,589,0,0
329,435,0,0,0,0,0,0,0,0,0,-1,1553,589,0,0
336,435,0,0,0,0,0,0,0,0,0,-1,1560,589,0,0
343,435,0,0,0,0,0,0,0,0,0,-1,1567,589,0,0
350,435,0,0,0,0,0,0,0,0,0,-1,1574,589,0,0
357,435,0,0,0,0,0,0,0,0,0,-1,1581,589,0,0
364,435,0,0,0,0,0,0,0,0,0,-1,1588,589,0,0
371,435,0,0,0,0,0,0,0,0,0,-1,1595,589,0,0
378,435,0,0,0,0,0,0,0,0,0,-1,1602,589,0,0
385,435,0,0,0,0,0,0,0,0,0,-1,1609,589,0,0
392,435,0,0,0,0,0,0,0,0,0,-1,1616,589,0,0
399,435,0,0,0,0,0,0,0,0,0,-1,1623,589,0,0
406,435,0,0,0,0,0,0,0,0,0,-1,1630,589,0,0
413,435,20.4565,3.49835,0,0,0,0,0,0,0,-1,1637,589,20.4565,-3.49836
420,435,21.4015,1.49609,0,0,0,0,0,0,0,-1,1644,589,21.4015,-1.49609
427,435,22.0464,-0.373962,0,0,0,0,0,0,0,-1,1651,589,22.0464,0.373972
434,435,22.1863,-1.54407,0,0,0,0,0,0,0,-1,1658,589,22.1862,1.54405
441,435,22.3992,-2.38287,0,0,0,0,0,0,0,-1,1665,589,22.3992,2.38289
448,435,7.4585,-0.00292969,0,0,0,0,0,0,0,-1,1672,589,7.45848,0.00294131
455,435,5.49915,-5.047,0,0,0,0,0,0,0,-1,1679,589,5.49914,5.04703
462,435,5.60669,-4.71466,0,0,0,0,0,0,0,-1,1686,589,5.60675,4.71469
469,435,5.87708,1.22351,0,0,0,0,0,0,0,-1,1693,589,5.87703,-1.22351
476,435,6.14136,1.37714,0,0,0,0,0,0,0,-1,1700,589,6.14138,-1.37712
483,435,6.49243,1.36169,0,0,0,0,0,0,0,-1,1707,589,6.49242,-1.36171
490,435,4.38391,-1.36218,0,0,0,0,0,0,0,-1,1714,589,4.38389,1.3622
497,435,7.23499,-3.64551,0,0,0,0,0,0,0,-1,1721,589,7.23495,3.64551
504,435,7.31189,-3.75909,0,0,0,0,0,0,0,-1,1728,589,7.31184,3.75911
511,435,28.9622,-27.0995,0,0,0,0,0,0,0,-1,1735,589,28.9621,27.0995
518,435,31.584,-27.9201,0,0,0,0,0,0,0,-1,1742,589,31.5839,27.9201
525,435,31.5374,-26.8939,0.00252523,-0.000369245,0.000467936,0.002599,-0.000443014,0.156361,0.00189765,0.0157826,1749,589,31.5374,26.8939
532,435,31.4866,-25.8649,0.00198926,-0.000155892,0.000493005,0.00209714,-0.00026377,0.215423,0.0014938,0.0174375,1756,589,31.4866,25.8649
539,435,31.4125,-24.8305,0.00168684,0.000311582,0.000626084,0.00192916,6.92565e-05,0.369293,0.00126366,0.0186567,1763,589,31.4125,24.8305
546,435,31.3536,-23.8214,0.00150138,0.000849602,0.00076163,0.00200392,0.00034707,0.583242,0.0012366,0.0180767,1770,589,31.3537,23.8214
553,435,31.2789,-22.8142,0.00132372,0.00156105,0.000940535,0.00239038,0.000494393,0.848152,0.00145702,0.0117369,1777,589,31.2789,22.8142
560,435,31.1963,-21.8112,0.00118082,0.00235323,0.00121533,0.00311634,0.000417709,1.01011,0.00195327,0.00942039,1784,589,31.1963,21.8111
567,435,31.145,-20.7556,0.00120767,0.00334201,0.00164402,0.00423485,0.000314828,1.07328,0.00272436,0.00946084,1791,589,31.145,20.7556
574,435,31.0641,-19.7192,0.0013234,0.00442439,0.00214643,0.00552177,0.000226025,1.09819,0.0036082,0.0111093,1798,589,31.0641,19.7192
581,435,30.9871,-18.692,0.00156446,0.00566804,0.00278869,0.00707842,0.000154078,1.10256,0.00466844,0.0190206,1805,589,30.987,18.692
588,435,30.9086,-17.6255,0,0,0,0,0,0,0,-1,1812,589,30.9086,17.6256
595,435,30.7249,-16.2692,0,0,0,0,0,0,0,-1,1819,589,30.7249,16.2692
602,435,16.8671,-6.39026,0,0,0,0,0,0,0,-1,1826,589,16.867,6.39024
609,435,15.2611,-3.42242,0,0,0,0,0,0,0,-1,1833,589,15.2611,3.42242
616,435,5.05151,-2.75269,0,0,0,0,0,0,0,-1,1840,589,5.05157,2.7527
623,435,11.7588,3.9704,0,0,0,0,0,0,0,-1,1847,589,11.7587,-3.97043
630,435,4.72742,-0.87561,0,0,0,0,0,0,0,-1,1854,589,4.7274,0.875636
637,435,5.05286,1.48792,0,0,0,0,0,0,0,-1,1861,589,5.05291,-1.48792
644,435,0,0,0,0,0,0,0,0,0,-1,1868,589,0,0
651,435,0,0,0,0,0,0,0,0,0,-1,1875,589,0,0
658,435,0,0,0,0,0,0,0,0,0,-1,1882,589,0,0
665,435,0,0,0,0,0,0,0,0,0,-1,1889,589,0,0
672,435,0,0,0,0,0,0,0,0,0,-1,1896,589,0,0
679,435,0,0,0,0,0,0,0,0,0,-1,1903,589,0,0
686,435,0,0,0,0,0,0,0,0,0,-1,1910,589,0,0
693,435,0,0,0,0,0,0,0,0,0,-1,1917,589,0,0
700,435,0,0,0,0,0,0,0,0,0,-1,1924,589,0,0
707,435,0,0,0,0,0,0,0,0,0,-1,1931,589,0,0
714,435,0,0,0,0,0,0,0,0,0,-1,1938,589,0,0
721,435,0,0,0,0,0,0,0,0,0,-1,1945,589,0,0
728,435,0,0,0,0,0,0,0,0,0,-1,1952,589,0,0
735,435,0,0,0,0,0,0,0,0,0,-1,1959,589,0,0
742,435,0,0,0,0,0,0,0,0,0,-1,1966,589,0,0
749,435,0,0,0,0,0,0,0,0,0,-1,1973,589,0,0
756,435,0,0,0,0,0,0,0,0,0,-1,1980,589,0,0
763,435,0,0,0,0,0,0,0,0,0,-1,1987,589,0,0
770,435,0,0,0,0,0,0,0,0,0,-1,1994,589,0,0
777,435,0,0,0,0,0,0,0,0,0,-1,2001,589,0,0
784,435,0,0,0,0,0,0,0,0,0,-1,2008,589,0,0
791,435,0,0,0,0,0,0,0,0,0,-1,2015,589,0,0
798,435,0,0,0,0,0,0,0,0,0,-1,2022,589,0,0
805,435,0,0,0,0,0,0,0,0,0,-1,2029,589,0,0
812,435,0,0,0,0,0,0,0,0,0,-1,2036,589,0,0
-700,428,0,0,0,0,0,0,0,0,0,-1,524,596,0,0
-693,428,0,0,0,0,0,0,0,0,0,-1,531,596,0,0
-686,428,0,0,0,0,0,0,0,0,0,-1,538,596,0,0
-679,428,0,0,0,0,0,0,0,0,0,-1,545,596,0,0
-672,428,0,0,0,0,0,0,0,0,0,-1,552,596,0,0
-665,428,0,0,0,0,0,0,0,0,0,-1,559,596,0,0
-658,428,0,0,0,0,0,0,0,0,0,-1,566,596,0,0
-651,428,0,0,0,0,0,0,0,0,0,-1,573,596,0,0
-644,428,0,0,0,0,0,0,0,0,0,-1,580,596,0,0
-637,428,0,0,0,0,0,0,0,0,0,-1,587,596,0,0
-630,428,0,0,0,0,0,0,0,0,0,-1,594,596,0,0
-623,428,0,0,0,0,0,0,0,0,0,-1,601,596,0,0
-616,428,0,0,0,0,0,0,0,0,0,-1,608,596,0,0
-609,428,0,0,0,0,0,0,0,0,0,-1,615,596,0,0
-602,428,0,0,0,0,0,0,0,0,0,-1,622,596,0,0
-595,428,0,0,0,0,0,0,0,0,0,-1,629,596,0,0
-588,428,0,0,0,0,0,0,0,0,0,-1,636,596,0,0
-581,428,0,0,0,0,0,0,0,0,0,-1,643,596,0,0
-574,428,0,0,0,0,0,0,0,0,0,-1,650,596,0,0
-567,428,0,0,0,0,0,0,0,0,0,-1,657,596,0,0
-560,428,0,0,0,0,0,0,0,0,0,-1,664,596,0,0
-553,428,0,0,0,0,0,0,0,0,0,-1,671,596,0,0
-546,428,0,0,0,0,0,0,0,0,0,-1,678,596,0,0
-539,428,0,0,0,0,0,0,0,0,0,-1,685,596,0,0
-532,428,0,0,0,0,0,0,0,0,0,-1,692,596,0,0
-525,428,-9.59918,7.58618,0,0,0,0,0,0,0,-1,699,596,-9.59918,-7.5862
-518,428,-2.92285,-4.81854,0,0,0,0,0,0,0,-1,706,596,-2.92285,4.81856
-511,428,-3.68811,-4.79474,0,0,0,0,0,0,0,-1,713,596,-3.68811,4.79474
-504,428,-4.45337,-4.77094,0,0,0,0,0,0,0,-1,720,596,-4.45337,4.77092
-497,428,-2.98108,-3.77502,0,0,0,0,0,0,0,-1,727,596,-2.98106,3.77505
-490,428,-6.39044,-2.80481,0,0,0,0,0,0,0,-1,734,596,-6.39047,2.80483
-483,428,-10.8474,-9.11322,0,0,0,0,0,0,0,-1,741,596,-10.8473,9.11321
-476,428,-14.5055,-15.2911,0,0,0,0,0,0,0,-1,748,596,-14.5055,15.2911
-469,428,-14.4531,-16.3256,-0.00282963,0.00334515,0.00028466,0.00335824,-0.00284272,1.52483,0.00358425,0.0403693,755,596,-14.4531,16.3256
-462,428,-14.6838,-17.2635,-0.0018946,0.00281877,-5.12312e-06,0.00281877,-0.00189461,-1.56971,0.00273865,0.0420551,762,596,-14.6838,17.2635
-455,428,-14.8524,-18.4393,-0.00111238,0.00230491,-0.000229884,0.0023203,-0.00112777,-1.50393,0.00203005,0.0195508,769,596,-14.8524,18.4393
-448,428,-14.902,-19.5084,-0.000445395,0.00187369,-0.000388291,0.00193698,-0.000508681,-1.40923,0.00149011,0.0125204,776,596,-14.902,19.5083
-441,428,-14.966,-20.5533,0.000117976,0.0014748,-0.000495236,0.00163633,-4.35537e-05,-1.25551,0.00110569,0.0141988,783,596,-14.966,20.5533
-434,428,-15.0322,-21.6407,0.000543838,0.00110714,-0.000527997,0.00142391,0.000227069,-1.03042,0.000883367,0.0110238,790,596,-15.0322,21.6407
-427,428,-15.1055,-22.7106,0.000920915,0.000858497,-0.000567348,0.00145791,0.000321501,-0.757921,0.000884471,0.0114632,797,596,-15.1055,22.7106
-420,428,-15.1603,-23.7114,0.00123743,0.000629383,-0.00054184,0.00155471,0.0003121,-0.529738,0.000949692,0.0119908,804,596,-15.1603,23.7114
-413,428,-15.2421,-24.7339,0.00146126,0.000368185,-0.000429287,0.0016097,0.000219748,-0.332908,0.0010079,0.0147919,811,596,-15.2421,24.7339
-406,428,-15.3202,-25.7721,0.00163246,0.000161303,-0.000292834,0.0016886,0.000105157,-0.189434,0.00109237,0.0176626,818,596,-15.3202,25.7721
-399,428,-15.3628,-26.8209,0.00197051,1.83846e-05,-0.000283444,0.00201083,-2.19381e-05,-0.141312,0.00134792,0.0175199,825,596,-15.3628,26.8209
-392,428,-15.4294,-27.893,0.0023676,-0.000129442,-0.000242342,0.00239091,-0.000152744,-0.0958594,0.00164721,0.0377908,832,596,-15.4294,27.893
-385,428,-15.4739,-28.9265,0,0,0,0,0,0,0,-1,839,596,-15.4738,28.9265
-378,428,-10.8172,-20.952,0,0,0,0,0,0,0,-1,846,596,-10.8172,20.952
-371,428,-5.96155,-11.0703,0,0,0,0,0,0,0,-1,853,596,-5.96154,11.0702
-364,428,-6.33643,-10.7223,0,0,0,0,0,0,0,-1,860,596,-6.33645,10.7223
-357,428,-3.20996,-4.70966,0,0,0,0,0,0,0,-1,867,596,-3.20997,4.70965
-350,428,-1.62793,-3.94055,0,0,0,0,0,0,0,-1,874,596,-1.62794,3.94055
-343,428,-0.0567017,-4.80994,0,0,0,0,0,0,0,-1,881,596,-0.0567096,4.80996
-336,428,-3.29175,-1.39569,0,0,0,0,0,0,0,-1,888,596,-3.29172,1.39568
-329,428,-3.71564,-0.791321,0,0,0,0,0,0,0,-1,895,596,-3.71564,0.791299
-322,428,-5.52863,-3.59827,0,0,0,0,0,0,0,-1,902,596,-5.52865,3.59829
-315,428,-4.57172,-1.22052,0,0,0,0,0,0,0,-1,909,596,-4.57171,1.22052
-308,428,-5.60742,-3.40961,0,0,0,0,0,0,0,-1,916,596,-5.60744,3.40959
-301,428,0,0,0,0,0,0,0,0,0,-1,923,596,0,0
-294,428,0,0,0,0,0,0,0,0,0,-1,930,596,0,0
-287,428,0,0,0,0,0,0,0,0,0,-1,937,596,0,0
-280,428,0,0,0,0,0,0,0,0,0,-1,944,596,0,0
-273,428,0,0,0,0,0,0,0,0,0,-1,951,596,0,0
-266,428,0,0,0,0,0,0,0,0,0,-1,958,596,0,0
-259,428,0,0,0,0,0,0,0,0,0,-1,965,596,0,0
-252,428,0,0,0,0,0,0,0,0,0,-1,972,596,0,0
-245,428,0,0,0,0,0,0,0,0,0,-1,979,596,0,0
-238,428,0,0,0,0,0,0,0,0,0,-1,986,596,0,0
-231,428,0,0,0,0,0,0,0,0,0,-1,993,596,0,0
-224,428,0,0,0,0,0,0,0,0,0,-1,1000,596,0,0
-217,428,0,0,0,0,0,0,0,0,0,-1,1007,596,0,0
-210,428,0,0,0,0,0,0,0,0,0,-1,1014,596,0,0
-203,428,0,0,0,0,0,0,0,0,0,-1,1021,596,0,0
-196,428,0,0,0,0,0,0,0,0,0,-1,1028,596,0,0
-189,428,0,0,0,0,0,0,0,0,0,-1,1035,596,0,0
-182,428,0,0,0,0,0,0,0,0,0,-1,1042,596,0,0
-175,428,0,0,0,0,0,0,0,0,0,-1,1049,596,0,0
-168,428,0,0,0,0,0,0,0,0,0,-1,1056,596,0,0
-161,428,0,0,0,0,0,0,0,0,0,-1,1063,596,0,0
-154,428,0,0,0,0,0,0,0,0,0,-1,1070,596,0,0
-147,428,0,0,0,0,0,0,0,0,0,-1,1077,596,0,0
-140,428,0,0,0,0,0,0,0,0,0,-1,1084,596,0,0
-133,428,0,0,0,0,0,0,0,0,0,-1,1091,596,0,0
-126,428,0,0,0,0,0,0,0,0,0,-1,1098,596,0,0
-119,428,0,0,0,0,0,0,0,0,0,-1,1105,596,0,0
-112,428,0,0,0,0,0,0,0,0,0,-1,1112,596,0,0
-105,428,0,0,0,0,0,0,0,0,0,-1,1119,596,0,0
-98,428,0,0,0,0,0,0,0,0,0,-1,1126,596,0,0
-91,428,0,0,0,0,0,0,0,0,0,-1,1133,596,0,0
-84,428,0,0,0,0,0,0,0,0,0,-1,1140,596,0,0
-77,428,0,0,0,0,0,0,0,0,0,-1,1147,596,0,0
-70,428,0,0,0,0,0,0,0,0,0,-1,1154,596,0,0
-63,428,0,0,0,0,0,0,0,0,0,-1,1161,596,0,0
-56,428,0,0,0,0,0,0,0,0,0,-1,1168,596,0,0
-49,428,0,0,0,0,0,0,0,0,0,-1,1175,596,0,0
-42,428,0,0,0,0,0,0,0,0,0,-1,1182,596,0,0
-35,428,0,0,0,0,0,0,0,0,0,-1,1189,596,0,0
-28,428,0,0,0,0,0,0,0,0,0,-1,1196,596,0,0
-21,428,0,0,0,0,0,0,0,0,0,-1,1203,596,0,0
-14,428,0,0,0,0,0,0,0,0,0,-1,1210,596,0,0
-7,428,0,0,0,0,0,0,0,0,0,-1,1217,596,0,0
0,428,0,0,0,0,0,0,0,0,0,-1,1224,596,0,0
7,428,0,0,0,0,0,0,0,0,0,-1,1231,596,0,0
14,428,0,0,0,0,0,0,0,0,0,-1,1238,596,0,0
21,428,0,0,0,0,0,0,0,0,0,-1,1245,596,0,0
28,428,0,0,0,0,0,0,0,0,0,-1,1252,596,0,0
35,428,0,0,0,0,0,0,0,0,0,-1,1259,596,0,0
42,428,0,0,0,0,0,0,0,0,0,-1,1266,596,0,0
49,428,0,0,0,0,0,0,0,0,0,-1,1273,596,0,0
56,428,0,0,0,0,0,0,0,0,0,-1,1280,596,0,0
63,428,0,0,0,0,0,0,0,0,0,-1,1287,596,0,0
70,428,0,0,0,0,0,0,0,0,0,-1,1294,596,0,0
77,428,0,0,0,0,0,0,0,0,0,-1,1301,596,0,0
84,428,0,0,0,0,0,0,0,0,0,-1,1308,596,0,0
91,428,0,0,0,0,0,0,0,0,0,-1,1315,596,0,0
98,428,0,0,0,0,0,0,0,0,0,-1,1322,596,0,0
105,428,0,0,0,0,0,0,0,0,0,-1,1329,596,0,0
112,428,0,0,0,0,0,0,0,0,0,-1,1336,596,0,0
119,428,0,0,0,0,0,0,0,0,0,-1,1343,596,0,0
126,428,0,0,0,0,0,0,0,0,0,-1,1350,596,0,0
133,428,0,0,0,0,0,0,0,0,0,-1,1357,596,0,0
140,428,0,0,0,0,0,0,0,0,0,-1,1364,596,0,0
147,428,0,0,0,0,0,0,0,0,0,-1,1371,596,0,0
154,428,0,0,0,0,0,0,0,0,0,-1,1378,596,0,0
161,428,0,0,0,0,0,0,0,0,0,-1,1385,596,0,0
168,428,0,0,0,0,0,0,0,0,0,-1,1392,596,0,0
175,428,0,0,0,0,0,0,0,0,0,-1,1399,596,0,0
182,428,0,0,0,0,0,0,0,0,0,-1,1406,596,0,0
189,428,0,0,0,0,0,0,0,0,0,-1,1413,596,0,0
196,428,0,0,0,0,0,0,0,0,0,-1,1420,596,0,0
203,428,0,0,0,0,0,0,0,0,0,-1,1427,596,0,0
210,428,0,0,0,0,0,0,0,0,0,-1,1434,596,0,0
217,428,0,0,0,0,0,0,0,0,0,-1,1441,596,0,0
224,428,0,0,0,0,0,0,0,0,0,-1,1448,596,0,0
231,428,0,0,0,0,0,0,0,0,0,-1,1455,596,0,0
238,428,0,0,0,0,0,0,0,0,0,-1,1462,596,0,0
245,428,0,0,0,0,0,0,0,0,0,-1,1469,596,0,0
252,428,0,0,0,0,0,0,0,0,0,-1,1476,596,0,0
259,428,0,0,0,0,0,0,0,0,0,-1,1483,596,0,0
266,428,0,0,0,0,0,0,0,0,0,-1,1490,596,0,0
273,428,0,0,0,0,0,0,0,0,0,-1,1497,596,0,0
280,428,0,0,0,0,0,0,0,0,0,-1,1504,596,0,0
287,428,0,0,0,0,0,0,0,0,0,-1,1511,596,0,0
294,428,0,0,0,0,0,0,0,0,0,-1,1518,596,0,0
301,428,0,0,0,0,0,0,0,0,0,-1,1525,596,0,0
308,428,0,0,0,0,0,0,0,0,0,-1,1532,596,0,0
315,428,0,0,0,0,0,0,0,0,0,-1,1539,596,0,0
322,428,0,0,0,0,0,0,0,0,0,-1,1546,596,0,0
329,428,0,0,0,0,0,0,0,0,0,-1,1553,596,0,0
336,428,0,0,0,0,0,0,0,0,0,-1,1560,596,0,0
343,428,0,0,0,0,0,0,0,0,0,-1,1567,596,0,0
350,428,0,0,0,0,0,0,0,0,0,-1,1574,596,0,0
357,428,0,0,0,0,0,0,0,0,0,-1,1581,596,0,0
364,428,0,0,0,0,0,0,0,0,0,-1,1588,596,0,0
371,428,0,0,0,0,0,0,0,0,0,-1,1595,596,0,0
378,428,0,0,0,0,0,0,0,0,0,-1,1602,596,0,0
385,428,0,0,0,0,0,0,0,0,0,-1,1609,596,0,0
392,428,0,0,0,0,0,0,0,0,0,-1,1616,596,0,0
399,428,0,0,0,0,0,0,0,0,0,-1,1623,596,0,0
406,428,0,0,0,0,0,0,0,0,0,-1,1630,596,0,0
413,428,0,0,0,0,0,0,0,0,0,-1,1637,596,0,0
420,428,19.8469,1.3399,0,0,0,0,0,0,0,-1,1644,596,19.8469,-1.33992
427,428,20.7299,-0.225281,0,0,0,0,0,0,0,-1,1651,596,20.7299,0.225262
434,428,19.8915,-0.583069,0,0,0,0,0,0,0,-1,1658,596,19.8915,0.583075
441,428,8.17993,0.607483,0,0,0,0,0,0,0,-1,1665,596,8.17997,-0.607513
448,428,7.84338,-0.385986,0,0,0,0,0,0,0,-1,1672,596,7.84336,0.385978
455,428,6.64038,2.1123,0,0,0,0,0,0,0,-1,1679,596,6.64037,-2.11229
462,428,4.84106,4.12341,0,0,0,0,0,0,0,-1,1686,596,4.84107,-4.12339
469,428,7.83789,3.10083,0,0,0,0,0,0,0,-1,1693,596,7.83785,-3.10086
476,428,7.61255,1.73956,0,0,0,0,0,0,0,-1,1700,596,7.61252,-1.73958
483,428,7.22766,1.05121,0,0,0,0,0,0,0,-1,1707,596,7.2277,-1.05121
490,428,5.4071,-3.2793,0,0,0,0,0,0,0,-1,1714,596,5.40707,3.27929
497,428,7.84106,-3.65491,0,0,0,0,0,0,0,-1,1721,596,7.84107,3.65491
504,428,6.92139,-2.83356,0,0,0,0,0,0,0,-1,1728,596,6.92137,2.83353
511,428,7.88501,-3.78723,0,0,0,0,0,0,0,-1,1735,596,7.88502,3.78722
518,428,29.993,-26.0385,0,0,0,0,0,0,0,-1,1742,596,29.993,26.0384
525,428,32.5333,-26.855,0,0,0,0,0,0,0,-1,1749,596,32.5333,26.855
532,428,32.481,-25.8082,0.00241431,-0.000432878,0.000467939,0.00248924,-0.000507812,0.158788,0.00185212,0.0261024,1756,596,32.4809,25.8082
539,428,32.4368,-24.7502,0.00209358,-7.38601e-06,0.000514557,0.00221283,-0.000126639,0.227739,0.0015192,0.0243994,1763,596,32.4368,24.7502
546,428,32.3516,-23.7672,0.00186611,0.00044542,0.000585484,0.0020763,0.000235231,0.34467,0.00131283,0.0176133,1770,596,32.3516,23.7671
553,428,32.2781,-22.7584,0.00164059,0.00106699,0.000711888,0.00212128,0.000586299,0.593907,0.00126489,0.0110258,1777,596,32.278,22.7584
560,428,32.2461,-21.724,0.00142012,0.00174752,0.000932047,0.00253014,0.000637508,0.87233,0.00151951,0.0116647,1784,596,32.2461,21.724
567,428,32.1949,-20.684,0.00135248,0.00260059,0.00130536,0.00342339,0.000529672,1.00837,0.0021278,0.0120744,1791,596,32.1949,20.684
574,428,32.1234,-19.657,0.00140078,0.00356262,0.00175994,0.00454707,0.000416321,1.06079,0.00290258,0.0147349,1798,596,32.1234,19.657
581,428,32.0251,-18.6326,0.00158542,0.00464266,0.00237543,0.00593881,0.000289266,1.0713,0.00386639,0.0129573,1805,596,32.0251,18.6326
588,428,31.9453,-17.5557,0.00190284,0.00598687,0.00318307,0.00772662,0.000163089,1.0706,0.00509758,0.0193201,1812,596,31.9454,17.5556
595,428,31.8348,-16.4484,0.00242863,0.00763642,0.00418341,0.00996012,0.000104936,1.06377,0.00660538,0.0330014,1819,596,31.8349,16.4484
602,428,31.8903,-15.2794,0,0,0,0,0,0,0,-1,1826,596,31.8903,15.2794
609,428,17.2073,-4.82446,0,0,0,0,0,0,0,-1,1833,596,17.2073,4.82447
616,428,15.7817,-3.09558,0,0,0,0,0,0,0,-1,1840,596,15.7817,3.09556
623,428,9.53577,1.12518,0,0,0,0,0,0,0,-1,1847,596,9.5358,-1.1252
630,428,7.07996,6.88562,0,0,0,0,0,0,0,-1,1854,596,7.0799,-6.88565
637,428,3.95435,1.90857,0,0,0,0,0,0,0,-1,1861,596,3.95439,-1.90858
644,428,5.75476,0.888977,0,0,0,0,0,0,0,-1,1868,596,5.75472,-0.888955
651,428,0,0,0,0,0,0,0,0,0,-1,1875,596,0,0
658,428,0,0,0,0,0,0,0,0,0,-1,1882,596,0,0
665,428,0,0,0,0,0,0,0,0,0,-1,1889,596,0,0
672,428,0,0,0,0,0,0,0,0,0,-1,1896,596,0,0
679,428,0,0,0,0,0,0,0,0,0,-1,1903,596,0,0
686,428,0,0,0,0,0,0,0,0,0,-1,1910,596,0,0
693,428,0,0,0,0,0,0,0,0,0,-1,1917,596,0,0
700,428,0,0,0,0,0,0,0,0,0,-1,1924,596,0,0
707,428,0,0,0,0,0,0,0,0,0,-1,1931,596,0,0
714,428,0,0,0,0,0,0,0,0,0,-1,1938,596,0,0
721,428,0,0,0,0,0,0,0,0,0,-1,1945,596,0,0
728,428,0,0,0,0,0,0,0,0,0,-1,1952,596,0,0
735,428,0,0,0,0,0,0,0,0,0,-1,1959,596,0,0
742,428,0,0,0,0,0,0,0,0,0,-1,1966,596,0,0
749,428,0,0,0,0,0,0,0,0,0,-1,1973,596,0,0
756,428,0,0,0,0,0,0,0,0,0,-1,1980,596,0,0
763,428,0,0,0,0,0,0,0,0,0,-1,1987,596,0,0
770,428,0,0,0,0,0,0,0,0,0,-1,1994,596,0,0
777,428,0,0,0,0,0,0,0,0,0,-1,2001,596,0,0
784,428,0,0,0,0,0,0,0,0,0,-1,2008,596,0,0
791,428,0,0,0,0,0,0,0,0,0,-1,2015,596,0,0
798,428,0,0,0,0,0,0,0,0,0,-1,2022,596,0,0
805,428,0,0,0,0,0,0,0,0,0,-1,2029,596,0,0
812,428,0,0,0,0,0,0,0,0,0,-1,2036,596,0,0
-700,421,0,0,0,0,0,0,0,0,0,-1,524,603,0,0
-693,421,0,0,0,0,0,0,0,0,0,-1,531,603,0,0
-686,421,0,0,0,0,0,0,0,0,0,-1,538,603,0,0
-679,421,0,0,0,0,0,0,0,0,0,-1,545,603,0,0
-672,421,0,0,0,0,0,0,0,0,0,-1,552,603,0,0
-665,421,0,0,0,0,0,0,0,0,0,-1,559,603,0,0
-658,421,0,0,0,0,0,0,0,0,0,-1,566,603,0,0
-651,421,0,0,0,0,0,0,0,0,0,-1,573,603,0,0
-644,421,0,0,0,0,0,0,0,0,0,-1,580,603,0,0
-637,421,0,0,0,0,0,0,0,0,0,-1,587,603,0,0
-630,421,0,0,0,0,0,0,0,0,0,-1,594,603,0,0
-623,421,0,0,0,0,0,0,0,0,0,-1,601,603,0,0
-616,421,0,0,0,0,0,0,0,0,0,-1,608,603,0,0
-609,421,0,0,0,0,0,0,0,0,0,-1,615,603,0,0
-602,421,0,0,0,0,0,0,0,0,0,-1,622,603,0,0
-595,421,0,0,0,0,0,0,0,0,0,-1,629,603,0,0
-588,421,0,0,0,0,0,0,0,0,0,-1,636,603,0,0
-581,421,0,0,0,0,0,0,0,0,0,-1,643,603,0,0
-574,421,0,0,0,0,0,0,0,0,0,-1,650,603,0,0
-567,421,0,0,0,0,0,0,0,0,0,-1,657,603,0,0
-560,421,0,0,0,0,0,0,0,0,0,-1,664,603,0,0
-553,421,0,0,0,0,0,0,0,0,0,-1,671,603,0,0
-546,421,0,0,0,0,0,0,0,0,0,-1,678,603,0,0
-539,421,0,0,0,0,0,0,0,0,0,-1,685,603,0,0
-532,421,-8.97382,6.95636,0,0,0,0,0,0,0,-1,692,603,-8.97384,-6.95634
-525,421,-2.11481,-8.04272,0,0,0,0,0,0,0,-1,699,603,-2.11483,8.0427
-518,421,-3.05908,-5.07233,0,0,0,0,0,0,0,-1,706,603,-3.0591,5.07235
-511,421,-4.63525,-4.08447,0,0,0,0,0,0,0,-1,713,603,-4.63524,4.08449
-504,421,-5.17029,-4.94458,0,0,0,0,0,0,0,-1,720,603,-5.17029,4.9446
-497,421,-6.63141,-2.32501,0,0,0,0,0,0,0,-1,727,603,-6.6314,2.32498
-490,421,-6.7616,-4.14783,0,0,0,0,0,0,0,-1,734,603,-6.76159,4.1478
-483,421,-15.0606,-14.515,0,0,0,0,0,0,0,-1,741,603,-15.0606,14.5149
-476,421,-15.6187,-15.2905,0,0,0,0,0,0,0,-1,748,603,-15.6186,15.2905
-469,421,-15.7238,-16.1956,-0.00196707,0.00244241,8.33053e-05,0.00244399,-0.00196864,1.55191,0.00255255,0.0404441,755,603,-15.7237,16.1956
-462,421,-15.8011,-17.3384,-0.00128317,0.00193742,-4.79571e-05,0.00193813,-0.00128388,-1.55591,0.00187297,0.0240436,762,603,-15.8011,17.3385
-455,421,-15.8706,-18.3986,-0.000654101,0.00148615,-0.000181563,0.00150144,-0.000669394,-1.48676,0.00128365,0.0206977,769,603,-15.8706,18.3985
-448,421,-15.9562,-19.4189,-6.73346e-05,0.00110272,-0.00029378,0.00117234,-0.000136955,-1.33811,0.000830983,0.020084,776,603,-15.9562,19.4189
-441,421,-16.0104,-20.4884,0.000462122,0.000785508,-0.000388924,0.00104501,0.000202618,-0.982401,0.000639919,0.0156453,783,603,-16.0104,20.4884
-434,421,-16.0881,-21.5801,0.000899662,0.000524306,-0.000449483,0.00119907,0.000224893,-0.58763,0.000735963,0.0115493,790,603,-16.0882,21.5801
-427,421,-16.1365,-22.6227,0.0013173,0.000413742,-0.000555774,0.00158176,0.000149289,-0.444124,0.00100843,0.0105086,797,603,-16.1365,22.6227
-420,421,-16.1943,-23.6196,0.00168966,0.000346496,-0.000634837,0.00194222,9.39349e-05,-0.378639,0.00126467,0.0123428,804,603,-16.1943,23.6196
-413,421,-16.2805,-24.641,0.00194871,0.000322033,-0.000618494,0.00215716,0.000113582,-0.325073,0.00140178,0.0157451,811,603,-16.2805,24.641
-406,421,-16.4058,-25.7148,0.00217173,0.000475884,-0.000664593,0.00240115,0.000246469,-0.332389,0.00152526,0.0242681,818,603,-16.4058,25.7149
-399,421,-16.3543,-26.6909,0,0,0,0,0,0,0,-1,825,603,-16.3543,26.6909
-392,421,-16.3556,-27.9034,0,0,0,0,0,0,0,-1,832,603,-16.3556,27.9034
-385,421,-11.5825,-18.8583,0,0,0,0,0,0,0,-1,839,603,-11.5825,18.8583
-378,421,-4.94733,-8.87909,0,0,0,0,0,0,0,-1,846,603,-4.94731,8.87906
-371,421,-5.65082,-7.01849,0,0,0,0,0,0,0,-1,853,603,-5.65082,7.0185
-364,421,-5.94189,-7.09875,0,0,0,0,0,0,0,-1,860,603,-5.94192,7.09878
-357,421,-7.62531,-8.26337,0,0,0,0,0,0,0,-1,867,603,-7.62532,8.26337
-350,421,-5.38019,-3.75024,0,0,0,0,0,0,0,-1,874,603,-5.38017,3.75026
-343,421,-6.22797,-2.57123,0,0,0,0,0,0,0,-1,881,603,-6.22798,2.57121
-336,421,-6.22882,-2.59369,0,0,0,0,0,0,0,-1,888,603,-6.22883,2.5937
-329,421,-4.50134,-1.49469,0,0,0,0,0,0,0,-1,895,603,-4.50137,1.49468
-322,421,-7.55817,1.13263,0,0,0,0,0,0,0,-1,902,603,-7.55818,-1.13263
-315,421,-4.16144,-1.96649,0,0,0,0,0,0,0,-1,909,603,-4.16146,1.9665
-308,421,0,0,0,0,0,0,0,0,0,-1,916,603,0,0
-301,421,0,0,0,0,0,0,0,0,0,-1,923,603,0,0
-294,421,0,0,0,0,0,0,0,0,0,-1,930,603,0,0
-287,421,0,0,0,0,0,0,0,0,0,-1,937,603,0,0
-280,421,0,0,0,0,0,0,0,0,0,-1,944,603,0,0
-273,421,0,0,0,0,0,0,0,0,0,-1,951,603,0,0
-266,421,0,0,0,0,0,0,0,0,0,-1,958,603,0,0
-259,421,0,0,0,0,0,0,0,0,0,-1,965,603,0,0
-252,421,0,0,0,0,0,0,0,0,0,-1,972,603,0,0
-245,421,0,0,0,0,0,0,0,0,0,-1,979,603,0,0
-238,421,0,0,0,0,0,0,0,0,0,-1,986,603,0,0
-231,421,0,0,0,0,0,0,0,0,0,-1,993,603,0,0
-224,421,0,0,0,0,0,0,0,0,0,-1,1000,603,0,0
-217,421,0,0,0,0,0,0,0,0,0,-1,1007,603,0,0
-210,421,0,0,0,0,0,0,0,0,0,-1,1014,603,0,0
-203,421,0,0,0,0,0,0,0,0,0,-1,1021,603,0,0
-196,421,0,0,0,0,0,0,0,0,0,-1,1028,603,0,0
-189,421,0,0,0,0,0,0,0,0,0,-1,1035,603,0,0
-182,421,0,0,0,0,0,0,0,0,0,-1,1042,603,0,0
-175,421,0,0,0,0,0,0,0,0,0,-1,1049,603,0,0
-168,421,0,0,0,0,0,0,0,0,0,-1,1056,603,0,0
-161,421,0,0,0,0,0,0,0,0,0,-1,1063,603,0,0
-154,421,0,0,0,0,0,0,0,0,0,-1,1070,603,0,0
-147,421,0,0,0,0,0,0,0,0,0,-1,1077,603,0,0
-140,421,0,0,0,0,0,0,0,0,0,-1,1084,603,0,0
-133,421,0,0,0,0,0,0,0,0,0,-1,1091,603,0,0
-126,421,0,0,0,0,0,0,0,0,0,-1,1098,603,0,0
-119,421,0,0,0,0,0,0,0,0,0,-1,1105,603,0,0
-112,421,0,0,0,0,0,0,0,0,0,-1,1112,603,0,0
-105,421,0,0,0,0,0,0,0,0,0,-1,1119,603,0,0
-98,421,0,0,0,0,0,0,0,0,0,-1,1126,603,0,0
-91,421,0,0,0,0,0,0,0,0,0,-1,1133,603,0,0
-84,421,0,0,0,0,0,0,0,0,0,-1,1140,603,0,0
-77,421,0,0,0,0,0,0,0,0,0,-1,1147,603,0,0
-70,421,0,0,0,0,0,0,0,0,0,-1,1154,603,0,0
-63,421,0,0,0,0,0,0,0,0,0,-1,1161,603,0,0
-56,421,0,0,0,0,0,0,0,0,0,-1,1168,603,0,0
-49,421,0,0,0,0,0,0,0,0,0,-1,1175,603,0,0
-42,421,0,0,0,0,0,0,0,0,0,-1,1182,603,0,0
-35,421,0,0,0,0,0,0,0,0,0,-1,1189,603,0,0
-28,421,0,0,0,0,0,0,0,0,0,-1,1196,603,0,0
-21,421,0,0,0,0,0,0,0,0,0,-1,1203,603,0,0
-14,421,0,0,0,0,0,0,0,0,0,-1,1210,603,0,0
-7,421,0,0,0,0,0,0,0,0,0,-1,1217,603,0,0
0,421,0,0,0,0,0,0,0,0,0,-1,1224,603,0,0
7,421,0,0,0,0,0,0,0,0,0,-1,1231,603,0,0
14,421,0,0,0,0,0,0,0,0,0,-1,1238,603,0,0
21,421,0,0,0,0,0,0,0,0,0,-1,1245,603,0,0
28,421,0,0,0,0,0,0,0,0,0,-1,1252,603,0,0
35,421,0,0,0,0,0,0,0,0,0,-1,1259,603,0,0
42,421,0,0,0,0,0,0,0,0,0,-1,1266,603,0,0
49,421,0,0,0,0,0,0,0,0,0,-1,1273,603,0,0
56,421,0,0,0,0,0,0,0,0,0,-1,1280,603,0,0
63,421,0,0,0,0,0,0,0,0,0,-1,1287,603,0,0
70,421,0,0,0,0,0,0,0,0,0,-1,1294,603,0,0
77,421,0,0,0,0,0,0,0,0,0,-1,1301,603,0,0
84,421,0,0,0,0,0,0,0,0,0,-1,1308,603,0,0
91,421,0,0,0,0,0,0,0,0,0,-1,1315,603,0,0
98,421,0,0,0,0,0,0,0,0,0,-1,1322,603,0,0
105,421,0,0,0,0,0,0,0,0,0,-1,1329,603,0,0
112,421,0,0,0,0,0,0,0,0,0,-1,1336,603,0,0
119,421,0,0,0,0,0,0,0,0,0,-1,1343,603,0,0
126,421,0,0,0,0,0,0,0,0,0,-1,1350,603,0,0
133,421,0,0,0,0,0,0,0,0,0,-1,1357,603,0,0
140,421,0,0,0,0,0,0,0,0,0,-1,1364,603,0,0
147,421,0,0,0,0,0,0,0,0,0,-1,1371,603,0,0
154,421,0,0,0,0,0,0,0,0,0,-1,1378,603,0,0
161,421,0,0,0,0,0,0,0,0,0,-1,1385,603,0,0
168,421,0,0,0,0,0,0,0,0,0,-1,1392,603,0,0
175,421,0,0,0,0,0,0,0,0,0,-1,1399,603,0,0
182,421,0,0,0,0,0,0,0,0,0,-1,1406,603,0,0
189,421,0,0,0,0,0,0,0,0,0,-1,1413,603,0,0
196,421,0,0,0,0,0,0,0,0,0,-1,1420,603,0,0
203,421,0,0,0,0,0,0,0,0,0,-1,1427,603,0,0
210,421,0,0,0,0,0,0,0,0,0,-1,1434,603,0,0
217,421,0,0,0,0,0,0,0,0,0,-1,1441,603,0,0
224,421,0,0,0,0,0,0,0,0,0,-1,1448,603,0,0
231,421,0,0,0,0,0,0,0,0,0,-1,1455,603,0,0
238,421,0,0,0,0,0,0,0,0,0,-1,1462,603,0,0
245,421,0,0,0,0,0,0,0,0,0,-1,1469,603,0,0
252,421,0,0,0,0,0,0,0,0,0,-1,1476,603,0,0
259,421,0,0,0,0,0,0,0,0,0,-1,1483,603,0,0
266,421,0,0,0,0,0,0,0,0,0,-1,1490,603,0,0
273,421,0,0,0,0,0,0,0,0,0,-1,1497,603,0,0
280,421,0,0,0,0,0,0,0,0,0,-1,1504,603,0,0
287,421,0,0,0,0,0,0,0,0,0,-1,1511,603,0,0
294,421,0,0,0,0,0,0,0,0,0,-1,1518,603,0,0
301,421,0,0,0,0,0,0,0,0,0,-1,1525,603,0,0
308,421,0,0,0,0,0,0,0,0,0,-1,1532,603,0,0
315,421,0,0,0,0,0,0,0,0,0,-1,1539,603,0,0
322,421,0,0,0,0,0,0,0,0,0,-1,1546,603,0,0
329,421,0,0,0,0,0,0,0,0,0,-1,1553,603,0,0
336,421,0,0,0,0,0,0,0,0,0,-1,1560,603,0,0
343,421,0,0,0,0,0,0,0,0,0,-1,1567,603,0,0
350,421,0,0,0,0,0,0,0,0,0,-1,1574,603,0,0
357,421,0,0,0,0,0,0,0,0,0,-1,1581,603,0,0
364,421,0,0,0,0,0,0,0,0,0,-1,1588,603,0,0
371,421,0,0,0,0,0,0,0,0,0,-1,1595,603,0,0
378,421,0,0,0,0,0,0,0,0,0,-1,1602,603,0,0
385,421,0,0,0,0,0,0,0,0,0,-1,1609,603,0,0
392,421,0,0,0,0,0,0,0,0,0,-1,1616,603,0,0
399,421,0,0,0,0,0,0,0,0,0,-1,1623,603,0,0
406,421,0,0,0,0,0,0,0,0,0,-1,1630,603,0,0
413,421,0,0,0,0,0,0,0,0,0,-1,1637,603,0,0
420,421,0,0,0,0,0,0,0,0,0,-1,1644,603,0,0
427,421,0,0,0,0,0,0,0,0,0,-1,1651,603,0,0
434,421,3.68176,-0.0327759,0,0,0,0,0,0,0,-1,1658,603,3.6818,0.0328037
441,421,8.06689,0.527832,0,0,0,0,0,0,0,-1,1665,603,8.06693,-0.527851
448,421,6.93921,0.802246,0,0,0,0,0,0,0,-1,1672,603,6.93923,-0.802251
455,421,7.29456,2.14825,0,0,0,0,0,0,0,-1,1679,603,7.29461,-2.14827
462,421,7.86902,3.53174,0,0,0,0,0,0,0,-1,1686,603,7.869,-3.53173
469,421,8.06604,2.81213,0,0,0,0,0,0,0,-1,1693,603,8.06606,-2.81212
476,421,8.26306,2.09253,0,0,0,0,0,0,0,-1,1700,603,8.26312,-2.09251
483,421,8.05322,0.798096,0,0,0,0,0,0,0,-1,1707,603,8.05323,-0.7981
490,421,7.51233,0.213074,0,0,0,0,0,0,0,-1,1714,603,7.51235,-0.213043
497,421,7.49634,-2.86688,0,0,0,0,0,0,0,-1,1721,603,7.4963,2.86688
504,421,6.90491,-2.18671,0,0,0,0,0,0,0,-1,1728,603,6.90491,2.18669
511,421,6.31348,-1.50653,0,0,0,0,0,0,0,-1,1735,603,6.31353,1.5065
518,421,6.27588,-2.49878,0,0,0,0,0,0,0,-1,1742,603,6.2759,2.4988
525,421,30.6759,-25.1779,0,0,0,0,0,0,0,-1,1749,603,30.6759,25.1779
532,421,33.5653,-25.7843,0,0,0,0,0,0,0,-1,1756,603,33.5653,25.7843
539,421,33.4772,-24.7134,0.00247744,-0.000361026,0.000365529,0.00252376,-0.000407342,0.126038,0.00183343,0.0269085,1763,603,33.4772,24.7134
546,421,33.392,-23.6937,0.00220818,3.48631e-05,0.000389238,0.00227579,-3.27455e-05,0.171979,0.00152822,0.0145596,1770,603,33.3919,23.6937
553,421,33.3219,-22.661,0.00195034,0.000592589,0.000482561,0.00210438,0.000438556,0.308976,0.00128198,0.0131352,1777,603,33.3219,22.661
560,421,33.2712,-21.623,0.00165952,0.00117713,0.000659751,0.00212079,0.000715868,0.610151,0.00124579,0.0152108,1784,603,33.2712,21.623
567,421,33.2229,-20.6005,0.00149885,0.00189557,0.000984498,0.00270149,0.000692925,0.88481,0.00162019,0.0185371,1791,603,33.2228,20.6004
574,421,33.1575,-19.597,0.00148338,0.00274944,0.00141511,0.00366666,0.000566163,0.995717,0.00227928,0.0228723,1798,603,33.1574,19.597
581,421,33.0785,-18.5364,0.0016186,0.00369295,0.00201218,0.00491954,0.000392017,1.02336,0.00315714,0.0234109,1805,603,33.0785,18.5364
588,421,32.9791,-17.5436,0.00190902,0.00489107,0.00277652,0.00655158,0.000248507,1.03181,0.00428729,0.0149802,1812,603,32.9792,17.5436
595,421,32.9535,-16.4759,0.0024206,0.00633619,0.00373447,0.00859493,0.000161855,1.02683,0.00567677,0.0213387,1819,603,32.9534,16.4759
602,421,32.912,-15.3295,0,0,0,0,0,0,0,-1,1826,603,32.912,15.3295
609,421,22.8762,-8.37524,0,0,0,0,0,0,0,-1,1833,603,22.8762,8.37525
616,421,17.7633,-4.72491,0,0,0,0,0,0,0,-1,1840,603,17.7633,4.7249
623,421,6.19885,0.376648,0,0,0,0,0,0,0,-1,1847,603,6.19881,-0.376624
630,421,6.54993,0.778748,0,0,0,0,0,0,0,-1,1854,603,6.54991,-0.778744
637,421,3.74512,1.65405,0,0,0,0,0,0,0,-1,1861,603,3.74517,-1.65407
644,421,3.58081,0.354675,0,0,0,0,0,0,0,-1,1868,603,3.58082,-0.354704
651,421,3.28687,3.66351,0,0,0,0,0,0,0,-1,1875,603,3.28688,-3.66353
658,421,0,0,0,0,0,0,0,0,0,-1,1882,603,0,0
665,421,0,0,0,0,0,0,0,0,0,-1,1889,603,0,0
672,421,0,0,0,0,0,0,0,0,0,-1,1896,603,0,0
679,421,0,0,0,0,0,0,0,0,0,-1,1903,603,0,0
686,421,0,0,0,0,0,0,0,0,0,-1,1910,603,0,0
693,421,0,0,0,0,0,0,0,0,0,-1,1917,603,0,0
700,421,0,0,0,0,0,0,0,0,0,-1,1924,603,0,0
707,421,0,0,0,0,0,0,0,0,0,-1,1931,603,0,0
714,421,0,0,0,0,0,0,0,0,0,-1,1938,603,0,0
721,421,0,0,0,0,0,0,0,0,0,-1,1945,603,0,0
728,421,0,0,0,0,0,0,0,0,0,-1,1952,603,0,0
735,421,0,0,0,0,0,0,0,0,0,-1,1959,603,0,0
742,421,0,0,0,0,0,0,0,0,0,-1,1966,603,0,0
749,421,0,0,0,0,0,0,0,0,0,-1,1973,603,0,0
756,421,0,0,0,0,0,0,0,0,0,-1,1980,603,0,0
763,421,0,0,0,0,0,0,0,0,0,-1,1987,603,0,0
770,421,0,0,0,0,0,0,0,0,0,-1,1994,603,0,0
777,421,0,0,0,0,0,0,0,0,0,-1,2001,603,0,0
784,421,0,0,0,0,0,0,0,0,0,-1,2008,603,0,0
791,421,0,0,0,0,0,0,0,0,0,-1,2015,603,0,0
798,421,0,0,0,0,0,0,0,0,0,-1,2022,603,0,0
805,421,0,0,0,0,0,0,0,0,0,-1,2029,603,0,0
812,421,0,0,0,0,0,0,0,0,0,-1,2036,603,0,0
-700,414,0,0,0,0,0,0,0,0,0,-1,524,610,0,0
-693,414,0,0,0,0,0,0,0,0,0,-1,531,610,0,0
-686,414,0,0,0,0,0,0,0,0,0,-1,538,610,0,0
-679,414,0,0,0,0,0,0,0,0,0,-1,545,610,0,0
-672,414,0,0,0,0,0,0,0,0,0,-1,552,610,0,0
-665,414,0,0,0,0,0,0,0,0,0,-1,559,610,0,0
-658,414,0,0,0,0,0,0,0,0,0,-1,566,610,0,0
-651,414,0,0,0,0,0,0,0,0,0,-1,573,610,0,0
-644,414,0,0,0,0,0,0,0,0,0,-1,580,610,0,0
-637,414,0,0,0,0,0,0,0,0,0,-1,587,610,0,0
-630,414,0,0,0,0,0,0,0,0,0,-1,594,610,0,0
-623,414,0,0,0,0,0,0,0,0,0,-1,601,610,0,0
-616,414,0,0,0,0,0,0,0,0,0,-1,608,610,0,0
-609,414,0,0,0,0,0,0,0,0,0,-1,615,610,0,0
-602,414,0,0,0,0,0,0,0,0,0,-1,622,610,0,0
-595,414,0,0,0,0,0,0,0,0,0,-1,629,610,0,0
-588,414,0,0,0,0,0,0,0,0,0,-1,636,610,0,0
-581,414,0,0,0,0,0,0,0,0,0,-1,643,610,0,0
-574,414,0,0,0,0,0,0,0,0,0,-1,650,610,0,0
-567,414,0,0,0,0,0,0,0,0,0,-1,657,610,0,0
-560,414,0,0,0,0,0,0,0,0,0,-1,664,610,0,0
-553,414,0,0,0,0,0,0,0,0,0,-1,671,610,0,0
-546,414,0,0,0,0,0,0,0,0,0,-1,678,610,0,0
-539,414,-7.50146,5.65619,0,0,0,0,0,0,0,-1,685,610,-7.50149,-5.65617
-532,414,-8.15204,4.01605,0,0,0,0,0,0,0,-1,692,610,-8.15206,-4.01606
-525,414,-3.47137,-3.27924,0,0,0,0,0,0,0,-1,699,610,-3.47136,3.27922
-518,414,-4.12909,-4.36908,0,0,0,0,0,0,0,-1,706,610,-4.12909,4.36909
-511,414,-3.92542,-4.97021,0,0,0,0,0,0,0,-1,713,610,-3.92542,4.97023
-504,414,-9.35394,-5.49896,0,0,0,0,0,0,0,-1,720,610,-9.35394,5.49898
-497,414,-9.67627,-6.54761,0,0,0,0,0,0,0,-1,727,610,-9.6763,6.5476
-490,414,-15.2787,-11.9947,0,0,0,0,0,0,0,-1,734,610,-15.2787,11.9947
-483,414,-16.4753,-14.1664,0,0,0,0,0,0,0,-1,741,610,-16.4753,14.1664
-476,414,-16.6915,-15.2101,-0.00147955,0.00229831,-0.000174434,0.00230634,-0.00148759,-1.52475,0.00220736,0.0276087,748,610,-16.6915,15.2101
-469,414,-16.796,-16.2238,-0.00115077,0.00179721,-0.000170002,0.00180698,-0.00116054,-1.51338,0.0017268,0.016348,755,610,-16.796,16.2238
-462,414,-16.8464,-17.278,-0.000644599,0.00133592,-0.000217997,0.00135964,-0.00066831,-1.46245,0.0011933,0.024208,762,610,-16.8463,17.2779
-455,414,-16.939,-18.3209,-0.000138075,0.00094708,-0.000294251,0.00102173,-0.000212728,-1.32233,0.000762028,0.0259108,769,610,-16.939,18.3208
-448,414,-16.9865,-19.3696,0.000390374,0.000615879,-0.00038587,0.000905133,0.000101121,-0.927542,0.000572699,0.0263616,776,610,-16.9864,19.3696
-441,414,-17.0244,-20.4483,0.000903497,0.000377134,-0.000488974,0.00119562,8.5014e-05,-0.538516,0.000770306,0.0193296,783,610,-17.0244,20.4483
-434,414,-17.1384,-21.5005,0.00137311,0.000215532,-0.000589791,0.00162067,-3.20267e-05,-0.397407,0.00109128,0.0113245,790,610,-17.1384,21.5005
-427,414,-17.1957,-22.5375,0.00184455,0.000219231,-0.000754122,0.00214054,-7.6765e-05,-0.374028,0.00145329,0.0116676,797,610,-17.1958,22.5375
-420,414,-17.258,-23.546,0.00228476,0.000277115,-0.000917468,0.00264087,-7.89923e-05,-0.370241,0.00178749,0.0113649,804,610,-17.258,23.546
-413,414,-17.3429,-24.5979,0.00260315,0.000471943,-0.000970419,0.0029788,9.6289e-05,-0.369341,0.00195456,0.0128507,811,610,-17.3429,24.5979
-406,414,-17.436,-25.6525,0,0,0,0,0,0,0,-1,818,610,-17.4361,25.6525
-399,414,-17.3283,-26.616,0,0,0,0,0,0,0,-1,825,610,-17.3283,26.616
-392,414,-9.43781,-14.5624,0,0,0,0,0,0,0,-1,832,610,-9.43779,14.5624
-385,414,-8.14691,-13.0653,0,0,0,0,0,0,0,-1,839,610,-8.14692,13.0653
-378,414,-8.04907,-11.3331,0,0,0,0,0,0,0,-1,846,610,-8.04905,11.3331
-371,414,-5.20886,-8.05151,0,0,0,0,0,0,0,-1,853,610,-5.20887,8.05153
-364,414,-6.76282,-6.58759,0,0,0,0,0,0,0,-1,860,610,-6.7628,6.58756
-357,414,-9.08685,-8.86188,0,0,0,0,0,0,0,-1,867,610,-9.08688,8.86187
-350,414,-6.4502,-2.41821,0,0,0,0,0,0,0,-1,874,610,-6.45021,2.41822
-343,414,-6.80249,-2.32117,0,0,0,0,0,0,0,-1,881,610,-6.80252,2.32116
-336,414,-7.11017,-2.52026,0,0,0,0,0,0,0,-1,888,610,-7.11016,2.52026
-329,414,-7.59747,-2.70313,0,0,0,0,0,0,0,-1,895,610,-7.59747,2.70315
-322,414,-4.42236,-1.29163,0,0,0,0,0,0,0,-1,902,610,-4.42238,1.2916
-315,414,0,0,0,0,0,0,0,0,0,-1,909,610,0,0
-308,414,0,0,0,0,0,0,0,0,0,-1,916,610,0,0
-301,414,0,0,0,0,0,0,0,0,0,-1,923,610,0,0
-294,414,0,0,0,0,0,0,0,0,0,-1,930,610,0,0
-287,414,0,0,0,0,0,0,0,0,0,-1,937,610,0,0
-280,414,0,0,0,0,0,0,0,0,0,-1,944,610,0,0
-273,414,0,0,0,0,0,0,0,0,0,-1,951,610,0,0
-266,414,0,0,0,0,0,0,0,0,0,-1,958,610,0,0
-259,414,0,0,0,0,0,0,0,0,0,-1,965,610,0,0
-252,414,0,0,0,0,0,0,0,0,0,-1,972,610,0,0
-245,414,0,0,0,0,0,0,0,0,0,-1,979,610,0,0
-238,414,0,0,0,0,0,0,0,0,0,-1,986,610,0,0
-231,414,0,0,0,0,0,0,0,0,0,-1,993,610,0,0
-224,414,0,0,0,0,0,0,0,0,0,-1,1000,610,0,0
-217,414,0,0,0,0,0,0,0,0,0,-1,1007,610,0,0
-210,414,0,0,0,0,0,0,0,0,0,-1,1014,610,0,0
-203,414,0,0,0,0,0,0,0,0,0,-1,1021,610,0,0
-196,414,0,0,0,0,0,0,0,0,0,-1,1028,610,0,0
-189,414,0,0,0,0,0,0,0,0,0,-1,1035,610,0,0
-182,414,0,0,0,0,0,0,0,0,0,-1,1042,610,0,0
-175,414,0,0,0,0,0,0,0,0,0,-1,1049,610,0,0
-168,414,0,0,0,0,0,0,0,0,0,-1,1056,610,0,0
-161,414,0,0,0,0,0,0,0,0,0,-1,1063,610,0,0
-154,414,0,0,0,0,0,0,0,0,0,-1,1070,610,0,0
-147,414,0,0,0,0,0,0,0,0,0,-1,1077,610,0,0
-140,414,0,0,0,0,0,0,0,0,0,-1,1084,610,0,0
-133,414,0,0,0,0,0,0,0,0,0,-1,1091,610,0,0
-126,414,0,0,0,0,0,0,0,0,0,-1,1098,610,0,0
-119,414,0,0,0,0,0,0,0,0,0,-1,1105,610,0,0
-112,414,0,0,0,0,0,0,0,0,0,-1,1112,610,0,0
-105,414,0,0,0,0,0,0,0,0,0,-1,1119,610,0,0
-98,414,0,0,0,0,0,0,0,0,0,-1,1126,610,0,0
-91,414,0,0,0,0,0,0,0,0,0,-1,1133,610,0,0
-84,414,0,0,0,0,0,0,0,0,0,-1,1140,610,0,0
-77,414,0,0,0,0,0,0,0,0,0,-1,1147,610,0,0
-70,414,0,0,0,0,0,0,0,0,0,-1,1154,610,0,0
-63,414,0,0,0,0,0,0,0,0,0,-1,1161,610,0,0
-56,414,0,0,0,0,0,0,0,0,0,-1,1168,610,0,0
-49,414,0,0,0,0,0,0,0,0,0,-1,1175,610,0,0
-42,414,0,0,0,0,0,0,0,0,0,-1,1182,610,0,0
-35,414,0,0,0,0,0,0,0,0,0,-1,1189,610,0,0
-28,414,0,0,0,0,0,0,0,0,0,-1,1196,610,0,0
-21,414,0,0,0,0,0,0,0,0,0,-1,1203,610,0,0
-14,414,0,0,0,0,0,0,0,0,0,-1,1210,610,0,0
-7,414,0,0,0,0,0,0,0,0,0,-1,1217,610,0,0
0,414,0,0,0,0,0,0,0,0,0,-1,1224,610,0,0
7,414,0,0,0,0,0,0,0,0,0,-1,1231,610,0,0
14,414,0,0,0,0,0,0,0,0,0,-1,1238,610,0,0
21,414,0,0,0,0,0,0,0,0,0,-1,1245,610,0,0
28,414,0,0,0,0,0,0,0,0,0,-1,1252,610,0,0
35,414,0,0,0,0,0,0,0,0,0,-1,1259,610,0,0
42,414,0,0,0,0,0,0,0,0,0,-1,1266,610,0,0
49,414,0,0,0,0,0,0,0,0,0,-1,1273,610,0,0
56,414,0,0,0,0,0,0,0,0,0,-1,1280,610,0,0
63,414,0,0,0,0,0,0,0,0,0,-1,1287,610,0,0
70,414,0,0,0,0,0,0,0,0,0,-1,1294,610,0,0
77,414,0,0,0,0,0,0,0,0,0,-1,1301,610,0,0
84,414,0,0,0,0,0,0,0,0,0,-1,1308,610,0,0
91,414,0,0,0,0,0,0,0,0,0,-1,1315,610,0,0
98,414,0,0,0,0,0,0,0,0,0,-1,1322,610,0,0
105,414,0,0,0,0,0,0,0,0,0,-1,1329,610,0,0
112,414,0,0,0,0,0,0,0,0,0,-1,1336,610,0,0
119,414,0,0,0,0,0,0,0,0,0,-1,1343,610,0,0
126,414,0,0,0,0,0,0,0,0,0,-1,1350,610,0,0
133,414,0,0,0,0,0,0,0,0,0,-1,1357,610,0,0
140,414,0,0,0,0,0,0,0,0,0,-1,1364,610,0,0
147,414,0,0,0,0,0,0,0,0,0,-1,1371,610,0,0
154,414,0,0,0,0,0,0,0,0,0,-1,1378,610,0,0
161,414,0,0,0,0,0,0,0,0,0,-1,1385,610,0,0
168,414,0,0,0,0,0,0,0,0,0,-1,1392,610,0,0
175,414,0,0,0,0,0,0,0,0,0,-1,1399,610,0,0
182,414,0,0,0,0,0,0,0,0,0,-1,1406,610,0,0
189,414,0,0,0,0,0,0,0,0,0,-1,1413,610,0,0
196,414,0,0,0,0,0,0,0,0,0,-1,1420,610,0,0
203,414,0,0,0,0,0,0,0,0,0,-1,1427,610,0,0
210,414,0,0,0,0,0,0,0,0,0,-1,1434,610,0,0
217,414,0,0,0,0,0,0,0,0,0,-1,1441,610,0,0
224,414,0,0,0,0,0,0,0,0,0,-1,1448,610,0,0
231,414,0,0,0,0,0,0,0,0,0,-1,1455,610,0,0
238,414,0,0,0,0,0,0,0,0,0,-1,1462,610,0,0
245,414,0,0,0,0,0,0,0,0,0,-1,1469,610,0,0
252,414,0,0,0,0,0,0,0,0,0,-1,1476,610,0,0
259,414,0,0,0,0,0,0,0,0,0,-1,1483,610,0,0
266,414,0,0,0,0,0,0,0,0,0,-1,1490,610,0,0
273,414,0,0,0,0,0,0,0,0,0,-1,1497,610,0,0
280,414,0,0,0,0,0,0,0,0,0,-1,1504,610,0,0
287,414,0,0,0,0,0,0,0,0,0,-1,1511,610,0,0
294,414,0,0,0,0,0,0,0,0,0,-1,1518,610,0,0
301,414,0,0,0,0,0,0,0,0,0,-1,1525,610,0,0
308,414,0,0,0,0,0,0,0,0,0,-1,1532,610,0,0
315,414,0,0,0,0,0,0,0,0,0,-1,1539,610,0,0
322,414,0,0,0,0,0,0,0,0,0,-1,1546,610,0,0
329,414,0,0,0,0,0,0,0,0,0,-1,1553,610,0,0
336,414,0,0,0,0,0,0,0,0,0,-1,1560,610,0,0
343,414,0,0,0,0,0,0,0,0,0,-1,1567,610,0,0
350,414,0,0,0,0,0,0,0,0,0,-1,1574,610,0,0
357,414,0,0,0,0,0,0,0,0,0,-1,1581,610,0,0
364,414,0,0,0,0,0,0,0,0,0,-1,1588,610,0,0
371,414,0,0,0,0,0,0,0,0,0,-1,1595,610,0,0
378,414,0,0,0,0,0,0,0,0,0,-1,1602,610,0,0
385,414,0,0,0,0,0,0,0,0,0,-1,1609,610,0,0
392,414,0,0,0,0,0,0,0,0,0,-1,1616,610,0,0
399,414,0,0,0,0,0,0,0,0,0,-1,1623,610,0,0
406,414,0,0,0,0,0,0,0,0,0,-1,1630,610,0,0
413,414,0,0,0,0,0,0,0,0,0,-1,1637,610,0,0
420,414,0,0,0,0,0,0,0,0,0,-1,1644,610,0,0
427,414,0,0,0,0,0,0,0,0,0,-1,1651,610,0,0
434,414,0,0,0,0,0,0,0,0,0,-1,1658,610,0,0
441,414,7.84375,0.584412,0,0,0,0,0,0,0,-1,1665,610,7.84379,-0.584394
448,414,7.40808,1.25446,0,0,0,0,0,0,0,-1,1672,610,7.40807,-1.25446
455,414,6.3512,1.73846,0,0,0,0,0,0,0,-1,1679,610,6.3512,-1.73847
462,414,8.18103,3.22113,0,0,0,0,0,0,0,-1,1686,610,8.18108,-3.22112
469,414,8.38513,2.49579,0,0,0,0,0,0,0,-1,1693,610,8.38516,-2.49576
476,414,8.64099,1.71161,0,0,0,0,0,0,0,-1,1700,610,8.64097,-1.71164
483,414,8.62744,0.687622,0,0,0,0,0,0,0,-1,1707,610,8.62749,-0.687615
490,414,8.38831,-0.0302734,0,0,0,0,0,0,0,-1,1714,610,8.38835,0.0302913
497,414,4.71094,-0.110046,0,0,0,0,0,0,0,-1,1721,610,4.71089,0.110024
504,414,7.19568,-1.43835,0,0,0,0,0,0,0,-1,1728,610,7.19563,1.43836
511,414,5.94153,-1.28772,0,0,0,0,0,0,0,-1,1735,610,5.94151,1.28769
518,414,4.53381,-0.0996704,0,0,0,0,0,0,0,-1,1742,610,4.53378,0.0996819
525,414,6.18811,-1.64056,0,0,0,0,0,0,0,-1,1749,610,6.18814,1.64055
532,414,32.4541,-24.196,0,0,0,0,0,0,0,-1,1756,610,32.4541,24.196
539,414,34.5186,-24.6617,0,0,0,0,0,0,0,-1,1763,610,34.5186,24.6617
546,414,34.4121,-23.6216,0.00270845,-0.000227417,0.000338689,0.00274702,-0.000265983,0.113378,0.00192614,0.0188173,1770,610,34.4121,23.6216
553,414,34.3657,-22.5986,0.00234953,0.000216163,0.000382838,0.00241615,0.000149542,0.172293,0.00156331,0.0144961,1777,610,34.3658,22.5986
560,414,34.3199,-21.575,0.00193367,0.000661474,0.000489444,0.00210018,0.000494966,0.327916,0.00126776,0.0167531,1784,610,34.3199,21.575
567,414,34.2485,-20.5226,0.00162831,0.00120348,0.000725288,0.00217165,0.00066014,0.642946,0.00128552,0.0264067,1791,610,34.2485,20.5226
574,414,34.158,-19.4995,0.00151195,0.00193484,0.00109513,0.00283875,0.000608032,0.880763,0.0017259,0.0261728,1798,610,34.1579,19.4995
581,414,34.0991,-18.4764,0.00156606,0.00276158,0.00162681,0.00389697,0.000430663,0.961462,0.00246699,0.0229129,1805,610,34.0991,18.4764
588,414,34.0205,-17.4683,0.00179545,0.00384021,0.00230051,0.00533529,0.000300373,0.994498,0.00346108,0.0205645,1812,610,34.0205,17.4683
595,414,33.9314,-16.3389,0.00226292,0.00514601,0.00315926,0.00717707,0.000231863,0.999435,0.00470933,0.0218464,1819,610,33.9313,16.3389
602,414,33.823,-15.2993,0.00302944,0.00681297,0.00422533,0.00955069,0.000291714,0.995876,0.00627215,0.029789,1826,610,33.823,15.2993
609,414,33.7643,-14.2249,0,0,0,0,0,0,0,-1,1833,610,33.7642,14.2248
616,414,34.1351,-12.756,0,0,0,0,0,0,0,-1,1840,610,34.1352,12.756
623,414,9.6969,0.0378418,0,0,0,0,0,0,0,-1,1847,610,9.69685,-0.0378644
630,414,5.47144,0.499329,0,0,0,0,0,0,0,-1,1854,610,5.47142,-0.499303
637,414,8.36707,4.16278,0,0,0,0,0,0,0,-1,1861,610,8.36709,-4.16278
644,414,5.87073,1.51422,0,0,0,0,0,0,0,-1,1868,610,5.87076,-1.51424
651,414,3.6377,0.820557,0,0,0,0,0,0,0,-1,1875,610,3.6377,-0.820543
658,414,2.29761,3.87323,0,0,0,0,0,0,0,-1,1882,610,2.29758,-3.87325
665,414,0,0,0,0,0,0,0,0,0,-1,1889,610,0,0
672,414,0,0,0,0,0,0,0,0,0,-1,1896,610,0,0
679,414,0,0,0,0,0,0,0,0,0,-1,1903,610,0,0
686,414,0,0,0,0,0,0,0,0,0,-1,1910,610,0,0
693,414,0,0,0,0,0,0,0,0,0,-1,1917,610,0,0
700,414,0,0,0,0,0,0,0,0,0,-1,1924,610,0,0
707,414,0,0,0,0,0,0,0,0,0,-1,1931,610,0,0
714,414,0,0,0,0,0,0,0,0,0,-1,1938,610,0,0
721,414,0,0,0,0,0,0,0,0,0,-1,1945,610,0,0
728,414,0,0,0,0,0,0,0,0,0,-1,1952,610,0,0
735,414,0,0,0,0,0,0,0,0,0,-1,1959,610,0,0
742,414,0,0,0,0,0,0,0,0,0,-1,1966,610,0,0
749,414,0,0,0,0,0,0,0,0,0,-1,1973,610,0,0
756,414,0,0,0,0,0,0,0,0,0,-1,1980,610,0,0
763,414,0,0,0,0,0,0,0,0,0,-1,1987,610,0,0
770,414,0,0,0,0,0,0,0,0,0,-1,1994,610,0,0
777,414,0,0,0,0,0,0,0,0,0,-1,2001,610,0,0
784,414,0,0,0,0,0,0,0,0,0,-1,2008,610,0,0
791,414,0,0,0,0,0,0,0,0,0,-1,2015,610,0,0
798,414,0,0,0,0,0,0,0,0,0,-1,2022,610,0,0
805,414,0,0,0,0,0,0,0,0,0,-1,2029,610,0,0
812,414,0,0,0,0,0,0,0,0,0,-1,2036,610,0,0
-700,407,0,0,0,0,0,0,0,0,0,-1,524,617,0,0
-693,407,0,0,0,0,0,0,0,0,0,-1,531,617,0,0
-686,407,0,0,0,0,0,0,0,0,0,-1,538,617,0,0
-679,407,0,0,0,0,0,0,0,0,0,-1,545,617,0,0
-672,407,0,0,0,0,0,0,0,0,0,-1,552,617,0,0
-665,407,0,0,0,0,0,0,0,0,0,-1,559,617,0,0
-658,407,0,0,0,0,0,0,0,0,0,-1,566,617,0,0
-651,407,0,0,0,0,0,0,0,0,0,-1,573,617,0,0
-644,407,0,0,0,0,0,0,0,0,0,-1,580,617,0,0
-637,407,0,0,0,0,0,0,0,0,0,-1,587,617,0,0
-630,407,0,0,0,0,0,0,0,0,0,-1,594,617,0,0
-623,407,0,0,0,0,0,0,0,0,0,-1,601,617,0,0
-616,407,0,0,0,0,0,0,0,0,0,-1,608,617,0,0
-609,407,0,0,0,0,0,0,0,0,0,-1,615,617,0,0
-602,407,0,0,0,0,0,0,0,0,0,-1,622,617,0,0
-595,407,0,0,0,0,0,0,0,0,0,-1,629,617,0,0
-588,407,0,0,0,0,0,0,0,0,0,-1,636,617,0,0
-581,407,0,0,0,0,0,0,0,0,0,-1,643,617,0,0
-574,407,0,0,0,0,0,0,0,0,0,-1,650,617,0,0
-567,407,0,0,0,0,0,0,0,0,0,-1,657,617,0,0
-560,407,0,0,0,0,0,0,0,0,0,-1,664,617,0,0
-553,407,0,0,0,0,0,0,0,0,0,-1,671,617,0,0
-546,407,-8.54517,-0.658142,0,0,0,0,0,0,0,-1,678,617,-8.54515,0.658112
-539,407,-6.09442,-1.01154,0,0,0,0,0,0,0,-1,685,617,-6.09441,1.01155
-532,407,-7.75665,1.62152,0,0,0,0,0,0,0,-1,692,617,-7.75667,-1.62154
-525,407,-3.78247,-2.67639,0,0,0,0,0,0,0,-1,699,617,-3.78246,2.67638
-518,407,-5.013,-5.87323,0,0,0,0,0,0,0,-1,706,617,-5.013,5.87324
-511,407,-9.42743,-4.94189,0,0,0,0,0,0,0,-1,713,617,-9.42745,4.94191
-504,407,-10.8291,-8.05927,0,0,0,0,0,0,0,-1,720,617,-10.8291,8.05927
-497,407,-9.84467,-6.81641,0,0,0,0,0,0,0,-1,727,617,-9.84468,6.8164
-490,407,-17.6675,-12.6508,0,0,0,0,0,0,0,-1,734,617,-17.6675,12.6508
-483,407,-17.5951,-14.0312,-0.000663342,0.00208251,-0.00055897,0.00219194,-0.00077277,-1.37747,0.00177584,0.0336147,741,617,-17.5951,14.0312
-476,407,-17.6992,-15.0703,-0.000667897,0.00167495,-0.000417537,0.00174713,-0.000740085,-1.3996,0.00147471,0.0170614,748,617,-17.6992,15.0702
-469,407,-17.7971,-16.1209,-0.00044317,0.00125004,-0.000356317,0.00132197,-0.000515098,-1.37161,0.0010942,0.0142031,755,617,-17.7971,16.1209
-462,407,-17.9034,-17.1899,-5.80974e-05,0.000864803,-0.000365417,0.000991966,-0.000185261,-1.23591,0.000730932,0.0207455,762,617,-17.9034,17.19
-455,407,-17.9823,-18.2665,0.000368861,0.000552925,-0.00042016,0.000891015,3.07715e-05,-0.893215,0.000584023,0.0227222,769,617,-17.9823,18.2665
-448,407,-17.9944,-19.311,0.000862076,0.000292734,-0.000517028,0.00116762,-1.28109e-05,-0.53375,0.00078272,0.0213468,776,617,-17.9944,19.311
-441,407,-18.0715,-20.3228,0.00137506,0.000132668,-0.000646314,0.00165031,-0.000142577,-0.402606,0.00115068,0.016911,783,617,-18.0715,20.3228
-434,407,-18.2082,-21.3675,0.00189804,6.60854e-05,-0.000808243,0.00220364,-0.000239523,-0.361499,0.0015551,0.0127763,790,617,-18.2082,21.3675
-427,407,-18.2645,-22.4218,0.00243715,0.000141397,-0.00103854,0.00283724,-0.000258686,-0.367716,0.00198335,0.0126245,797,617,-18.2644,22.4218
-420,407,-18.2955,-23.452,0.00295169,0.000251653,-0.00129572,0.00347289,-0.00026954,-0.382438,0.00241013,0.0113178,804,617,-18.2955,23.452
-413,407,-18.3607,-24.5098,0.00334515,0.000584942,-0.00142728,0.00395044,-2.03543e-05,-0.401101,0.00264044,0.0216183,811,617,-18.3607,24.5099
-406,407,-18.4139,-25.5853,0,0,0,0,0,0,0,-1,818,617,-18.4139,25.5853
-399,407,-16.5686,-23.1791,0,0,0,0,0,0,0,-1,825,617,-16.5686,23.1791
-392,407,-8.33612,-12.195,0,0,0,0,0,0,0,-1,832,617,-8.33611,12.195
-385,407,-7.65765,-10.7744,0,0,0,0,0,0,0,-1,839,617,-7.65767,10.7744
-378,407,-6.08655,-7.42291,0,0,0,0,0,0,0,-1,846,617,-6.08652,7.42292
-371,407,-7.4007,-5.79449,0,0,0,0,0,0,0,-1,853,617,-7.40072,5.79447
-364,407,-10.0638,-6.6228,0,0,0,0,0,0,0,-1,860,617,-10.0639,6.62279
-357,407,-6.64447,-1.83337,0,0,0,0,0,0,0,-1,867,617,-6.64446,1.8334
-350,407,-7.03351,-1.77551,0,0,0,0,0,0,0,-1,874,617,-7.03349,1.77551
-343,407,-7.40967,-1.95026,0,0,0,0,0,0,0,-1,881,617,-7.40969,1.95026
-336,407,-8.10229,-2.40662,0,0,0,0,0,0,0,-1,888,617,-8.10229,2.40664
-329,407,-8.81232,-2.76331,0,0,0,0,0,0,0,-1,895,617,-8.81235,2.76331
-322,407,0,0,0,0,0,0,0,0,0,-1,902,617,0,0
-315,407,0,0,0,0,0,0,0,0,0,-1,909,617,0,0
-308,407,0,0,0,0,0,0,0,0,0,-1,916,617,0,0
-301,407,0,0,0,0,0,0,0,0,0,-1,923,617,0,0
-294,407,0,0,0,0,0,0,0,0,0,-1,930,617,0,0
-287,407,0,0,0,0,0,0,0,0,0,-1,937,617,0,0
-280,407,0,0,0,0,0,0,0,0,0,-1,944,617,0,0
-273,407,0,0,0,0,0,0,0,0,0,-1,951,617,0,0
-266,407,0,0,0,0,0,0,0,0,0,-1,958,617,0,0
-259,407,0,0,0,0,0,0,0,0,0,-1,965,617,0,0
-252,407,0,0,0,0,0,0,0,0,0,-1,972,617,0,0
-245,407,0,0,0,0,0,0,0,0,0,-1,979,617,0,0
-238,407,0,0,0,0,0,0,0,0,0,-1,986,617,0,0
-231,407,0,0,0,0,0,0,0,0,0,-1,993,617,0,0
-224,407,0,0,0,0,0,0,0,0,0,-1,1000,617,0,0
-217,407,0,0,0,0,0,0,0,0,0,-1,1007,617,0,0
-210,407,0,0,0,0,0,0,0,0,0,-1,1014,617,0,0
-203,407,0,0,0,0,0,0,0,0,0,-1,1021,617,0,0
-196,407,0,0,0,0,0,0,0,0,0,-1,1028,617,0,0
-189,407,0,0,0,0,0,0,0,0,0,-1,1035,617,0,0
-182,407,0,0,0,0,0,0,0,0,0,-1,1042,617,0,0
-175,407,0,0,0,0,0,0,0,0,0,-1,1049,617,0,0
-168,407,0,0,0,0,0,0,0,0,0,-1,1056,617,0,0
-161,407,0,0,0,0,0,0,0,0,0,-1,1063,617,0,0
-154,407,0,0,0,0,0,0,0,0,0,-1,1070,617,0,0
-147,407,0,0,0,0,0,0,0,0,0,-1,1077,617,0,0
-140,407,0,0,0,0,0,0,0,0,0,-1,1084,617,0,0
-133,407,0,0,0,0,0,0,0,0,0,-1,1091,617,0,0
-126,407,0,0,0,0,0,0,0,0,0,-1,1098,617,0,0
-119,407,0,0,0,0,0,0,0,0,0,-1,1105,617,0,0
-112,407,0,0,0,0,0,0,0,0,0,-1,1112,617,0,0
-105,407,0,0,0,0,0,0,0,0,0,-1,1119,617,0,0
-98,407,0,0,0,0,0,0,0,0,0,-1,1126,617,0,0
-91,407,0,0,0,0,0,0,0,0,0,-1,1133,617,0,0
-84,407,0,0,0,0,0,0,0,0,0,-1,1140,617,0,0
-77,407,0,0,0,0,0,0,0,0,0,-1,1147,617,0,0
-70,407,0,0,0,0,0,0,0,0,0,-1,1154,617,0,0
-63,407,0,0,0,0,0,0,0,0,0,-1,1161,617,0,0
-56,407,0,0,0,0,0,0,0,0,0,-1,1168,617,0,0
-49,407,0,0,0,0,0,0,0,0,0,-1,1175,617,0,0
-42,407,0,0,0,0,0,0,0,0,0,-1,1182,617,0,0
-35,407,0,0,0,0,0,0,0,0,0,-1,1189,617,0,0
-28,407,0,0,0,0,0,0,0,0,0,-1,1196,617,0,0
-21,407,0,0,0,0,0,0,0,0,0,-1,1203,617,0,0
-14,407,0,0,0,0,0,0,0,0,0,-1,1210,617,0,0
-7,407,0,0,0,0,0,0,0,0,0,-1,1217,617,0,0
0,407,0,0,0,0,0,0,0,0,0,-1,1224,617,0,0
7,407,0,0,0,0,0,0,0,0,0,-1,1231,617,0,0
14,407,0,0,0,0,0,0,0,0,0,-1,1238,617,0,0
21,407,0,0,0,0,0,0,0,0,0,-1,1245,617,0,0
28,407,0,0,0,0,0,0,0,0,0,-1,1252,617,0,0
35,407,0,0,0,0,0,0,0,0,0,-1,1259,617,0,0
42,407,0,0,0,0,0,0,0,0,0,-1,1266,617,0,0
49,407,0,0,0,0,0,0,0,0,0,-1,1273,617,0,0
56,407,0,0,0,0,0,0,0,0,0,-1,1280,617,0,0
63,407,0,0,0,0,0,0,0,0,0,-1,1287,617,0,0
70,407,0,0,0,0,0,0,0,0,0,-1,1294,617,0,0
77,407,0,0,0,0,0,0,0,0,0,-1,1301,617,0,0
84,407,0,0,0,0,0,0,0,0,0,-1,1308,617,0,0
91,407,0,0,0,0,0,0,0,0,0,-1,1315,617,0,0
98,407,0,0,0,0,0,0,0,0,0,-1,1322,617,0,0
105,407,0,0,0,0,0,0,0,0,0,-1,1329,617,0,0
112,407,0,0,0,0,0,0,0,0,0,-1,1336,617,0,0
119,407,0,0,0,0,0,0,0,0,0,-1,1343,617,0,0
126,407,0,0,0,0,0,0,0,0,0,-1,1350,617,0,0
133,407,0,0,0,0,0,0,0,0,0,-1,1357,617,0,0
140,407,0,0,0,0,0,0,0,0,0,-1,1364,617,0,0
147,407,0,0,0,0,0,0,0,0,0,-1,1371,617,0,0
154,407,0,0,0,0,0,0,0,0,0,-1,1378,617,0,0
161,407,0,0,0,0,0,0,0,0,0,-1,1385,617,0,0
168,407,0,0,0,0,0,0,0,0,0,-1,1392,617,0,0
175,407,0,0,0,0,0,0,0,0,0,-1,1399,617,0,0
182,407,0,0,0,0,0,0,0,0,0,-1,1406,617,0,0
189,407,0,0,0,0,0,0,0,0,0,-1,1413,617,0,0
196,407,0,0,0,0,0,0,0,0,0,-1,1420,617,0,0
203,407,0,0,0,0,0,0,0,0,0,-1,1427,617,0,0
210,407,0,0,0,0,0,0,0,0,0,-1,1434,617,0,0
217,407,0,0,0,0,0,0,0,0,0,-1,1441,617,0,0
224,407,0,0,0,0,0,0,0,0,0,-1,1448,617,0,0
231,407,0,0,0,0,0,0,0,0,0,-1,1455,617,0,0
238,407,0,0,0,0,0,0,0,0,0,-1,1462,617,0,0
245,407,0,0,0,0,0,0,0,0,0,-1,1469,617,0,0
252,407,0,0,0,0,0,0,0,0,0,-1,1476,617,0,0
259,407,0,0,0,0,0,0,0,0,0,-1,1483,617,0,0
266,407,0,0,0,0,0,0,0,0,0,-1,1490,617,0,0
273,407,0,0,0,0,0,0,0,0,0,-1,1497,617,0,0
280,407,0,0,0,0,0,0,0,0,0,-1,1504,617,0,0
287,407,0,0,0,0,0,0,0,0,0,-1,1511,617,0,0
294,407,0,0,0,0,0,0,0,0,0,-1,1518,617,0,0
301,407,0,0,0,0,0,0,0,0,0,-1,1525,617,0,0
308,407,0,0,0,0,0,0,0,0,0,-1,1532,617,0,0
315,407,0,0,0,0,0,0,0,0,0,-1,1539,617,0,0
322,407,0,0,0,0,0,0,0,0,0,-1,1546,617,0,0
329,407,0,0,0,0,0,0,0,0,0,-1,1553,617,0,0
336,407,0,0,0,0,0,0,0,0,0,-1,1560,617,0,0
343,407,0,0,0,0,0,0,0,0,0,-1,1567,617,0,0
350,407,0,0,0,0,0,0,0,0,0,-1,1574,617,0,0
357,407,0,0,0,0,0,0,0,0,0,-1,1581,617,0,0
364,407,0,0,0,0,0,0,0,0,0,-1,1588,617,0,0
371,407,0,0,0,0,0,0,0,0,0,-1,1595,617,0,0
378,407,0,0,0,0,0,0,0,0,0,-1,1602,617,0,0
385,407,0,0,0,0,0,0,0,0,0,-1,1609,617,0,0
392,407,0,0,0,0,0,0,0,0,0,-1,1616,617,0,0
399,407,0,0,0,0,0,0,0,0,0,-1,1623,617,0,0
406,407,0,0,0,0,0,0,0,0,0,-1,1630,617,0,0
413,407,0,0,0,0,0,0,0,0,0,-1,1637,617,0,0
420,407,0,0,0,0,0,0,0,0,0,-1,1644,617,0,0
427,407,0,0,0,0,0,0,0,0,0,-1,1651,617,0,0
434,407,0,0,0,0,0,0,0,0,0,-1,1658,617,0,0
441,407,0,0,0,0,0,0,0,0,0,-1,1665,617,0,0
448,407,7.02893,2.13843,0,0,0,0,0,0,0,-1,1672,617,7.02899,-2.13844
455,407,7.55237,2.29242,0,0,0,0,0,0,0,-1,1679,617,7.55236,-2.29244
462,407,8.2926,2.46173,0,0,0,0,0,0,0,-1,1686,617,8.29261,-2.46174
469,407,8.71509,2.22681,0,0,0,0,0,0,0,-1,1693,617,8.71511,-2.22681
476,407,8.89917,1.47766,0,0,0,0,0,0,0,-1,1700,617,8.89914,-1.47768
483,407,9.02612,0.682983,0,0,0,0,0,0,0,-1,1707,617,9.02608,-0.683004
490,407,9.12659,0.000671387,0,0,0,0,0,0,0,-1,1714,617,9.12653,-0.000675931
497,407,7.76819,0.855835,0,0,0,0,0,0,0,-1,1721,617,7.7682,-0.855865
504,407,4.69336,0.160706,0,0,0,0,0,0,0,-1,1728,617,4.69337,-0.1607
511,407,4.07104,-0.00140381,0,0,0,0,0,0,0,-1,1735,617,4.07109,0.00141425
518,407,6.09534,1.9411,0,0,0,0,0,0,0,-1,1742,617,6.09532,-1.94113
525,407,5.72534,-1.35986,0,0,0,0,0,0,0,-1,1749,617,5.72529,1.35988
532,407,18.5767,-10.6388,0,0,0,0,0,0,0,-1,1756,617,18.5766,10.6388
539,407,35.403,-24.7053,0,0,0,0,0,0,0,-1,1763,617,35.403,24.7053
546,407,35.4635,-23.5804,0.00304754,-0.000156001,0.000403356,0.00309755,-0.000206007,0.123345,0.00213701,0.0314701,1770,617,35.4636,23.5804
553,407,35.38,-22.5442,0.00266194,8.18948e-05,0.000368739,0.0027136,3.02293e-05,0.139208,0.00179908,0.0186491,1777,617,35.38,22.5442
560,407,35.3668,-21.4862,0.00218611,0.000319443,0.000363506,0.0022544,0.000251153,0.185698,0.0014266,0.0193257,1784,617,35.3669,21.4862
567,407,35.2673,-20.4982,0.00177394,0.000625392,0.000471658,0.0019428,0.00045653,0.3438,0.00117302,0.0329859,1791,617,35.2673,20.4982
574,407,35.1907,-19.4874,0.00159074,0.00121221,0.000766406,0.0021909,0.000612043,0.664343,0.00130533,0.0291319,1798,617,35.1906,19.4874
581,407,35.1077,-18.3817,0.00158892,0.00192401,0.00122828,0.00299612,0.000516813,0.853184,0.00184937,0.0203609,1805,617,35.1076,18.3816
588,407,34.9952,-17.3463,0.00177795,0.00288143,0.00182547,0.00423672,0.000422664,0.932155,0.00269466,0.0158849,1812,617,34.9952,17.3463
595,407,35.0005,-16.3171,0.00220981,0.00403713,0.00259961,0.00587896,0.000367973,0.954386,0.00380259,0.0303204,1819,617,35.0004,16.3171
602,407,34.925,-15.1902,0.00292839,0.00548307,0.00355413,0.00798242,0.000429037,0.957909,0.00518452,0.0236779,1826,617,34.9251,15.1902
609,407,34.771,-14.1191,0.00412277,0.00724031,0.00480595,0.010734,0.000629127,0.942217,0.00695575,0.023606,1833,617,34.771,14.1191
616,407,34.8224,-12.89,0.00580354,0.00933083,0.00628055,0.0140907,0.0010437,0.922278,0.00906592,0.0434977,1840,617,34.8223,12.89
623,407,35.1327,-11.4985,0,0,0,0,0,0,0,-1,1847,617,35.1327,11.4985
630,407,7.06177,0.814575,0,0,0,0,0,0,0,-1,1854,617,7.06178,-0.814579
637,407,11.1063,0.391846,0,0,0,0,0,0,0,-1,1861,617,11.1063,-0.391862
644,407,5.09766,2.27747,0,0,0,0,0,0,0,-1,1868,617,5.09764,-2.27746
651,407,7.37524,0.0513916,0,0,0,0,0,0,0,-1,1875,617,7.3752,-0.0513923
658,407,3.76685,0.594177,0,0,0,0,0,0,0,-1,1882,617,3.76683,-0.594184
665,407,5.76123,0.375061,0,0,0,0,0,0,0,-1,1889,617,5.76118,-0.37509
672,407,0,0,0,0,0,0,0,0,0,-1,1896,617,0,0
679,407,0,0,0,0,0,0,0,0,0,-1,1903,617,0,0
686,407,0,0,0,0,0,0,0,0,0,-1,1910,617,0,0
693,407,0,0,0,0,0,0,0,0,0,-1,1917,617,0,0
700,407,0,0,0,0,0,0,0,0,0,-1,1924,617,0,0
707,407,0,0,0,0,0,0,0,0,0,-1,1931,617,0,0
714,407,0,0,0,0,0,0,0,0,0,-1,1938,617,0,0
721,407,0,0,0,0,0,0,0,0,0,-1,1945,617,0,0
728,407,0,0,0,0,0,0,0,0,0,-1,1952,617,0,0
735,407,0,0,0,0,0,0,0,0,0,-1,1959,617,0,0
742,407,0,0,0,0,0,0,0,0,0,-1,1966,617,0,0
749,407,0,0,0,0,0,0,0,0,0,-1,1973,617,0,0
756,407,0,0,0,0,0,0,0,0,0,-1,1980,617,0,0
763,407,0,0,0,0,0,0,0,0,0,-1,1987,617,0,0
770,407,0,0,0,0,0,0,0,0,0,-1,1994,617,0,0
777,407,0,0,0,0,0,0,0,0,0,-1,2001,617,0,0
784,407,0,0,0,0,0,0,0,0,0,-1,2008,617,0,0
791,407,0,0,0,0,0,0,0,0,0,-1,2015,617,0,0
798,407,0,0,0,0,0,0,0,0,0,-1,2022,617,0,0
805,407,0,0,0,0,0,0,0,0,0,-1,2029,617,0,0
812,407,0,0,0,0,0,0,0,0,0,-1,2036,617,0,0
-700,400,0,0,0,0,0,0,0,0,0,-1,524,624,0,0
-693,400,0,0,0,0,0,0,0,0,0,-1,531,624,0,0
-686,400,0,0,0,0,0,0,0,0,0,-1,538,624,0,0
-679,400,0,0,0,0,0,0,0,0,0,-1,545,624,0,0
-672,400,0,0,0,0,0,0,0,0,0,-1,552,624,0,0
-665,400,0,0,0,0,0,0,0,0,0,-1,559,624,0,0
-658,400,0,0,0,0,0,0,0,0,0,-1,566,624,0,0
-651,400,0,0,0,0,0,0,0,0,0,-1,573,624,0,0
-644,400,0,0,0,0,0,0,0,0,0,-1,580,624,0,0
-637,400,0,0,0,0,0,0,0,0,0,-1,587,624,0,0
-630,400,0,0,0,0,0,0,0,0,0,-1,594,624,0,0
-623,400,0,0,0,0,0,0,0,0,0,-1,601,624,0,0
-616,400,0,0,0,0,0,0,0,0,0,-1,608,624,0,0
-609,400,0,0,0,0,0,0,0,0,0,-1,615,624,0,0
-602,400,0,0,0,0,0,0,0,0,0,-1,622,624,0,0
-595,400,0,0,0,0,0,0,0,0,0,-1,629,624,0,0
-588,400,0,0,0,0,0,0,0,0,0,-1,636,624,0,0
-581,400,0,0,0,0,0,0,0,0,0,-1,643,624,0,0
-574,400,0,0,0,0,0,0,0,0,0,-1,650,624,0,0
-567,400,0,0,0,0,0,0,0,0,0,-1,657,624,0,0
-560,400,0,0,0,0,0,0,0,0,0,-1,664,624,0,0
-553,400,0,0,0,0,0,0,0,0,0,-1,671,624,0,0
-546,400,-8.41174,-1.4599,0,0,0,0,0,0,0,-1,678,624,-8.41173,1.45989
-539,400,-5.69104,-1.7337,0,0,0,0,0,0,0,-1,685,624,-5.69103,1.7337
-532,400,-3.03632,-2.03912,0,0,0,0,0,0,0,-1,692,624,-3.03632,2.03909
-525,400,-6.20813,-7.04071,0,0,0,0,0,0,0,-1,699,624,-6.20814,7.04071
-518,400,-5.26544,-1.58661,0,0,0,0,0,0,0,-1,706,624,-5.26544,1.58658
-511,400,-10.6307,-6.7121,0,0,0,0,0,0,0,-1,713,624,-10.6307,6.71209
-504,400,-10.2663,-6.55109,0,0,0,0,0,0,0,-1,720,624,-10.2663,6.55106
-497,400,-18.8565,-11.5178,0,0,0,0,0,0,0,-1,727,624,-18.8565,11.5178
-490,400,-18.6376,-12.7422,-7.08205e-06,0.00178364,-0.000885472,0.00214754,-0.00037098,-1.18087,0.00157003,0.0447735,734,624,-18.6376,12.7423
-483,400,-18.687,-13.9294,-0.000110179,0.00138114,-0.000645255,0.00162157,-0.000350603,-1.21413,0.0012149,0.0178885,741,624,-18.687,13.9294
-476,400,-18.7523,-14.9863,-0.000111936,0.00107108,-0.000506859,0.00125854,-0.000299394,-1.21656,0.000954602,0.0155092,748,624,-18.7523,14.9863
-469,400,-18.8407,-16.0644,9.29072e-05,0.00075237,-0.000454395,0.000984063,-0.000138786,-1.09927,0.00070686,0.016626,755,624,-18.8407,16.0644
-462,400,-18.9203,-17.1584,0.000426383,0.000454184,-0.000471961,0.000912449,-3.18817e-05,-0.800121,0.0006192,0.0203244,762,624,-18.9204,17.1584
-455,400,-18.978,-18.1929,0.000834956,0.000233803,-0.000545439,0.00115716,-8.83965e-05,-0.533565,0.000802527,0.0216343,769,624,-18.978,18.1929
-448,400,-19.0333,-19.2369,0.00133862,5.00049e-05,-0.000675501,0.00162782,-0.000239193,-0.404514,0.0011731,0.0172047,776,624,-19.0333,19.2369
-441,400,-19.1287,-20.2187,0.00188818,-3.38624e-05,-0.000853652,0.00221257,-0.000358253,-0.36315,0.00160783,0.0167983,783,624,-19.1287,20.2187
-434,400,-19.2453,-21.2483,0.0025094,8.16366e-06,-0.0011056,0.00292803,-0.000410469,-0.361965,0.00210224,0.014183,790,624,-19.2453,21.2483
-427,400,-19.3209,-22.2913,0.00316313,0.000152141,-0.00141828,0.00372598,-0.000410702,-0.377788,0.00263159,0.0125432,797,624,-19.3209,22.2913
-420,400,-19.2878,-23.399,0.00378947,0.000302258,-0.0017931,0.00454694,-0.000455208,-0.399695,0.00319386,0.0260269,804,624,-19.2878,23.399
-413,400,-19.2433,-24.5759,0,0,0,0,0,0,0,-1,811,624,-19.2433,24.5759
-406,400,-19.5419,-24.8439,0,0,0,0,0,0,0,-1,818,624,-19.5419,24.8439
-399,400,-11.0176,-13.2944,0,0,0,0,0,0,0,-1,825,624,-11.0176,13.2944
-392,400,-4.92285,-6.63354,0,0,0,0,0,0,0,-1,832,624,-4.92285,6.63354
-385,400,-3.68738,-5.04205,0,0,0,0,0,0,0,-1,839,624,-3.68736,5.04207
-378,400,-6.84064,-1.28662,0,0,0,0,0,0,0,-1,846,624,-6.84062,1.28662
-371,400,-6.98865,-1.2572,0,0,0,0,0,0,0,-1,853,624,-6.98865,1.25721
-364,400,-6.97247,-1.24133,0,0,0,0,0,0,0,-1,860,624,-6.97249,1.24135
-357,400,-7.18329,-1.23218,0,0,0,0,0,0,0,-1,867,624,-7.18327,1.2322
-350,400,-7.40186,-1.19409,0,0,0,0,0,0,0,-1,874,624,-7.40187,1.19407
-343,400,-8.09357,-1.51147,0,0,0,0,0,0,0,-1,881,624,-8.09355,1.51148
-336,400,0,0,0,0,0,0,0,0,0,-1,888,624,0,0
-329,400,0,0,0,0,0,0,0,0,0,-1,895,624,0,0
-322,400,0,0,0,0,0,0,0,0,0,-1,902,624,0,0
-315,400,0,0,0,0,0,0,0,0,0,-1,909,624,0,0
-308,400,0,0,0,0,0,0,0,0,0,-1,916,624,0,0
-301,400,0,0,0,0,0,0,0,0,0,-1,923,624,0,0
-294,400,0,0,0,0,0,0,0,0,0,-1,930,624,0,0
-287,400,0,0,0,0,0,0,0,0,0,-1,937,624,0,0
-280,400,0,0,0,0,0,0,0,0,0,-1,944,624,0,0
-273,400,0,0,0,0,0,0,0,0,0,-1,951,624,0,0
-266,400,0,0,0,0,0,0,0,0,0,-1,958,624,0,0
-259,400,0,0,0,0,0,0,0,0,0,-1,965,624,0,0
-252,400,0,0,0,0,0,0,0,0,0,-1,972,624,0,0
-245,400,0,0,0,0,0,0,0,0,0,-1,979,624,0,0
-238,400,0,0,0,0,0,0,0,0,0,-1,986,624,0,0
-231,400,0,0,0,0,0,0,0,0,0,-1,993,624,0,0
-224,400,0,0,0,0,0,0,0,0,0,-1,1000,624,0,0
-217,400,0,0,0,0,0,0,0,0,0,-1,1007,624,0,0
-210,400,0,0,0,0,0,0,0,0,0,-1,1014,624,0,0
-203,400,0,0,0,0,0,0,0,0,0,-1,1021,624,0,0
-196,400,0,0,0,0,0,0,0,0,0,-1,1028,624,0,0
-189,400,0,0,0,0,0,0,0,0,0,-1,1035,624,0,0
-182,400,0,0,0,0,0,0,0,0,0,-1,1042,624,0,0
-175,400,0,0,0,0,0,0,0,0,0,-1,1049,624,0,0
-168,400,0,0,0,0,0,0,0,0,0,-1,1056,624,0,0
-161,400,0,0,0,0,0,0,0,0,0,-1,1063,624,0,0
-154,400,0,0,0,0,0,0,0,0,0,-1,1070,624,0,0
-147,400,0,0,0,0,0,0,0,0,0,-1,1077,624,0,0
-140,400,0,0,0,0,0,0,0,0,0,-1,1084,624,0,0
-133,400,0,0,0,0,0,0,0,0,0,-1,1091,624,0,0
-126,400,0,0,0,0,0,0,0,0,0,-1,1098,624,0,0
-119,400,0,0,0,0,0,0,0,0,0,-1,1105,624,0,0
-112,400,0,0,0,0,0,0,0,0,0,-1,1112,624,0,0
-105,400,0,0,0,0,0,0,0,0,0,-1,1119,624,0,0
-98,400,0,0,0,0,0,0,0,0,0,-1,1126,624,0,0
-91,400,0,0,0,0,0,0,0,0,0,-1,1133,624,0,0
-84,400,0,0,0,0,0,0,0,0,0,-1,1140,624,0,0
-77,400,0,0,0,0,0,0,0,0,0,-1,1147,624,0,0
-70,400,0,0,0,0,0,0,0,0,0,-1,1154,624,0,0
-63,400,0,0,0,0,0,0,0,0,0,-1,1161,624,0,0
-56,400,0,0,0,0,0,0,0,0,0,-1,1168,624,0,0
-49,400,0,0,0,0,0,0,0,0,0,-1,1175,624,0,0
-42,400,0,0,0,0,0,0,0,0,0,-1,1182,624,0,0
-35,400,0,0,0,0,0,0,0,0,0,-1,1189,624,0,0
-28,400,0,0,0,0,0,0,0,0,0,-1,1196,624,0,0
-21,400,0,0,0,0,0,0,0,0,0,-1,1203,624,0,0
-14,400,0,0,0,0,0,0,0,0,0,-1,1210,624,0,0
-7,400,0,0,0,0,0,0,0,0,0,-1,1217,624,0,0
0,400,0,0,0,0,0,0,0,0,0,-1,1224,624,0,0
7,400,0,0,0,0,0,0,0,0,0,-1,1231,624,0,0
14,400,0,0,0,0,0,0,0,0,0,-1,1238,624,0,0
21,400,0,0,0,0,0,0,0,0,0,-1,1245,624,0,0
28,400,0,0,0,0,0,0,0,0,0,-1,1252,624,0,0
35,400,0,0,0,0,0,0,0,0,0,-1,1259,624,0,0
42,400,0,0,0,0,0,0,0,0,0,-1,1266,624,0,0
49,400,0,0,0,0,0,0,0,0,0,-1,1273,624,0,0
56,400,0,0,0,0,0,0,0,0,0,-1,1280,624,0,0
63,400,0,0,0,0,0,0,0,0,0,-1,1287,624,0,0
70,400,0,0,0,0,0,0,0,0,0,-1,1294,624,0,0
77,400,0,0,0,0,0,0,0,0,0,-1,1301,624,0,0
84,400,0,0,0,0,0,0,0,0,0,-1,1308,624,0,0
91,400,0,0,0,0,0,0,0,0,0,-1,1315,624,0,0
98,400,0,0,0,0,0,0,0,0,0,-1,1322,624,0,0
105,400,0,0,0,0,0,0,0,0,0,-1,1329,624,0,0
112,400,0,0,0,0,0,0,0,0,0,-1,1336,624,0,0
119,400,0,0,0,0,0,0,0,0,0,-1,1343,624,0,0
126,400,0,0,0,0,0,0,0,0,0,-1,1350,624,0,0
133,400,0,0,0,0,0,0,0,0,0,-1,1357,624,0,0
140,400,0,0,0,0,0,0,0,0,0,-1,1364,624,0,0
147,400,0,0,0,0,0,0,0,0,0,-1,1371,624,0,0
154,400,0,0,0,0,0,0,0,0,0,-1,1378,624,0,0
161,400,0,0,0,0,0,0,0,0,0,-1,1385,624,0,0
168,400,0,0,0,0,0,0,0,0,0,-1,1392,624,0,0
175,400,0,0,0,0,0,0,0,0,0,-1,1399,624,0,0
182,400,0,0,0,0,0,0,0,0,0,-1,1406,624,0,0
189,400,0,0,0,0,0,0,0,0,0,-1,1413,624,0,0
196,400,0,0,0,0,0,0,0,0,0,-1,1420,624,0,0
203,400,0,0,0,0,0,0,0,0,0,-1,1427,624,0,0
210,400,0,0,0,0,0,0,0,0,0,-1,1434,624,0,0
217,400,0,0,0,0,0,0,0,0,0,-1,1441,624,0,0
224,400,0,0,0,0,0,0,0,0,0,-1,1448,624,0,0
231,400,0,0,0,0,0,0,0,0,0,-1,1455,624,0,0
238,400,0,0,0,0,0,0,0,0,0,-1,1462,624,0,0
245,400,0,0,0,0,0,0,0,0,0,-1,1469,624,0,0
252,400,0,0,0,0,0,0,0,0,0,-1,1476,624,0,0
259,400,0,0,0,0,0,0,0,0,0,-1,1483,624,0,0
266,400,0,0,0,0,0,0,0,0,0,-1,1490,624,0,0
273,400,0,0,0,0,0,0,0,0,0,-1,1497,624,0,0
280,400,0,0,0,0,0,0,0,0,0,-1,1504,624,0,0
287,400,0,0,0,0,0,0,0,0,0,-1,1511,624,0,0
294,400,0,0,0,0,0,0,0,0,0,-1,1518,624,0,0
301,400,0,0,0,0,0,0,0,0,0,-1,1525,624,0,0
308,400,0,0,0,0,0,0,0,0,0,-1,1532,624,0,0
315,400,0,0,0,0,0,0,0,0,0,-1,1539,624,0,0
322,400,0,0,0,0,0,0,0,0,0,-1,1546,624,0,0
329,400,0,0,0,0,0,0,0,0,0,-1,1553,624,0,0
336,400,0,0,0,0,0,0,0,0,0,-1,1560,624,0,0
343,400,0,0,0,0,0,0,0,0,0,-1,1567,624,0,0
350,400,0,0,0,0,0,0,0,0,0,-1,1574,624,0,0
357,400,0,0,0,0,0,0,0,0,0,-1,1581,624,0,0
364,400,0,0,0,0,0,0,0,0,0,-1,1588,624,0,0
371,400,0,0,0,0,0,0,0,0,0,-1,1595,624,0,0
378,400,0,0,0,0,0,0,0,0,0,-1,1602,624,0,0
385,400,0,0,0,0,0,0,0,0,0,-1,1609,624,0,0
392,400,0,0,0,0,0,0,0,0,0,-1,1616,624,0,0
399,400,0,0,0,0,0,0,0,0,0,-1,1623,624,0,0
406,400,0,0,0,0,0,0,0,0,0,-1,1630,624,0,0
413,400,0,0,0,0,0,0,0,0,0,-1,1637,624,0,0
420,400,0,0,0,0,0,0,0,0,0,-1,1644,624,0,0
427,400,0,0,0,0,0,0,0,0,0,-1,1651,624,0,0
434,400,0,0,0,0,0,0,0,0,0,-1,1658,624,0,0
441,400,0,0,0,0,0,0,0,0,0,-1,1665,624,0,0
448,400,0,0,0,0,0,0,0,0,0,-1,1672,624,0,0
455,400,8.91309,2.75885,0,0,0,0,0,0,0,-1,1679,624,8.91312,-2.75885
462,400,8.90356,2.37878,0,0,0,0,0,0,0,-1,1686,624,8.90353,-2.37878
469,400,9.14429,1.76849,0,0,0,0,0,0,0,-1,1693,624,9.14432,-1.76847
476,400,9.23254,1.25995,0,0,0,0,0,0,0,-1,1700,624,9.23252,-1.25994
483,400,9.59766,0.562439,0,0,0,0,0,0,0,-1,1707,624,9.59771,-0.56242
490,400,9.92578,-0.213745,0,0,0,0,0,0,0,-1,1714,624,9.92579,0.21376
497,400,9.19141,0.175232,0,0,0,0,0,0,0,-1,1721,624,9.19138,-0.175209
504,400,9.23438,0.00823975,0,0,0,0,0,0,0,-1,1728,624,9.23436,-0.00823766
511,400,6.16687,3.3501,0,0,0,0,0,0,0,-1,1735,624,6.16682,-3.35007
518,400,6.55237,1.74994,0,0,0,0,0,0,0,-1,1742,624,6.55236,-1.74993
525,400,6.99731,1.08783,0,0,0,0,0,0,0,-1,1749,624,6.99736,-1.08785
532,400,6.96582,-1.74982,0,0,0,0,0,0,0,-1,1756,624,6.96585,1.74983
539,400,21.2305,-10.5841,0,0,0,0,0,0,0,-1,1763,624,21.2304,10.5841
546,400,36.1847,-23.8236,0,0,0,0,0,0,0,-1,1770,624,36.1847,23.8236
553,400,36.3301,-22.4956,0.00325379,1.70684e-05,0.000350437,0.0032913,-2.04385e-05,0.106623,0.00220105,0.0449679,1777,624,36.3301,22.4956
560,400,36.376,-21.3837,0.00264385,0.000118962,0.000263496,0.00267105,9.17572e-05,0.102882,0.00175092,0.0172664,1784,624,36.3759,21.3837
567,400,36.3464,-20.3816,0.00202109,0.000235813,0.000254219,0.00205659,0.000200319,0.138724,0.0013094,0.0195157,1791,624,36.3464,20.3816
574,400,36.2522,-19.3837,0.00168427,0.000713022,0.000485675,0.00188546,0.000511833,0.392725,0.00112584,0.0216983,1798,624,36.2522,19.3837
581,400,36.1284,-18.307,0.00154705,0.00133304,0.000882301,0.00232881,0.000551277,0.725052,0.0014053,0.0234066,1805,624,36.1284,18.307
588,400,35.9999,-17.1946,0.00162833,0.00216388,0.0014091,0.00333043,0.000461787,0.879294,0.00208348,0.0215313,1812,624,35.9999,17.1946
595,400,36.0095,-16.1432,0.00195896,0.00315615,0.00209533,0.00473671,0.000378398,0.924532,0.00303954,0.0199043,1819,624,36.0095,16.1433
602,400,35.9603,-15.1158,0.00255217,0.00436319,0.0029319,0.00652623,0.000389132,0.935175,0.00422708,0.0180822,1826,624,35.9604,15.1158
609,400,35.7721,-14.0605,0.00349253,0.00578722,0.00397195,0.00877422,0.000505529,0.926002,0.00568846,0.0172845,1833,624,35.772,14.0605
616,400,35.729,-13.0419,0.0048305,0.00746873,0.00520067,0.011515,0.000784256,0.909601,0.00742904,0.020579,1840,624,35.729,13.0419
623,400,35.8331,-11.6085,0,0,0,0,0,0,0,-1,1847,624,35.8332,11.6085
630,400,11.9432,0.09021,0,0,0,0,0,0,0,-1,1854,624,11.9432,-0.0902007
637,400,6.92896,1.01917,0,0,0,0,0,0,0,-1,1861,624,6.92899,-1.01918
644,400,8.65381,1.4599,0,0,0,0,0,0,0,-1,1868,624,8.65379,-1.45991
651,400,7.90601,0.424072,0,0,0,0,0,0,0,-1,1875,624,7.90598,-0.424097
658,400,8.69031,1.0484,0,0,0,0,0,0,0,-1,1882,624,8.6903,-1.0484
665,400,5.98438,0.522522,0,0,0,0,0,0,0,-1,1889,624,5.98442,-0.522552
672,400,0,0,0,0,0,0,0,0,0,-1,1896,624,0,0
679,400,0,0,0,0,0,0,0,0,0,-1,1903,624,0,0
686,400,0,0,0,0,0,0,0,0,0,-1,1910,624,0,0
693,400,0,0,0,0,0,0,0,0,0,-1,1917,624,0,0
700,400,0,0,0,0,0,0,0,0,0,-1,1924,624,0,0
707,400,0,0,0,0,0,0,0,0,0,-1,1931,624,0,0
714,400,0,0,0,0,0,0,0,0,0,-1,1938,624,0,0
721,400,0,0,0,0,0,0,0,0,0,-1,1945,624,0,0
728,400,0,0,0,0,0,0,0,0,0,-1,1952,624,0,0
735,400,0,0,0,0,0,0,0,0,0,-1,1959,624,0,0
742,400,0,0,0,0,0,0,0,0,0,-1,1966,624,0,0
749,400,0,0,0,0,0,0,0,0,0,-1,1973,624,0,0
756,400,0,0,0,0,0,0,0,0,0,-1,1980,624,0,0
763,400,0,0,0,0,0,0,0,0,0,-1,1987,624,0,0
770,400,0,0,0,0,0,0,0,0,0,-1,1994,624,0,0
777,400,0,0,0,0,0,0,0,0,0,-1,2001,624,0,0
784,400,0,0,0,0,0,0,0,0,0,-1,2008,624,0,0
791,400,0,0,0,0,0,0,0,0,0,-1,2015,624,0,0
798,400,0,0,0,0,0,0,0,0,0,-1,2022,624,0,0
805,400,0,0,0,0,0,0,0,0,0,-1,2029,624,0,0
812,400,0,0,0,0,0,0,0,0,0,-1,2036,624,0,0
-700,393,0,0,0,0,0,0,0,0,0,-1,524,631,0,0
-693,393,0,0,0,0,0,0,0,0,0,-1,531,631,0,0
-686,393,0,0,0,0,0,0,0,0,0,-1,538,631,0,0
-679,393,0,0,0,0,0,0,0,0,0,-1,545,631,0,0
-672,393,0,0,0,0,0,0,0,0,0,-1,552,631,0,0
-665,393,0,0,0,0,0,0,0,0,0,-1,559,631,0,0
-658,393,0,0,0,0,0,0,0,0,0,-1,566,631,0,0
-651,393,0,0,0,0,0,0,0,0,0,-1,573,631,0,0
-644,393,0,0,0,0,0,0,0,0,0,-1,580,631,0,0
-637,393,0,0,0,0,0,0,0,0,0,-1,587,631,0,0
-630,393,0,0,0,0,0,0,0,0,0,-1,594,631,0,0
-623,393,0,0,0,0,0,0,0,0,0,-1,601,631,0,0
-616,393,0,0,0,0,0,0,0,0,0,-1,608,631,0,0
-609,393,0,0,0,0,0,0,0,0,0,-1,615,631,0,0
-602,393,0,0,0,0,0,0,0,0,0,-1,622,631,0,0
-595,393,0,0,0,0,0,0,0,0,0,-1,629,631,0,0
-588,393,0,0,0,0,0,0,0,0,0,-1,636,631,0,0
-581,393,0,0,0,0,0,0,0,0,0,-1,643,631,0,0
-574,393,0,0,0,0,0,0,0,0,0,-1,650,631,0,0
-567,393,0,0,0,0,0,0,0,0,0,-1,657,631,0,0
-560,393,0,0,0,0,0,0,0,0,0,-1,664,631,0,0
-553,393,-2.35107,3.92633,0,0,0,0,0,0,0,-1,671,631,-2.35108,-3.92634
-546,393,-1.78778,2.4856,0,0,0,0,0,0,0,-1,678,631,-1.78778,-2.48557
-539,393,-5.2113,-2.20245,0,0,0,0,0,0,0,-1,685,631,-5.21128,2.20247
-532,393,-2.83643,-2.01624,0,0,0,0,0,0,0,-1,692,631,-2.83642,2.01626
-525,393,-5.9505,-0.952698,0,0,0,0,0,0,0,-1,699,631,-5.95053,0.95268
-518,393,-5.80219,-1.57739,0,0,0,0,0,0,0,-1,706,631,-5.80219,1.57738
-511,393,-6.15527,-2.09906,0,0,0,0,0,0,0,-1,713,631,-6.15526,2.09903
-504,393,-13.6063,-6.95947,0,0,0,0,0,0,0,-1,720,631,-13.6063,6.95946
-497,393,-19.7262,-11.5904,0,0,0,0,0,0,0,-1,727,631,-19.7262,11.5904
-490,393,-19.6894,-12.7433,0.000413938,0.00107347,-0.000822991,0.0016303,-0.000142895,-0.97595,0.0011375,0.0281811,734,631,-19.6894,12.7434
-483,393,-19.7286,-13.8643,0.000333079,0.000831206,-0.000647095,0.00127551,-0.000111229,-0.969107,0.00088974,0.0204728,741,631,-19.7286,13.8642
-476,393,-19.8019,-14.9032,0.000364638,0.000632305,-0.000554819,0.0010692,-7.2261e-05,-0.903747,0.000738069,0.0184074,748,631,-19.8019,14.9032
-469,393,-19.8733,-15.9677,0.00057522,0.000419135,-0.000539415,0.00104221,-4.78533e-05,-0.713557,0.000711294,0.0141474,755,631,-19.8733,15.9676
-462,393,-19.9629,-17.0671,0.00088443,0.000201051,-0.000584562,0.00121984,-0.00013436,-0.520918,0.000861513,0.0161668,762,631,-19.9629,17.0672
-455,393,-20.0345,-18.1195,0.00128631,5.15394e-05,-0.000684144,0.00159046,-0.000252604,-0.418322,0.00115376,0.0160045,769,631,-20.0346,18.1195
-448,393,-20.1179,-19.1668,0.00179835,-8.08693e-05,-0.000843838,0.00212164,-0.000404165,-0.365875,0.00156662,0.0155463,776,631,-20.1179,19.1668
-441,393,-20.2004,-20.1699,0.00237865,-0.000113835,-0.00106534,0.00277194,-0.000507126,-0.353649,0.00203814,0.0145821,783,631,-20.2003,20.1699
-434,393,-20.2883,-21.1696,0.00310071,2.7967e-05,-0.00141043,0.00364994,-0.000521266,-0.371343,0.00262436,0.0144758,790,631,-20.2883,21.1696
-427,393,-20.2845,-22.2553,0.00386478,0.000213457,-0.00179425,0.00459888,-0.000520644,-0.388361,0.00325338,0.0292462,797,631,-20.2845,22.2553
-420,393,-20.165,-23.4472,0,0,0,0,0,0,0,-1,804,631,-20.165,23.4472
-413,393,-15.0913,-18.3777,0,0,0,0,0,0,0,-1,811,631,-15.0913,18.3777
-406,393,-11.826,-12.7987,0,0,0,0,0,0,0,-1,818,631,-11.8261,12.7987
-399,393,-5.07343,-5.92365,0,0,0,0,0,0,0,-1,825,631,-5.07344,5.92364
-392,393,-2.08063,-3.02386,0,0,0,0,0,0,0,-1,832,631,-2.08063,3.02384
-385,393,-3.16931,-0.624756,0,0,0,0,0,0,0,-1,839,631,-3.16928,0.624764
-378,393,-7.33081,-0.872314,0,0,0,0,0,0,0,-1,846,631,-7.33081,0.872325
-371,393,-7.47858,-0.811096,0,0,0,0,0,0,0,-1,853,631,-7.47859,0.811075
-364,393,-7.64917,-0.662415,0,0,0,0,0,0,0,-1,860,631,-7.64917,0.662406
-357,393,-8.09686,-0.726013,0,0,0,0,0,0,0,-1,867,631,-8.09689,0.726029
-350,393,-8.38788,-0.511841,0,0,0,0,0,0,0,-1,874,631,-8.38785,0.511811
-343,393,0,0,0,0,0,0,0,0,0,-1,881,631,0,0
-336,393,0,0,0,0,0,0,0,0,0,-1,888,631,0,0
-329,393,0,0,0,0,0,0,0,0,0,-1,895,631,0,0
-322,393,0,0,0,0,0,0,0,0,0,-1,902,631,0,0
-315,393,0,0,0,0,0,0,0,0,0,-1,909,631,0,0
-308,393,0,0,0,0,0,0,0,0,0,-1,916,631,0,0
-301,393,0,0,0,0,0,0,0,0,0,-1,923,631,0,0
-294,393,0,0,0,0,0,0,0,0,0,-1,930,631,0,0
-287,393,0,0,0,0,0,0,0,0,0,-1,937,631,0,0
-280,393,0,0,0,0,0,0,0,0,0,-1,944,631,0,0
-273,393,0,0,0,0,0,0,0,0,0,-1,951,631,0,0
-266,393,0,0,0,0,0,0,0,0,0,-1,958,631,0,0
-259,393,0,0,0,0,0,0,0,0,0,-1,965,631,0,0
-252,393,0,0,0,0,0,0,0,0,0,-1,972,631,0,0
-245,393,0,0,0,0,0,0,0,0,0,-1,979,631,0,0
-238,393,0,0,0,0,0,0,0,0,0,-1,986,631,0,0
-231,393,0,0,0,0,0,0,0,0,0,-1,993,631,0,0
-224,393,0,0,0,0,0,0,0,0,0,-1,1000,631,0,0
-217,393,0,0,0,0,0,0,0,0,0,-1,1007,631,0,0
-210,393,0,0,0,0,0,0,0,0,0,-1,1014,631,0,0
-203,393,0,0,0,0,0,0,0,0,0,-1,1021,631,0,0
-196,393,0,0,0,0,0,0,0,0,0,-1,1028,631,0,0
-189,393,0,0,0,0,0,0,0,0,0,-1,1035,631,0,0
-182,393,0,0,0,0,0,0,0,0,0,-1,1042,631,0,0
-175,393,0,0,0,0,0,0,0,0,0,-1,1049,631,0,0
-168,393,0,0,0,0,0,0,0,0,0,-1,1056,631,0,0
-161,393,0,0,0,0,0,0,0,0,0,-1,1063,631,0,0
-154,393,0,0,0,0,0,0,0,0,0,-1,1070,631,0,0
-147,393,0,0,0,0,0,0,0,0,0,-1,1077,631,0,0
-140,393,0,0,0,0,0,0,0,0,0,-1,1084,631,0,0
-133,393,0,0,0,0,0,0,0,0,0,-1,1091,631,0,0
-126,393,0,0,0,0,0,0,0,0,0,-1,1098,631,0,0
-119,393,0,0,0,0,0,0,0,0,0,-1,1105,631,0,0
-112,393,0,0,0,0,0,0,0,0,0,-1,1112,631,0,0
-105,393,0,0,0,0,0,0,0,0,0,-1,1119,631,0,0
-98,393,0,0,0,0,0,0,0,0,0,-1,1126,631,0,0
-91,393,0,0,0,0,0,0,0,0,0,-1,1133,631,0,0
-84,393,0,0,0,0,0,0,0,0,0,-1,1140,631,0,0
-77,393,0,0,0,0,0,0,0,0,0,-1,1147,631,0,0
-70,393,0,0,0,0,0,0,0,0,0,-1,1154,631,0,0
-63,393,0,0,0,0,0,0,0,0,0,-1,1161,631,0,0
-56,393,0,0,0,0,0,0,0,0,0,-1,1168,631,0,0
-49,393,0,0,0,0,0,0,0,0,0,-1,1175,631,0,0
-42,393,0,0,0,0,0,0,0,0,0,-1,1182,631,0,0
-35,393,0,0,0,0,0,0,0,0,0,-1,1189,631,0,0
-28,393,0,0,0,0,0,0,0,0,0,-1,1196,631,0,0
-21,393,0,0,0,0,0,0,0,0,0,-1,1203,631,0,0
-14,393,0,0,0,0,0,0,0,0,0,-1,1210,631,0,0
-7,393,0,0,0,0,0,0,0,0,0,-1,1217,631,0,0
0,393,0,0,0,0,0,0,0,0,0,-1,1224,631,0,0
7,393,0,0,0,0,0,0,0,0,0,-1,1231,631,0,0
14,393,0,0,0,0,0,0,0,0,0,-1,1238,631,0,0
21,393,0,0,0,0,0,0,0,0,0,-1,1245,631,0,0
28,393,0,0,0,0,0,0,0,0,0,-1,1252,631,0,0
35,393,0,0,0,0,0,0,0,0,0,-1,1259,631,0,0
42,393,0,0,0,0,0,0,0,0,0,-1,1266,631,0,0
49,393,0,0,0,0,0,0,0,0,0,-1,1273,631,0,0
56,393,0,0,0,0,0,0,0,0,0,-1,1280,631,0,0
63,393,0,0,0,0,0,0,0,0,0,-1,1287,631,0,0
70,393,0,0,0,0,0,0,0,0,0,-1,1294,631,0,0
77,393,0,0,0,0,0,0,0,0,0,-1,1301,631,0,0
84,393,0,0,0,0,0,0,0,0,0,-1,1308,631,0,0
91,393,0,0,0,0,0,0,0,0,0,-1,1315,631,0,0
98,393,0,0,0,0,0,0,0,0,0,-1,1322,631,0,0
105,393,0,0,0,0,0,0,0,0,0,-1,1329,631,0,0
112,393,0,0,0,0,0,0,0,0,0,-1,1336,631,0,0
119,393,0,0,0,0,0,0,0,0,0,-1,1343,631,0,0
126,393,0,0,0,0,0,0,0,0,0,-1,1350,631,0,0
133,393,0,0,0,0,0,0,0,0,0,-1,1357,631,0,0
140,393,0,0,0,0,0,0,0,0,0,-1,1364,631,0,0
147,393,0,0,0,0,0,0,0,0,0,-1,1371,631,0,0
154,393,0,0,0,0,0,0,0,0,0,-1,1378,631,0,0
161,393,0,0,0,0,0,0,0,0,0,-1,1385,631,0,0
168,393,0,0,0,0,0,0,0,0,0,-1,1392,631,0,0
175,393,0,0,0,0,0,0,0,0,0,-1,1399,631,0,0
182,393,0,0,0,0,0,0,0,0,0,-1,1406,631,0,0
189,393,0,0,0,0,0,0,0,0,0,-1,1413,631,0,0
196,393,0,0,0,0,0,0,0,0,0,-1,1420,631,0,0
203,393,0,0,0,0,0,0,0,0,0,-1,1427,631,0,0
210,393,0,0,0,0,0,0,0,0,0,-1,1434,631,0,0
217,393,0,0,0,0,0,0,0,0,0,-1,1441,631,0,0
224,393,0,0,0,0,0,0,0,0,0,-1,1448,631,0,0
231,393,0,0,0,0,0,0,0,0,0,-1,1455,631,0,0
238,393,0,0,0,0,0,0,0,0,0,-1,1462,631,0,0
245,393,0,0,0,0,0,0,0,0,0,-1,1469,631,0,0
252,393,0,0,0,0,0,0,0,0,0,-1,1476,631,0,0
259,393,0,0,0,0,0,0,0,0,0,-1,1483,631,0,0
266,393,0,0,0,0,0,0,0,0,0,-1,1490,631,0,0
273,393,0,0,0,0,0,0,0,0,0,-1,1497,631,0,0
280,393,0,0,0,0,0,0,0,0,0,-1,1504,631,0,0
287,393,0,0,0,0,0,0,0,0,0,-1,1511,631,0,0
294,393,0,0,0,0,0,0,0,0,0,-1,1518,631,0,0
301,393,0,0,0,0,0,0,0,0,0,-1,1525,631,0,0
308,393,0,0,0,0,0,0,0,0,0,-1,1532,631,0,0
315,393,0,0,0,0,0,0,0,0,0,-1,1539,631,0,0
322,393,0,0,0,0,0,0,0,0,0,-1,1546,631,0,0
329,393,0,0,0,0,0,0,0,0,0,-1,1553,631,0,0
336,393,0,0,0,0,0,0,0,0,0,-1,1560,631,0,0
343,393,0,0,0,0,0,0,0,0,0,-1,1567,631,0,0
350,393,0,0,0,0,0,0,0,0,0,-1,1574,631,0,0
357,393,0,0,0,0,0,0,0,0,0,-1,1581,631,0,0
364,393,0,0,0,0,0,0,0,0,0,-1,1588,631,0,0
371,393,0,0,0,0,0,0,0,0,0,-1,1595,631,0,0
378,393,0,0,0,0,0,0,0,0,0,-1,1602,631,0,0
385,393,0,0,0,0,0,0,0,0,0,-1,1609,631,0,0
392,393,0,0,0,0,0,0,0,0,0,-1,1616,631,0,0
399,393,0,0,0,0,0,0,0,0,0,-1,1623,631,0,0
406,393,0,0,0,0,0,0,0,0,0,-1,1630,631,0,0
413,393,0,0,0,0,0,0,0,0,0,-1,1637,631,0,0
420,393,0,0,0,0,0,0,0,0,0,-1,1644,631,0,0
427,393,0,0,0,0,0,0,0,0,0,-1,1651,631,0,0
434,393,0,0,0,0,0,0,0,0,0,-1,1658,631,0,0
441,393,0,0,0,0,0,0,0,0,0,-1,1665,631,0,0
448,393,0,0,0,0,0,0,0,0,0,-1,1672,631,0,0
455,393,0,0,0,0,0,0,0,0,0,-1,1679,631,0,0
462,393,8.51099,1.89502,0,0,0,0,0,0,0,-1,1686,631,8.51103,-1.89504
469,393,9.39465,1.51703,0,0,0,0,0,0,0,-1,1693,631,9.39465,-1.51703
476,393,9.95569,1.185,0,0,0,0,0,0,0,-1,1700,631,9.95575,-1.18497
483,393,10.5267,0.887329,0,0,0,0,0,0,0,-1,1707,631,10.5267,-0.887321
490,393,10.9303,0.761414,0,0,0,0,0,0,0,-1,1714,631,10.9303,-0.761386
497,393,8.32153,1.88104,0,0,0,0,0,0,0,-1,1721,631,8.32148,-1.88103
504,393,9.46985,1.78711,0,0,0,0,0,0,0,-1,1728,631,9.46986,-1.78713
511,393,9.66565,-0.375977,0,0,0,0,0,0,0,-1,1735,631,9.66571,0.375949
518,393,7.01599,1.62482,0,0,0,0,0,0,0,-1,1742,631,7.01597,-1.62483
525,393,7.88245,-1.13422,0,0,0,0,0,0,0,-1,1749,631,7.88246,1.13423
532,393,7.06335,-1.18103,0,0,0,0,0,0,0,-1,1756,631,7.06332,1.18101
539,393,9.91626,-2.46301,0,0,0,0,0,0,0,-1,1763,631,9.91625,2.46302
546,393,16.4094,-8.04651,0,0,0,0,0,0,0,-1,1770,631,16.4094,8.04649
553,393,37.1091,-22.672,0,0,0,0,0,0,0,-1,1777,631,37.1092,22.672
560,393,37.3668,-21.3493,0.00308441,-0.000146963,0.000155826,0.00309191,-0.00015446,0.048074,0.00211464,0.0440002,1784,631,37.3669,21.3493
567,393,37.3411,-20.296,0.00219363,-0.000213092,1.11018e-05,0.00219368,-0.000213144,0.00461271,0.00153843,0.0172312,1791,631,37.341,20.296
574,393,37.3093,-19.2811,0.00167989,0.000166681,0.000174058,0.00169966,0.000146918,0.113059,0.00108744,0.0165573,1798,631,37.3093,19.2811
581,393,37.1637,-18.1972,0.00140386,0.000726992,0.000502202,0.00167102,0.000459831,0.488903,0.000996741,0.0192091,1805,631,37.1638,18.1972
588,393,37.0692,-17.0807,0.00140536,0.00146764,0.000964898,0.0024019,0.000471098,0.801529,0.00146962,0.0231054,1812,631,37.0692,17.0807
595,393,37.0731,-16.0867,0.0016806,0.00235559,0.00157364,0.00362752,0.000408667,0.891032,0.00229429,0.0199177,1819,631,37.0731,16.0868
602,393,36.9922,-15.0741,0.00220895,0.00341301,0.002314,0.00520201,0.000419946,0.912661,0.00333685,0.0209719,1826,631,36.9922,15.0741
609,393,36.8591,-14.0297,0.0029885,0.00464396,0.00318906,0.00711096,0.0005215,0.912372,0.00457672,0.0181915,1833,631,36.8592,14.0297
616,393,36.7803,-12.9724,0.00404278,0.00607805,0.00417435,0.00935701,0.000763818,0.904958,0.00599963,0.0172877,1840,631,36.7803,12.9723
623,393,36.7692,-11.8198,0.00531334,0.00760796,0.0052518,0.0118363,0.00108499,0.892939,0.00755522,0.0386639,1847,631,36.7692,11.8198
630,393,37.0449,-10.6677,0,0,0,0,0,0,0,-1,1854,631,37.045,10.6676
637,393,11.4626,0.608887,0,0,0,0,0,0,0,-1,1861,631,11.4627,-0.608904
644,393,8.97583,1.30585,0,0,0,0,0,0,0,-1,1868,631,8.97586,-1.30584
651,393,11.348,0.53302,0,0,0,0,0,0,0,-1,1875,631,11.348,-0.53305
658,393,9.21338,1.50836,0,0,0,0,0,0,0,-1,1882,631,9.21338,-1.50834
665,393,6.1001,2.32129,0,0,0,0,0,0,0,-1,1889,631,6.10012,-2.3213
672,393,7.14575,2.43225,0,0,0,0,0,0,0,-1,1896,631,7.14572,-2.43222
679,393,0,0,0,0,0,0,0,0,0,-1,1903,631,0,0
686,393,0,0,0,0,0,0,0,0,0,-1,1910,631,0,0
693,393,0,0,0,0,0,0,0,0,0,-1,1917,631,0,0
700,393,0,0,0,0,0,0,0,0,0,-1,1924,631,0,0
707,393,0,0,0,0,0,0,0,0,0,-1,1931,631,0,0
714,393,0,0,0,0,0,0,0,0,0,-1,1938,631,0,0
721,393,0,0,0,0,0,0,0,0,0,-1,1945,631,0,0
728,393,0,0,0,0,0,0,0,0,0,-1,1952,631,0,0
735,393,0,0,0,0,0,0,0,0,0,-1,1959,631,0,0
742,393,0,0,0,0,0,0,0,0,0,-1,1966,631,0,0
749,393,0,0,0,0,0,0,0,0,0,-1,1973,631,0,0
756,393,0,0,0,0,0,0,0,0,0,-1,1980,631,0,0
763,393,0,0,0,0,0,0,0,0,0,-1,1987,631,0,0
770,393,0,0,0,0,0,0,0,0,0,-1,1994,631,0,0
777,393,0,0,0,0,0,0,0,0,0,-1,2001,631,0,0
784,393,0,0,0,0,0,0,0,0,0,-1,2008,631,0,0
791,393,0,0,0,0,0,0,0,0,0,-1,2015,631,0,0
798,393,0,0,0,0,0,0,0,0,0,-1,2022,631,0,0
805,393,0,0,0,0,0,0,0,0,0,-1,2029,631,0,0
812,393,0,0,0,0,0,0,0,0,0,-1,2036,631,0,0
-700,386,0,0,0,0,0,0,0,0,0,-1,524,638,0,0
-693,386,0,0,0,0,0,0,0,0,0,-1,531,638,0,0
-686,386,0,0,0,0,0,0,0,0,0,-1,538,638,0,0
-679,386,0,0,0,0,0,0,0,0,0,-1,545,638,0,0
-672,386,0,0,0,0,0,0,0,0,0,-1,552,638,0,0
-665,386,0,0,0,0,0,0,0,0,0,-1,559,638,0,0
-658,386,0,0,0,0,0,0,0,0,0,-1,566,638,0,0
-651,386,0,0,0,0,0,0,0,0,0,-1,573,638,0,0
-644,386,0,0,0,0,0,0,0,0,0,-1,580,638,0,0
-637,386,0,0,0,0,0,0,0,0,0,-1,587,638,0,0
-630,386,0,0,0,0,0,0,0,0,0,-1,594,638,0,0
-623,386,0,0,0,0,0,0,0,0,0,-1,601,638,0,0
-616,386,0,0,0,0,0,0,0,0,0,-1,608,638,0,0
-609,386,0,0,0,0,0,0,0,0,0,-1,615,638,0,0
-602,386,0,0,0,0,0,0,0,0,0,-1,622,638,0,0
-595,386,0,0,0,0,0,0,0,0,0,-1,629,638,0,0
-588,386,0,0,0,0,0,0,0,0,0,-1,636,638,0,0
-581,386,0,0,0,0,0,0,0,0,0,-1,643,638,0,0
-574,386,0,0,0,0,0,0,0,0,0,-1,650,638,0,0
-567,386,0,0,0,0,0,0,0,0,0,-1,657,638,0,0
-560,386,-3.97229,-5.13898,0,0,0,0,0,0,0,-1,664,638,-3.97232,5.13897
-553,386,-4.94244,-5.54309,0,0,0,0,0,0,0,-1,671,638,-4.94242,5.5431
-546,386,-1.78668,1.72827,0,0,0,0,0,0,0,-1,678,638,-1.78668,-1.72829
-539,386,-0.879456,-2.90009,0,0,0,0,0,0,0,-1,685,638,-0.879442,2.90008
-532,386,-5.4884,1.73328,0,0,0,0,0,0,0,-1,692,638,-5.4884,-1.73325
-525,386,-6.64148,-1.50604,0,0,0,0,0,0,0,-1,699,638,-6.64149,1.50603
-518,386,-11.1217,-4.10382,0,0,0,0,0,0,0,-1,706,638,-11.1217,4.1038
-511,386,-13.0612,-5.05151,0,0,0,0,0,0,0,-1,713,638,-13.0612,5.05149
-504,386,-20.7435,-10.4063,0,0,0,0,0,0,0,-1,720,638,-20.7435,10.4063
-497,386,-20.7197,-11.6187,0,0,0,0,0,0,0,-1,727,638,-20.7197,11.6187
-490,386,-20.7047,-12.7664,0.000781911,0.000582846,-0.000731728,0.00142084,-5.60886e-05,-0.717801,0.000966469,0.0142623,734,638,-20.7047,12.7664
-483,386,-20.7686,-13.8145,0.000698457,0.000439176,-0.000593425,0.00117624,-3.86047e-05,-0.677857,0.000797338,0.0181501,741,638,-20.7686,13.8145
-476,386,-20.8438,-14.8424,0.000745189,0.000310145,-0.000538251,0.00110821,-5.28761e-05,-0.593368,0.000757048,0.0171703,748,638,-20.8438,14.8424
-469,386,-20.9287,-15.8942,0.000946071,0.000167945,-0.000554847,0.00123467,-0.000120653,-0.47963,0.000866137,0.0124294,755,638,-20.9287,15.8942
-462,386,-21.001,-16.9761,0.0012397,1.95966e-05,-0.00063844,0.00151269,-0.000253398,-0.404067,0.00110267,0.0116706,762,638,-21.0011,16.9761
-455,386,-21.0831,-18.0372,0.00165056,-7.07425e-05,-0.000784471,0.00195443,-0.000374615,-0.369562,0.00144412,0.0141107,769,638,-21.0831,18.0372
-448,386,-21.168,-19.0626,0.00218775,-0.000153346,-0.00100181,0.00255792,-0.000523514,-0.353939,0.00190393,0.0148741,776,638,-21.168,19.0625
-441,386,-21.254,-20.0912,0.00282606,-0.000122817,-0.00131136,0.00332485,-0.000621605,-0.363462,0.00245019,0.0151099,783,638,-21.254,20.0912
-434,386,-21.2705,-21.1861,0.003699,0.000158374,-0.00181417,0.00446348,-0.000606114,-0.398816,0.0031969,0.0360285,790,638,-21.2705,21.1861
-427,386,-21.2157,-22.2758,0,0,0,0,0,0,0,-1,797,638,-21.2157,22.2758
-420,386,-14.5338,-16.0451,0,0,0,0,0,0,0,-1,804,638,-14.5338,16.0451
-413,386,-5.45691,-5.35785,0,0,0,0,0,0,0,-1,811,638,-5.45691,5.35783
-406,386,-4.51135,-4.10999,0,0,0,0,0,0,0,-1,818,638,-4.51135,4.10996
-399,386,-3.57117,-3.42126,0,0,0,0,0,0,0,-1,825,638,-3.57116,3.42129
-392,386,-4.00977,0.403625,0,0,0,0,0,0,0,-1,832,638,-4.0098,-0.403616
-385,386,-3.2406,-0.118469,0,0,0,0,0,0,0,-1,839,638,-3.24058,0.118485
-378,386,-2.55243,-1.22748,0,0,0,0,0,0,0,-1,846,638,-2.55243,1.22748
-371,386,-7.95807,-0.330261,0,0,0,0,0,0,0,-1,853,638,-7.95806,0.330284
-364,386,-8.90637,-0.665955,0,0,0,0,0,0,0,-1,860,638,-8.90635,0.665951
-357,386,-9.10364,-0.388733,0,0,0,0,0,0,0,-1,867,638,-9.10364,0.388744
-350,386,0,0,0,0,0,0,0,0,0,-1,874,638,0,0
-343,386,0,0,0,0,0,0,0,0,0,-1,881,638,0,0
-336,386,0,0,0,0,0,0,0,0,0,-1,888,638,0,0
-329,386,0,0,0,0,0,0,0,0,0,-1,895,638,0,0
-322,386,0,0,0,0,0,0,0,0,0,-1,902,638,0,0
-315,386,0,0,0,0,0,0,0,0,0,-1,909,638,0,0
-308,386,0,0,0,0,0,0,0,0,0,-1,916,638,0,0
-301,386,0,0,0,0,0,0,0,0,0,-1,923,638,0,0
-294,386,0,0,0,0,0,0,0,0,0,-1,930,638,0,0
-287,386,0,0,0,0,0,0,0,0,0,-1,937,638,0,0
-280,386,0,0,0,0,0,0,0,0,0,-1,944,638,0,0
-273,386,0,0,0,0,0,0,0,0,0,-1,951,638,0,0
-266,386,0,0,0,0,0,0,0,0,0,-1,958,638,0,0
-259,386,0,0,0,0,0,0,0,0,0,-1,965,638,0,0
-252,386,0,0,0,0,0,0,0,0,0,-1,972,638,0,0
-245,386,0,0,0,0,0,0,0,0,0,-1,979,638,0,0
-238,386,0,0,0,0,0,0,0,0,0,-1,986,638,0,0
-231,386,0,0,0,0,0,0,0,0,0,-1,993,638,0,0
-224,386,0,0,0,0,0,0,0,0,0,-1,1000,638,0,0
-217,386,0,0,0,0,0,0,0,0,0,-1,1007,638,0,0
-210,386,0,0,0,0,0,0,0,0,0,-1,1014,638,0,0
-203,386,0,0,0,0,0,0,0,0,0,-1,1021,638,0,0
-196,386,0,0,0,0,0,0,0,0,0,-1,1028,638,0,0
-189,386,0,0,0,0,0,0,0,0,0,-1,1035,638,0,0
-182,386,0,0,0,0,0,0,0,0,0,-1,1042,638,0,0
-175,386,0,0,0,0,0,0,0,0,0,-1,1049,638,0,0
-168,386,0,0,0,0,0,0,0,0,0,-1,1056,638,0,0
-161,386,0,0,0,0,0,0,0,0,0,-1,1063,638,0,0
-154,386,0,0,0,0,0,0,0,0,0,-1,1070,638,0,0
-147,386,0,0,0,0,0,0,0,0,0,-1,1077,638,0,0
-140,386,0,0,0,0,0,0,0,0,0,-1,1084,638,0,0
-133,386,0,0,0,0,0,0,0,0,0,-1,1091,638,0,0
-126,386,0,0,0,0,0,0,0,0,0,-1,1098,638,0,0
-119,386,0,0,0,0,0,0,0,0,0,-1,1105,638,0,0
-112,386,0,0,0,0,0,0,0,0,0,-1,1112,638,0,0
-105,386,0,0,0,0,0,0,0,0,0,-1,1119,638,0,0
-98,386,0,0,0,0,0,0,0,0,0,-1,1126,638,0,0
-91,386,0,0,0,0,0,0,0,0,0,-1,1133,638,0,0
-84,386,0,0,0,0,0,0,0,0,0,-1,1140,638,0,0
-77,386,0,0,0,0,0,0,0,0,0,-1,1147,638,0,0
-70,386,0,0,0,0,0,0,0,0,0,-1,1154,638,0,0
-63,386,0,0,0,0,0,0,0,0,0,-1,1161,638,0,0
-56,386,0,0,0,0,0,0,0,0,0,-1,1168,638,0,0
-49,386,0,0,0,0,0,0,0,0,0,-1,1175,638,0,0
-42,386,0,0,0,0,0,0,0,0,0,-1,1182,638,0,0
-35,386,0,0,0,0,0,0,0,0,0,-1,1189,638,0,0
-28,386,0,0,0,0,0,0,0,0,0,-1,1196,638,0,0
-21,386,0,0,0,0,0,0,0,0,0,-1,1203,638,0,0
-14,386,0,0,0,0,0,0,0,0,0,-1,1210,638,0,0
-7,386,0,0,0,0,0,0,0,0,0,-1,1217,638,0,0
0,386,0,0,0,0,0,0,0,0,0,-1,1224,638,0,0
7,386,0,0,0,0,0,0,0,0,0,-1,1231,638,0,0
14,386,0,0,0,0,0,0,0,0,0,-1,1238,638,0,0
21,386,0,0,0,0,0,0,0,0,0,-1,1245,638,0,0
28,386,0,0,0,0,0,0,0,0,0,-1,1252,638,0,0
35,386,0,0,0,0,0,0,0,0,0,-1,1259,638,0,0
42,386,0,0,0,0,0,0,0,0,0,-1,1266,638,0,0
49,386,0,0,0,0,0,0,0,0,0,-1,1273,638,0,0
56,386,0,0,0,0,0,0,0,0,0,-1,1280,638,0,0
63,386,0,0,0,0,0,0,0,0,0,-1,1287,638,0,0
70,386,0,0,0,0,0,0,0,0,0,-1,1294,638,0,0
77,386,0,0,0,0,0,0,0,0,0,-1,1301,638,0,0
84,386,0,0,0,0,0,0,0,0,0,-1,1308,638,0,0
91,386,0,0,0,0,0,0,0,0,0,-1,1315,638,0,0
98,386,0,0,0,0,0,0,0,0,0,-1,1322,638,0,0
105,386,0,0,0,0,0,0,0,0,0,-1,1329,638,0,0
112,386,0,0,0,0,0,0,0,0,0,-1,1336,638,0,0
119,386,0,0,0,0,0,0,0,0,0,-1,1343,638,0,0
126,386,0,0,0,0,0,0,0,0,0,-1,1350,638,0,0
133,386,0,0,0,0,0,0,0,0,0,-1,1357,638,0,0
140,386,0,0,0,0,0,0,0,0,0,-1,1364,638,0,0
147,386,0,0,0,0,0,0,0,0,0,-1,1371,638,0,0
154,386,0,0,0,0,0,0,0,0,0,-1,1378,638,0,0
161,386,0,0,0,0,0,0,0,0,0,-1,1385,638,0,0
168,386,0,0,0,0,0,0,0,0,0,-1,1392,638,0,0
175,386,0,0,0,0,0,0,0,0,0,-1,1399,638,0,0
182,386,0,0,0,0,0,0,0,0,0,-1,1406,638,0,0
189,386,0,0,0,0,0,0,0,0,0,-1,1413,638,0,0
196,386,0,0,0,0,0,0,0,0,0,-1,1420,638,0,0
203,386,0,0,0,0,0,0,0,0,0,-1,1427,638,0,0
210,386,0,0,0,0,0,0,0,0,0,-1,1434,638,0,0
217,386,0,0,0,0,0,0,0,0,0,-1,1441,638,0,0
224,386,0,0,0,0,0,0,0,0,0,-1,1448,638,0,0
231,386,0,0,0,0,0,0,0,0,0,-1,1455,638,0,0
238,386,0,0,0,0,0,0,0,0,0,-1,1462,638,0,0
245,386,0,0,0,0,0,0,0,0,0,-1,1469,638,0,0
252,386,0,0,0,0,0,0,0,0,0,-1,1476,638,0,0
259,386,0,0,0,0,0,0,0,0,0,-1,1483,638,0,0
266,386,0,0,0,0,0,0,0,0,0,-1,1490,638,0,0
273,386,0,0,0,0,0,0,0,0,0,-1,1497,638,0,0
280,386,0,0,0,0,0,0,0,0,0,-1,1504,638,0,0
287,386,0,0,0,0,0,0,0,0,0,-1,1511,638,0,0
294,386,0,0,0,0,0,0,0,0,0,-1,1518,638,0,0
301,386,0,0,0,0,0,0,0,0,0,-1,1525,638,0,0
308,386,0,0,0,0,0,0,0,0,0,-1,1532,638,0,0
315,386,0,0,0,0,0,0,0,0,0,-1,1539,638,0,0
322,386,0,0,0,0,0,0,0,0,0,-1,1546,638,0,0
329,386,0,0,0,0,0,0,0,0,0,-1,1553,638,0,0
336,386,0,0,0,0,0,0,0,0,0,-1,1560,638,0,0
343,386,0,0,0,0,0,0,0,0,0,-1,1567,638,0,0
350,386,0,0,0,0,0,0,0,0,0,-1,1574,638,0,0
357,386,0,0,0,0,0,0,0,0,0,-1,1581,638,0,0
364,386,0,0,0,0,0,0,0,0,0,-1,1588,638,0,0
371,386,0,0,0,0,0,0,0,0,0,-1,1595,638,0,0
378,386,0,0,0,0,0,0,0,0,0,-1,1602,638,0,0
385,386,0,0,0,0,0,0,0,0,0,-1,1609,638,0,0
392,386,0,0,0,0,0,0,0,0,0,-1,1616,638,0,0
399,386,0,0,0,0,0,0,0,0,0,-1,1623,638,0,0
406,386,0,0,0,0,0,0,0,0,0,-1,1630,638,0,0
413,386,0,0,0,0,0,0,0,0,0,-1,1637,638,0,0
420,386,0,0,0,0,0,0,0,0,0,-1,1644,638,0,0
427,386,0,0,0,0,0,0,0,0,0,-1,1651,638,0,0
434,386,0,0,0,0,0,0,0,0,0,-1,1658,638,0,0
441,386,0,0,0,0,0,0,0,0,0,-1,1665,638,0,0
448,386,0,0,0,0,0,0,0,0,0,-1,1672,638,0,0
455,386,0,0,0,0,0,0,0,0,0,-1,1679,638,0,0
462,386,0,0,0,0,0,0,0,0,0,-1,1686,638,0,0
469,386,9.84692,1.55804,0,0,0,0,0,0,0,-1,1693,638,9.84691,-1.55807
476,386,10.6145,0.986511,0,0,0,0,0,0,0,-1,1700,638,10.6145,-0.986529
483,386,11.4113,0.732971,0,0,0,0,0,0,0,-1,1707,638,11.4112,-0.732958
490,386,7.79785,1.79572,0,0,0,0,0,0,0,-1,1714,638,7.79788,-1.7957
497,386,8.96362,1.77081,0,0,0,0,0,0,0,-1,1721,638,8.96357,-1.77081
504,386,10.0555,1.69427,0,0,0,0,0,0,0,-1,1728,638,10.0555,-1.69426
511,386,11.2172,1.534,0,0,0,0,0,0,0,-1,1735,638,11.2172,-1.53398
518,386,7.41553,1.75238,0,0,0,0,0,0,0,-1,1742,638,7.41547,-1.75238
525,386,8.82422,-1.1449,0,0,0,0,0,0,0,-1,1749,638,8.82426,1.14492
532,386,10.6432,0.617371,0,0,0,0,0,0,0,-1,1756,638,10.6432,-0.617359
539,386,9.62061,-0.393616,0,0,0,0,0,0,0,-1,1763,638,9.62059,0.393634
546,386,10.7963,-2.854,0,0,0,0,0,0,0,-1,1770,638,10.7962,2.854
553,386,16.9939,-7.27942,0,0,0,0,0,0,0,-1,1777,638,16.9939,7.27944
560,386,38.3007,-21.4312,0,0,0,0,0,0,0,-1,1784,638,38.3007,21.4312
567,386,38.2993,-20.2777,0,0,0,0,0,0,0,-1,1791,638,38.2994,20.2777
574,386,38.3074,-19.1859,0.0017367,-0.000306946,-4.81709e-05,0.00173783,-0.000308081,-0.0235537,0.00127373,0.0161579,1798,638,38.3073,19.1858
581,386,38.1974,-18.1454,0.00128785,0.000177994,0.000183875,0.00131752,0.000148324,0.159982,0.000833316,0.0162265,1805,638,38.1974,18.1454
588,386,38.1687,-17.1199,0.00118692,0.000808918,0.000563497,0.00159227,0.00040357,0.623591,0.000955822,0.0146008,1812,638,38.1687,17.1199
595,386,38.0978,-16.086,0.00137842,0.00159068,0.00107909,0.00256884,0.000400257,0.834419,0.00159596,0.0167111,1819,638,38.0978,16.086
602,386,38.0013,-15.0808,0.00181027,0.00251054,0.00170839,0.00390431,0.000416498,0.886474,0.00247575,0.0182576,1826,638,38.0013,15.0808
609,386,37.9358,-14.0294,0.00243096,0.00357045,0.00242012,0.00548698,0.000514429,0.901004,0.00349914,0.016328,1833,638,37.9358,14.0294
616,386,37.8671,-12.9333,0.00326697,0.00478427,0.00319496,0.00730942,0.000741823,0.901965,0.00464546,0.0132485,1840,638,37.8671,12.9333
623,386,37.7717,-11.8687,0.00429433,0.00607362,0.00405367,0.00933412,0.00103382,0.893419,0.00590837,0.0115168,1847,638,37.7718,11.8687
630,386,37.8464,-10.7794,0.00538973,0.00733092,0.0048794,0.0113353,0.00138533,0.883575,0.00714005,0.0374193,1854,638,37.8464,10.7794
637,386,38.009,-9.66437,0,0,0,0,0,0,0,-1,1861,638,38.009,9.66437
644,386,11.6521,0.723328,0,0,0,0,0,0,0,-1,1868,638,11.6521,-0.723355
651,386,9.3866,1.31097,0,0,0,0,0,0,0,-1,1875,638,9.3866,-1.31095
658,386,12.0731,-0.00415039,0,0,0,0,0,0,0,-1,1882,638,12.0731,0.00412803
665,386,6.33167,1.78601,0,0,0,0,0,0,0,-1,1889,638,6.33171,-1.78601
672,386,7.23352,2.14435,0,0,0,0,0,0,0,-1,1896,638,7.23353,-2.14433
679,386,8.07764,2.57104,0,0,0,0,0,0,0,-1,1903,638,8.07758,-2.57103
686,386,0,0,0,0,0,0,0,0,0,-1,1910,638,0,0
693,386,0,0,0,0,0,0,0,0,0,-1,1917,638,0,0
700,386,0,0,0,0,0,0,0,0,0,-1,1924,638,0,0
707,386,0,0,0,0,0,0,0,0,0,-1,1931,638,0,0
714,386,0,0,0,0,0,0,0,0,0,-1,1938,638,0,0
721,386,0,0,0,0,0,0,0,0,0,-1,1945,638,0,0
728,386,0,0,0,0,0,0,0,0,0,-1,1952,638,0,0
735,386,0,0,0,0,0,0,0,0,0,-1,1959,638,0,0
742,386,0,0,0,0,0,0,0,0,0,-1,1966,638,0,0
749,386,0,0,0,0,0,0,0,0,0,-1,1973,638,0,0
756,386,0,0,0,0,0,0,0,0,0,-1,1980,638,0,0
763,386,0,0,0,0,0,0,0,0,0,-1,1987,638,0,0
770,386,0,0,0,0,0,0,0,0,0,-1,1994,638,0,0
777,386,0,0,0,0,0,0,0,0,0,-1,2001,638,0,0
784,386,0,0,0,0,0,0,0,0,0,-1,2008,638,0,0
791,386,0,0,0,0,0,0,0,0,0,-1,2015,638,0,0
798,386,0,0,0,0,0,0,0,0,0,-1,2022,638,0,0
805,386,0,0,0,0,0,0,0,0,0,-1,2029,638,0,0
812,386,0,0,0,0,0,0,0,0,0,-1,2036,638,0,0
-700,379,0,0,0,0,0,0,0,0,0,-1,524,645,0,0
-693,379,0,0,0,0,0,0,0,0,0,-1,531,645,0,0
-686,379,0,0,0,0,0,0,0,0,0,-1,538,645,0,0
-679,379,0,0,0,0,0,0,0,0,0,-1,545,645,0,0
-672,379,0,0,0,0,0,0,0,0,0,-1,552,645,0,0
-665,379,0,0,0,0,0,0,0,0,0,-1,559,645,0,0
-658,379,0,0,0,0,0,0,0,0,0,-1,566,645,0,0
-651,379,0,0,0,0,0,0,0,0,0,-1,573,645,0,0
-644,379,0,0,0,0,0,0,0,0,0,-1,580,645,0,0
-637,379,0,0,0,0,0,0,0,0,0,-1,587,645,0,0
-630,379,0,0,0,0,0,0,0,0,0,-1,594,645,0,0
-623,379,0,0,0,0,0,0,0,0,0,-1,601,645,0,0
-616,379,0,0,0,0,0,0,0,0,0,-1,608,645,0,0
-609,379,0,0,0,0,0,0,0,0,0,-1,615,645,0,0
-602,379,0,0,0,0,0,0,0,0,0,-1,622,645,0,0
-595,379,0,0,0,0,0,0,0,0,0,-1,629,645,0,0
-588,379,0,0,0,0,0,0,0,0,0,-1,636,645,0,0
-581,379,0,0,0,0,0,0,0,0,0,-1,643,645,0,0
-574,379,0,0,0,0,0,0,0,0,0,-1,650,645,0,0
-567,379,-8.78058,0.59668,0,0,0,0,0,0,0,-1,657,645,-8.7806,-0.596692
-560,379,-9.53485,-0.211304,0,0,0,0,0,0,0,-1,664,645,-9.53487,0.211282
-553,379,-5.17108,-4.53119,0,0,0,0,0,0,0,-1,671,645,-5.17106,4.53117
-546,379,-6.23053,-4.92102,0,0,0,0,0,0,0,-1,678,645,-6.23054,4.92105
-539,379,-0.71698,-2.19427,0,0,0,0,0,0,0,-1,685,645,-0.716959,2.19427
-532,379,-7.69611,0.217224,0,0,0,0,0,0,0,-1,692,645,-7.69614,-0.217204
-525,379,-7.09833,-1.13043,0,0,0,0,0,0,0,-1,699,645,-7.0983,1.13041
-518,379,-13.126,-5.33893,0,0,0,0,0,0,0,-1,706,645,-13.126,5.33895
-511,379,-21.5836,-9.40607,0,0,0,0,0,0,0,-1,713,645,-21.5836,9.40608
-504,379,-21.5865,-10.5829,0.00142256,0.000295688,-0.00108633,0.00208287,-0.000364628,-0.546166,0.00152473,0.0395365,720,645,-21.5865,10.583
-497,379,-21.7053,-11.6089,0.00118492,0.000348398,-0.000837371,0.00170268,-0.00016936,-0.553777,0.00119558,0.0166576,727,645,-21.7053,11.6089
-490,379,-21.7509,-12.688,0.00103404,0.000268069,-0.000627639,0.00138632,-8.42061e-05,-0.511454,0.000953521,0.0121237,734,645,-21.7509,12.688
-483,379,-21.8152,-13.7343,0.000963075,0.000179994,-0.000508712,0.00121348,-7.04087e-05,-0.457412,0.000833447,0.0139088,741,645,-21.8152,13.7342
-476,379,-21.8775,-14.7509,0.00102467,9.43735e-05,-0.000473581,0.00122333,-0.000104287,-0.397191,0.000852444,0.0142722,748,645,-21.8775,14.7509
-469,379,-21.9747,-15.7975,0.00124269,1.12643e-05,-0.000532943,0.0014413,-0.000187352,-0.356733,0.00102902,0.0129342,755,645,-21.9747,15.7975
-462,379,-22.0656,-16.8632,0.00156016,-6.83561e-05,-0.000671983,0.00180164,-0.000309834,-0.34498,0.00131658,0.00991212,762,645,-22.0655,16.8632
-455,379,-22.1533,-17.9086,0.00202049,-0.000100464,-0.000887173,0.00234265,-0.000422625,-0.348326,0.00172004,0.0105239,769,645,-22.1533,17.9086
-448,379,-22.2119,-18.9391,0.00262789,-0.000129531,-0.00118896,0.00306974,-0.000571388,-0.355816,0.00226115,0.0132454,776,645,-22.2118,18.9391
-441,379,-22.2554,-20.0482,0.00338008,-3.04269e-05,-0.00162421,0.00402981,-0.00068016,-0.380532,0.00293961,0.025425,783,645,-22.2554,20.0482
-434,379,-22.1407,-21.2322,0,0,0,0,0,0,0,-1,790,645,-22.1407,21.2322
-427,379,-4.16113,-4.13452,0,0,0,0,0,0,0,-1,797,645,-4.16116,4.1345
-420,379,-4.63953,-3.46869,0,0,0,0,0,0,0,-1,804,645,-4.63953,3.46872
-413,379,-4.62543,-3.7912,0,0,0,0,0,0,0,-1,811,645,-4.62541,3.79123
-406,379,-4.64063,-4.38489,0,0,0,0,0,0,0,-1,818,645,-4.64065,4.3849
-399,379,-2.93536,-1.40118,0,0,0,0,0,0,0,-1,825,645,-2.93534,1.40119
-392,379,-4.16711,-0.466003,0,0,0,0,0,0,0,-1,832,645,-4.16714,0.465992
-385,379,-3.51862,0.441101,0,0,0,0,0,0,0,-1,839,645,-3.51859,-0.441072
-378,379,-5.3504,0.212219,0,0,0,0,0,0,0,-1,846,645,-5.35038,-0.212241
-371,379,-4.32092,-0.186707,0,0,0,0,0,0,0,-1,853,645,-4.3209,0.186707
-364,379,-3.40887,-0.549805,0,0,0,0,0,0,0,-1,860,645,-3.4089,0.549802
-357,379,0,0,0,0,0,0,0,0,0,-1,867,645,0,0
-350,379,0,0,0,0,0,0,0,0,0,-1,874,645,0,0
-343,379,0,0,0,0,0,0,0,0,0,-1,881,645,0,0
-336,379,0,0,0,0,0,0,0,0,0,-1,888,645,0,0
-329,379,0,0,0,0,0,0,0,0,0,-1,895,645,0,0
-322,379,0,0,0,0,0,0,0,0,0,-1,902,645,0,0
-315,379,0,0,0,0,0,0,0,0,0,-1,909,645,0,0
-308,379,0,0,0,0,0,0,0,0,0,-1,916,645,0,0
-301,379,0,0,0,0,0,0,0,0,0,-1,923,645,0,0
-294,379,0,0,0,0,0,0,0,0,0,-1,930,645,0,0
-287,379,0,0,0,0,0,0,0,0,0,-1,937,645,0,0
-280,379,0,0,0,0,0,0,0,0,0,-1,944,645,0,0
-273,379,0,0,0,0,0,0,0,0,0,-1,951,645,0,0
-266,379,0,0,0,0,0,0,0,0,0,-1,958,645,0,0
-259,379,0,0,0,0,0,0,0,0,0,-1,965,645,0,0
-252,379,0,0,0,0,0,0,0,0,0,-1,972,645,0,0
-245,379,0,0,0,0,0,0,0,0,0,-1,979,645,0,0
-238,379,0,0,0,0,0,0,0,0,0,-1,986,645,0,0
-231,379,0,0,0,0,0,0,0,0,0,-1,993,645,0,0
-224,379,0,0,0,0,0,0,0,0,0,-1,1000,645,0,0
-217,379,0,0,0,0,0,0,0,0,0,-1,1007,645,0,0
-210,379,0,0,0,0,0,0,0,0,0,-1,1014,645,0,0
-203,379,0,0,0,0,0,0,0,0,0,-1,1021,645,0,0
-196,379,0,0,0,0,0,0,0,0,0,-1,1028,645,0,0
-189,379,0,0,0,0,0,0,0,0,0,-1,1035,645,0,0
-182,379,0,0,0,0,0,0,0,0,0,-1,1042,645,0,0
-175,379,0,0,0,0,0,0,0,0,0,-1,1049,645,0,0
-168,379,0,0,0,0,0,0,0,0,0,-1,1056,645,0,0
-161,379,0,0,0,0,0,0,0,0,0,-1,1063,645,0,0
-154,379,0,0,0,0,0,0,0,0,0,-1,1070,645,0,0
-147,379,0,0,0,0,0,0,0,0,0,-1,1077,645,0,0
-140,379,0,0,0,0,0,0,0,0,0,-1,1084,645,0,0
-133,379,0,0,0,0,0,0,0,0,0,-1,1091,645,0,0
-126,379,0,0,0,0,0,0,0,0,0,-1,1098,645,0,0
-119,379,0,0,0,0,0,0,0,0,0,-1,1105,645,0,0
-112,379,0,0,0,0,0,0,0,0,0,-1,1112,645,0,0
-105,379,0,0,0,0,0,0,0,0,0,-1,1119,645,0,0
-98,379,0,0,0,0,0,0,0,0,0,-1,1126,645,0,0
-91,379,0,0,0,0,0,0,0,0,0,-1,1133,645,0,0
-84,379,0,0,0,0,0,0,0,0,0,-1,1140,645,0,0
-77,379,0,0,0,0,0,0,0,0,0,-1,1147,645,0,0
-70,379,0,0,0,0,0,0,0,0,0,-1,1154,645,0,0
-63,379,0,0,0,0,0,0,0,0,0,-1,1161,645,0,0
-56,379,0,0,0,0,0,0,0,0,0,-1,1168,645,0,0
-49,379,0,0,0,0,0,0,0,0,0,-1,1175,645,0,0
-42,379,0,0,0,0,0,0,0,0,0,-1,1182,645,0,0
-35,379,0,0,0,0,0,0,0,0,0,-1,1189,645,0,0
-28,379,0,0,0,0,0,0,0,0,0,-1,1196,645,0,0
-21,379,0,0,0,0,0,0,0,0,0,-1,1203,645,0,0
-14,379,0,0,0,0,0,0,0,0,0,-1,1210,645,0,0
-7,379,0,0,0,0,0,0,0,0,0,-1,1217,645,0,0
0,379,0,0,0,0,0,0,0,0,0,-1,1224,645,0,0
7,379,0,0,0,0,0,0,0,0,0,-1,1231,645,0,0
14,379,0,0,0,0,0,0,0,0,0,-1,1238,645,0,0
21,379,0,0,0,0,0,0,0,0,0,-1,1245,645,0,0
28,379,0,0,0,0,0,0,0,0,0,-1,1252,645,0,0
35,379,0,0,0,0,0,0,0,0,0,-1,1259,645,0,0
42,379,0,0,0,0,0,0,0,0,0,-1,1266,645,0,0
49,379,0,0,0,0,0,0,0,0,0,-1,1273,645,0,0
56,379,0,0,0,0,0,0,0,0,0,-1,1280,645,0,0
63,379,0,0,0,0,0,0,0,0,0,-1,1287,645,0,0
70,379,0,0,0,0,0,0,0,0,0,-1,1294,645,0,0
77,379,0,0,0,0,0,0,0,0,0,-1,1301,645,0,0
84,379,0,0,0,0,0,0,0,0,0,-1,1308,645,0,0
91,379,0,0,0,0,0,0,0,0,0,-1,1315,645,0,0
98,379,0,0,0,0,0,0,0,0,0,-1,1322,645,0,0
105,379,0,0,0,0,0,0,0,0,0,-1,1329,645,0,0
112,379,0,0,0,0,0,0,0,0,0,-1,1336,645,0,0
119,379,0,0,0,0,0,0,0,0,0,-1,1343,645,0,0
126,379,0,0,0,0,0,0,0,0,0,-1,1350,645,0,0
133,379,0,0,0,0,0,0,0,0,0,-1,1357,645,0,0
140,379,0,0,0,0,0,0,0,0,0,-1,1364,645,0,0
147,379,0,0,0,0,0,0,0,0,0,-1,1371,645,0,0
154,379,0,0,0,0,0,0,0,0,0,-1,1378,645,0,0
161,379,0,0,0,0,0,0,0,0,0,-1,1385,645,0,0
168,379,0,0,0,0,0,0,0,0,0,-1,1392,645,0,0
175,379,0,0,0,0,0,0,0,0,0,-1,1399,645,0,0
182,379,0,0,0,0,0,0,0,0,0,-1,1406,645,0,0
189,379,0,0,0,0,0,0,0,0,0,-1,1413,645,0,0
196,379,0,0,0,0,0,0,0,0,0,-1,1420,645,0,0
203,379,0,0,0,0,0,0,0,0,0,-1,1427,645,0,0
210,379,0,0,0,0,0,0,0,0,0,-1,1434,645,0,0
217,379,0,0,0,0,0,0,0,0,0,-1,1441,645,0,0
224,379,0,0,0,0,0,0,0,0,0,-1,1448,645,0,0
231,379,0,0,0,0,0,0,0,0,0,-1,1455,645,0,0
238,379,0,0,0,0,0,0,0,0,0,-1,1462,645,0,0
245,379,0,0,0,0,0,0,0,0,0,-1,1469,645,0,0
252,379,0,0,0,0,0,0,0,0,0,-1,1476,645,0,0
259,379,0,0,0,0,0,0,0,0,0,-1,1483,645,0,0
266,379,0,0,0,0,0,0,0,0,0,-1,1490,645,0,0
273,379,0,0,0,0,0,0,0,0,0,-1,1497,645,0,0
280,379,0,0,0,0,0,0,0,0,0,-1,1504,645,0,0
287,379,0,0,0,0,0,0,0,0,0,-1,1511,645,0,0
294,379,0,0,0,0,0,0,0,0,0,-1,1518,645,0,0
301,379,0,0,0,0,0,0,0,0,0,-1,1525,645,0,0
308,379,0,0,0,0,0,0,0,0,0,-1,1532,645,0,0
315,379,0,0,0,0,0,0,0,0,0,-1,1539,645,0,0
322,379,0,0,0,0,0,0,0,0,0,-1,1546,645,0,0
329,379,0,0,0,0,0,0,0,0,0,-1,1553,645,0,0
336,379,0,0,0,0,0,0,0,0,0,-1,1560,645,0,0
343,379,0,0,0,0,0,0,0,0,0,-1,1567,645,0,0
350,379,0,0,0,0,0,0,0,0,0,-1,1574,645,0,0
357,379,0,0,0,0,0,0,0,0,0,-1,1581,645,0,0
364,379,0,0,0,0,0,0,0,0,0,-1,1588,645,0,0
371,379,0,0,0,0,0,0,0,0,0,-1,1595,645,0,0
378,379,0,0,0,0,0,0,0,0,0,-1,1602,645,0,0
385,379,0,0,0,0,0,0,0,0,0,-1,1609,645,0,0
392,379,0,0,0,0,0,0,0,0,0,-1,1616,645,0,0
399,379,0,0,0,0,0,0,0,0,0,-1,1623,645,0,0
406,379,0,0,0,0,0,0,0,0,0,-1,1630,645,0,0
413,379,0,0,0,0,0,0,0,0,0,-1,1637,645,0,0
420,379,0,0,0,0,0,0,0,0,0,-1,1644,645,0,0
427,379,0,0,0,0,0,0,0,0,0,-1,1651,645,0,0
434,379,0,0,0,0,0,0,0,0,0,-1,1658,645,0,0
441,379,0,0,0,0,0,0,0,0,0,-1,1665,645,0,0
448,379,0,0,0,0,0,0,0,0,0,-1,1672,645,0,0
455,379,0,0,0,0,0,0,0,0,0,-1,1679,645,0,0
462,379,0,0,0,0,0,0,0,0,0,-1,1686,645,0,0
469,379,0,0,0,0,0,0,0,0,0,-1,1693,645,0,0
476,379,11.1787,0.830383,0,0,0,0,0,0,0,-1,1700,645,11.1787,-0.830365
483,379,7.4231,1.54321,0,0,0,0,0,0,0,-1,1707,645,7.42314,-1.54324
490,379,8.52881,1.56677,0,0,0,0,0,0,0,-1,1714,645,8.52878,-1.56677
497,379,9.63599,1.49573,0,0,0,0,0,0,0,-1,1721,645,9.63604,-1.4957
504,379,10.0833,1.35229,0,0,0,0,0,0,0,-1,1728,645,10.0832,-1.35227
511,379,8.14343,1.59912,0,0,0,0,0,0,0,-1,1735,645,8.14347,-1.59912
518,379,12.7955,-0.324097,0,0,0,0,0,0,0,-1,1742,645,12.7955,0.324101
525,379,6.03711,1.10352,0,0,0,0,0,0,0,-1,1749,645,6.03711,-1.10351
532,379,8.70947,0.887817,0,0,0,0,0,0,0,-1,1756,645,8.70953,-0.887808
539,379,9.87097,0.111389,0,0,0,0,0,0,0,-1,1763,645,9.87095,-0.111395
546,379,8.42383,-0.730652,0,0,0,0,0,0,0,-1,1770,645,8.42378,0.730638
553,379,19.2905,-7.67834,0,0,0,0,0,0,0,-1,1777,645,19.2905,7.67837
560,379,22.5734,-10.4749,0,0,0,0,0,0,0,-1,1784,645,22.5734,10.4749
567,379,39.3611,-20.2263,0,0,0,0,0,0,0,-1,1791,645,39.361,20.2262
574,379,39.3176,-19.0842,0.00179515,-0.000747121,-0.000293927,0.00182869,-0.000780661,-0.113619,0.00154648,0.0188419,1798,645,39.3176,19.0842
581,379,39.2692,-18.067,0.00122732,-0.000292302,-0.000103653,0.00123435,-0.00029934,-0.0677917,0.000938728,0.0163159,1805,645,39.2692,18.067
588,379,39.2107,-17.0472,0.00105658,0.000247273,0.000235766,0.00112025,0.000183599,0.263777,0.000693781,0.0177674,1812,645,39.2107,17.0472
595,379,39.1353,-16.0157,0.00117807,0.000944627,0.000685633,0.00175685,0.00036585,0.701087,0.00107033,0.015149,1819,645,39.1352,16.0157
602,379,39.0499,-15.0045,0.00152016,0.00174695,0.00122355,0.00286235,0.000404766,0.831605,0.00178864,0.0183573,1826,645,39.0499,15.0045
609,379,38.9608,-14.0072,0.00198929,0.00265161,0.00180122,0.00415186,0.000489042,0.876309,0.00262015,0.0211814,1833,645,38.9608,14.0072
616,379,38.8645,-12.9172,0.00262264,0.00366469,0.00241049,0.00560982,0.000677509,0.891836,0.00353575,0.0160997,1840,645,38.8645,12.9172
623,379,38.8218,-11.7886,0.00344814,0.00472159,0.00309515,0.00724483,0.000924902,0.886841,0.00455301,0.01285,1847,645,38.8218,11.7886
630,379,38.7544,-10.7572,0.00427946,0.00575556,0.00372314,0.0088131,0.00122192,0.883246,0.00551341,0.0146887,1854,645,38.7544,10.7572
637,379,38.7029,-9.60272,0.00506469,0.00695981,0.00431959,0.0104345,0.00158996,0.89337,0.00649161,0.0444576,1861,645,38.7029,9.60271
644,379,38.87,-8.30975,0,0,0,0,0,0,0,-1,1868,645,38.87,8.30976
651,379,12.9515,0.220825,0,0,0,0,0,0,0,-1,1875,645,12.9515,-0.220814
658,379,13.7498,0.37439,0,0,0,0,0,0,0,-1,1882,645,13.7498,-0.374371
665,379,11.9719,0.353333,0,0,0,0,0,0,0,-1,1889,645,11.9719,-0.353321
672,379,7.57605,2.15326,0,0,0,0,0,0,0,-1,1896,645,7.57599,-2.15326
679,379,8.55078,2.50409,0,0,0,0,0,0,0,-1,1903,645,8.55073,-2.50406
686,379,0,0,0,0,0,0,0,0,0,-1,1910,645,0,0
693,379,0,0,0,0,0,0,0,0,0,-1,1917,645,0,0
700,379,0,0,0,0,0,0,0,0,0,-1,1924,645,0,0
707,379,0,0,0,0,0,0,0,0,0,-1,1931,645,0,0
714,379,0,0,0,0,0,0,0,0,0,-1,1938,645,0,0
721,379,0,0,0,0,0,0,0,0,0,-1,1945,645,0,0
728,379,0,0,0,0,0,0,0,0,0,-1,1952,645,0,0
735,379,0,0,0,0,0,0,0,0,0,-1,1959,645,0,0
742,379,0,0,0,0,0,0,0,0,0,-1,1966,645,0,0
749,379,0,0,0,0,0,0,0,0,0,-1,1973,645,0,0
756,379,0,0,0,0,0,0,0,0,0,-1,1980,645,0,0
763,379,0,0,0,0,0,0,0,0,0,-1,1987,645,0,0
770,379,0,0,0,0,0,0,0,0,0,-1,1994,645,0,0
777,379,0,0,0,0,0,0,0,0,0,-1,2001,645,0,0
784,379,0,0,0,0,0,0,0,0,0,-1,2008,645,0,0
791,379,0,0,0,0,0,0,0,0,0,-1,2015,645,0,0
798,379,0,0,0,0,0,0,0,0,0,-1,2022,645,0,0
805,379,0,0,0,0,0,0,0,0,0,-1,2029,645,0,0
812,379,0,0,0,0,0,0,0,0,0,-1,2036,645,0,0
-700,372,0,0,0,0,0,0,0,0,0,-1,524,652,0,0
-693,372,0,0,0,0,0,0,0,0,0,-1,531,652,0,0
-686,372,0,0,0,0,0,0,0,0,0,-1,538,652,0,0
-679,372,0,0,0,0,0,0,0,0,0,-1,545,652,0,0
-672,372,0,0,0,0,0,0,0,0,0,-1,552,652,0,0
-665,372,0,0,0,0,0,0,0,0,0,-1,559,652,0,0
-658,372,0,0,0,0,0,0,0,0,0,-1,566,652,0,0
-651,372,0,0,0,0,0,0,0,0,0,-1,573,652,0,0
-644,372,0,0,0,0,0,0,0,0,0,-1,580,652,0,0
-637,372,0,0,0,0,0,0,0,0,0,-1,587,652,0,0
-630,372,0,0,0,0,0,0,0,0,0,-1,594,652,0,0
-623,372,0,0,0,0,0,0,0,0,0,-1,601,652,0,0
-616,372,0,0,0,0,0,0,0,0,0,-1,608,652,0,0
-609,372,0,0,0,0,0,0,0,0,0,-1,615,652,0,0
-602,372,0,0,0,0,0,0,0,0,0,-1,622,652,0,0
-595,372,0,0,0,0,0,0,0,0,0,-1,629,652,0,0
-588,372,0,0,0,0,0,0,0,0,0,-1,636,652,0,0
-581,372,0,0,0,0,0,0,0,0,0,-1,643,652,0,0
-574,372,0,0,0,0,0,0,0,0,0,-1,650,652,0,0
-567,372,-7.93744,0.73407,0,0,0,0,0,0,0,-1,657,652,-7.93741,-0.734076
-560,372,-8.78552,-0.158203,0,0,0,0,0,0,0,-1,664,652,-8.78552,0.158216
-553,372,-7.95551,1.61694,0,0,0,0,0,0,0,-1,671,652,-7.95552,-1.61697
-546,372,-4.2403,-3.75372,0,0,0,0,0,0,0,-1,678,652,-4.24028,3.75369
-539,372,-7.92285,-0.0650024,0,0,0,0,0,0,0,-1,685,652,-7.92287,0.0649772
-532,372,-8.59589,-0.419556,0,0,0,0,0,0,0,-1,692,652,-8.59591,0.419539
-525,372,-8.03674,-1.36804,0,0,0,0,0,0,0,-1,699,652,-8.03676,1.36806
-518,372,-22.5635,-8.20709,0,0,0,0,0,0,0,-1,706,652,-22.5635,8.2071
-511,372,-22.5887,-9.41986,0.00176658,0.000197985,-0.00153832,0.00270899,-0.00074443,-0.549653,0.00209862,0.0424565,713,652,-22.5888,9.41984
-504,372,-22.6776,-10.4321,0.00157962,0.000200412,-0.00112371,0.00220846,-0.000428425,-0.510188,0.00163394,0.0201086,720,652,-22.6775,10.4321
-497,372,-22.7196,-11.5394,0.00144356,0.000145193,-0.000836188,0.00185299,-0.00026423,-0.455318,0.00133216,0.0135368,727,652,-22.7196,11.5394
-490,372,-22.8068,-12.595,0.00135364,5.54756e-05,-0.000623499,0.00160459,-0.000195475,-0.38265,0.00114048,0.0137902,734,652,-22.8068,12.5951
-483,372,-22.891,-13.6345,0.0013306,-1.0356e-05,-0.000509968,0.00150251,-0.00018226,-0.325126,0.00106762,0.0130508,741,652,-22.891,13.6345
-476,372,-22.9542,-14.6606,0.0014006,-3.89515e-05,-0.000480291,0.00154613,-0.000184483,-0.294214,0.00109743,0.0142518,748,652,-22.9542,14.6606
-469,372,-23.0511,-15.6912,0.00159264,-3.58436e-05,-0.000556676,0.00176475,-0.000207947,-0.299842,0.00125159,0.0118842,755,652,-23.0512,15.6912
-462,372,-23.1138,-16.7538,0.00187228,-3.52722e-06,-0.000719618,0.00211654,-0.000247789,-0.327229,0.00150046,0.0102412,762,652,-23.1138,16.7538
-455,372,-23.1974,-17.7994,0.00229233,6.86399e-05,-0.000969824,0.00265587,-0.000294898,-0.358639,0.00187662,0.0110314,769,652,-23.1974,17.7994
-448,372,-23.2525,-18.854,0.00284919,0.000154397,-0.00131317,0.00338325,-0.000379663,-0.386266,0.00239212,0.0178837,776,652,-23.2525,18.854
-441,372,-23.1147,-20.1288,0,0,0,0,0,0,0,-1,783,652,-23.1147,20.1288
-434,372,-9.86865,-9.68494,0,0,0,0,0,0,0,-1,790,652,-9.86863,9.68492
-427,372,-4.54248,-3.56268,0,0,0,0,0,0,0,-1,797,652,-4.54247,3.56266
-420,372,-4.66168,-2.93597,0,0,0,0,0,0,0,-1,804,652,-4.66166,2.93599
-413,372,-4.74762,-3.29541,0,0,0,0,0,0,0,-1,811,652,-4.74763,3.29542
-406,372,-0.885437,-0.583923,0,0,0,0,0,0,0,-1,818,652,-0.885437,0.5839
-399,372,-3.97357,-0.825012,0,0,0,0,0,0,0,-1,825,652,-3.97359,0.825037
-392,372,-7.64337,0.173035,0,0,0,0,0,0,0,-1,832,652,-7.64337,-0.173019
-385,372,-6.48871,-0.0271606,0,0,0,0,0,0,0,-1,839,652,-6.48874,0.0271353
-378,372,-5.33044,-0.242432,0,0,0,0,0,0,0,-1,846,652,-5.33042,0.242457
-371,372,-4.40802,-0.495667,0,0,0,0,0,0,0,-1,853,652,-4.40802,0.495661
-364,372,0,0,0,0,0,0,0,0,0,-1,860,652,0,0
-357,372,0,0,0,0,0,0,0,0,0,-1,867,652,0,0
-350,372,0,0,0,0,0,0,0,0,0,-1,874,652,0,0
-343,372,0,0,0,0,0,0,0,0,0,-1,881,652,0,0
-336,372,0,0,0,0,0,0,0,0,0,-1,888,652,0,0
-329,372,0,0,0,0,0,0,0,0,0,-1,895,652,0,0
-322,372,0,0,0,0,0,0,0,0,0,-1,902,652,0,0
-315,372,0,0,0,0,0,0,0,0,0,-1,909,652,0,0
-308,372,0,0,0,0,0,0,0,0,0,-1,916,652,0,0
-301,372,0,0,0,0,0,0,0,0,0,-1,923,652,0,0
-294,372,0,0,0,0,0,0,0,0,0,-1,930,652,0,0
-287,372,0,0,0,0,0,0,0,0,0,-1,937,652,0,0
-280,372,0,0,0,0,0,0,0,0,0,-1,944,652,0,0
-273,372,0,0,0,0,0,0,0,0,0,-1,951,652,0,0
-266,372,0,0,0,0,0,0,0,0,0,-1,958,652,0,0
-259,372,0,0,0,0,0,0,0,0,0,-1,965,652,0,0
-252,372,0,0,0,0,0,0,0,0,0,-1,972,652,0,0
-245,372,0,0,0,0,0,0,0,0,0,-1,979,652,0,0
-238,372,0,0,0,0,0,0,0,0,0,-1,986,652,0,0
-231,372,0,0,0,0,0,0,0,0,0,-1,993,652,0,0
-224,372,0,0,0,0,0,0,0,0,0,-1,1000,652,0,0
-217,372,0,0,0,0,0,0,0,0,0,-1,1007,652,0,0
-210,372,0,0,0,0,0,0,0,0,0,-1,1014,652,0,0
-203,372,0,0,0,0,0,0,0,0,0,-1,1021,652,0,0
-196,372,0,0,0,0,0,0,0,0,0,-1,1028,652,0,0
-189,372,0,0,0,0,0,0,0,0,0,-1,1035,652,0,0
-182,372,0,0,0,0,0,0,0,0,0,-1,1042,652,0,0
-175,372,0,0,0,0,0,0,0,0,0,-1,1049,652,0,0
-168,372,0,0,0,0,0,0,0,0,0,-1,1056,652,0,0
-161,372,0,0,0,0,0,0,0,0,0,-1,1063,652,0,0
-154,372,0,0,0,0,0,0,0,0,0,-1,1070,652,0,0
-147,372,0,0,0,0,0,0,0,0,0,-1,1077,652,0,0
-140,372,0,0,0,0,0,0,0,0,0,-1,1084,652,0,0
-133,372,0,0,0,0,0,0,0,0,0,-1,1091,652,0,0
-126,372,0,0,0,0,0,0,0,0,0,-1,1098,652,0,0
-119,372,0,0,0,0,0,0,0,0,0,-1,1105,652,0,0
-112,372,0,0,0,0,0,0,0,0,0,-1,1112,652,0,0
-105,372,0,0,0,0,0,0,0,0,0,-1,1119,652,0,0
-98,372,0,0,0,0,0,0,0,0,0,-1,1126,652,0,0
-91,372,0,0,0,0,0,0,0,0,0,-1,1133,652,0,0
-84,372,0,0,0,0,0,0,0,0,0,-1,1140,652,0,0
-77,372,0,0,0,0,0,0,0,0,0,-1,1147,652,0,0
-70,372,0,0,0,0,0,0,0,0,0,-1,1154,652,0,0
-63,372,0,0,0,0,0,0,0,0,0,-1,1161,652,0,0
-56,372,0,0,0,0,0,0,0,0,0,-1,1168,652,0,0
-49,372,0,0,0,0,0,0,0,0,0,-1,1175,652,0,0
-42,372,0,0,0,0,0,0,0,0,0,-1,1182,652,0,0
-35,372,0,0,0,0,0,0,0,0,0,-1,1189,652,0,0
-28,372,0,0,0,0,0,0,0,0,0,-1,1196,652,0,0
-21,372,0,0,0,0,0,0,0,0,0,-1,1203,652,0,0
-14,372,0,0,0,0,0,0,0,0,0,-1,1210,652,0,0
-7,372,0,0,0,0,0,0,0,0,0,-1,1217,652,0,0
0,372,0,0,0,0,0,0,0,0,0,-1,1224,652,0,0
7,372,0,0,0,0,0,0,0,0,0,-1,1231,652,0,0
14,372,0,0,0,0,0,0,0,0,0,-1,1238,652,0,0
21,372,0,0,0,0,0,0,0,0,0,-1,1245,652,0,0
28,372,0,0,0,0,0,0,0,0,0,-1,1252,652,0,0
35,372,0,0,0,0,0,0,0,0,0,-1,1259,652,0,0
42,372,0,0,0,0,0,0,0,0,0,-1,1266,652,0,0
49,372,0,0,0,0,0,0,0,0,0,-1,1273,652,0,0
56,372,0,0,0,0,0,0,0,0,0,-1,1280,652,0,0
63,372,0,0,0,0,0,0,0,0,0,-1,1287,652,0,0
70,372,0,0,0,0,0,0,0,0,0,-1,1294,652,0,0
77,372,0,0,0,0,0,0,0,0,0,-1,1301,652,0,0
84,372,0,0,0,0,0,0,0,0,0,-1,1308,652,0,0
91,372,0,0,0,0,0,0,0,0,0,-1,1315,652,0,0
98,372,0,0,0,0,0,0,0,0,0,-1,1322,652,0,0
105,372,0,0,0,0,0,0,0,0,0,-1,1329,652,0,0
112,372,0,0,0,0,0,0,0,0,0,-1,1336,652,0,0
119,372,0,0,0,0,0,0,0,0,0,-1,1343,652,0,0
126,372,0,0,0,0,0,0,0,0,0,-1,1350,652,0,0
133,372,0,0,0,0,0,0,0,0,0,-1,1357,652,0,0
140,372,0,0,0,0,0,0,0,0,0,-1,1364,652,0,0
147,372,0,0,0,0,0,0,0,0,0,-1,1371,652,0,0
154,372,0,0,0,0,0,0,0,0,0,-1,1378,652,0,0
161,372,0,0,0,0,0,0,0,0,0,-1,1385,652,0,0
168,372,0,0,0,0,0,0,0,0,0,-1,1392,652,0,0
175,372,0,0,0,0,0,0,0,0,0,-1,1399,652,0,0
182,372,0,0,0,0,0,0,0,0,0,-1,1406,652,0,0
189,372,0,0,0,0,0,0,0,0,0,-1,1413,652,0,0
196,372,0,0,0,0,0,0,0,0,0,-1,1420,652,0,0
203,372,0,0,0,0,0,0,0,0,0,-1,1427,652,0,0
210,372,0,0,0,0,0,0,0,0,0,-1,1434,652,0,0
217,372,0,0,0,0,0,0,0,0,0,-1,1441,652,0,0
224,372,0,0,0,0,0,0,0,0,0,-1,1448,652,0,0
231,372,0,0,0,0,0,0,0,0,0,-1,1455,652,0,0
238,372,0,0,0,0,0,0,0,0,0,-1,1462,652,0,0
245,372,0,0,0,0,0,0,0,0,0,-1,1469,652,0,0
252,372,0,0,0,0,0,0,0,0,0,-1,1476,652,0,0
259,372,0,0,0,0,0,0,0,0,0,-1,1483,652,0,0
266,372,0,0,0,0,0,0,0,0,0,-1,1490,652,0,0
273,372,0,0,0,0,0,0,0,0,0,-1,1497,652,0,0
280,372,0,0,0,0,0,0,0,0,0,-1,1504,652,0,0
287,372,0,0,0,0,0,0,0,0,0,-1,1511,652,0,0
294,372,0,0,0,0,0,0,0,0,0,-1,1518,652,0,0
301,372,0,0,0,0,0,0,0,0,0,-1,1525,652,0,0
308,372,0,0,0,0,0,0,0,0,0,-1,1532,652,0,0
315,372,0,0,0,0,0,0,0,0,0,-1,1539,652,0,0
322,372,0,0,0,0,0,0,0,0,0,-1,1546,652,0,0
329,372,0,0,0,0,0,0,0,0,0,-1,1553,652,0,0
336,372,0,0,0,0,0,0,0,0,0,-1,1560,652,0,0
343,372,0,0,0,0,0,0,0,0,0,-1,1567,652,0,0
350,372,0,0,0,0,0,0,0,0,0,-1,1574,652,0,0
357,372,0,0,0,0,0,0,0,0,0,-1,1581,652,0,0
364,372,0,0,0,0,0,0,0,0,0,-1,1588,652,0,0
371,372,0,0,0,0,0,0,0,0,0,-1,1595,652,0,0
378,372,0,0,0,0,0,0,0,0,0,-1,1602,652,0,0
385,372,0,0,0,0,0,0,0,0,0,-1,1609,652,0,0
392,372,0,0,0,0,0,0,0,0,0,-1,1616,652,0,0
399,372,0,0,0,0,0,0,0,0,0,-1,1623,652,0,0
406,372,0,0,0,0,0,0,0,0,0,-1,1630,652,0,0
413,372,0,0,0,0,0,0,0,0,0,-1,1637,652,0,0
420,372,0,0,0,0,0,0,0,0,0,-1,1644,652,0,0
427,372,0,0,0,0,0,0,0,0,0,-1,1651,652,0,0
434,372,0,0,0,0,0,0,0,0,0,-1,1658,652,0,0
441,372,0,0,0,0,0,0,0,0,0,-1,1665,652,0,0
448,372,0,0,0,0,0,0,0,0,0,-1,1672,652,0,0
455,372,0,0,0,0,0,0,0,0,0,-1,1679,652,0,0
462,372,0,0,0,0,0,0,0,0,0,-1,1686,652,0,0
469,372,0,0,0,0,0,0,0,0,0,-1,1693,652,0,0
476,372,0,0,0,0,0,0,0,0,0,-1,1700,652,0,0
483,372,8.74182,1.53125,0,0,0,0,0,0,0,-1,1707,652,8.74186,-1.53126
490,372,9.78455,1.67096,0,0,0,0,0,0,0,-1,1714,652,9.7846,-1.67093
497,372,9.97644,1.46069,0,0,0,0,0,0,0,-1,1721,652,9.97647,-1.46071
504,372,10.1216,1.28375,0,0,0,0,0,0,0,-1,1728,652,10.1216,-1.28376
511,372,11.7367,-0.0272217,0,0,0,0,0,0,0,-1,1735,652,11.7367,0.0272326
518,372,12.0657,-0.0995483,0,0,0,0,0,0,0,-1,1742,652,12.0657,0.0995285
525,372,12.3947,-0.171814,0,0,0,0,0,0,0,-1,1749,652,12.3946,0.171824
532,372,9.36597,1.72034,0,0,0,0,0,0,0,-1,1756,652,9.36597,-1.72036
539,372,7.82886,-0.0865479,0,0,0,0,0,0,0,-1,1763,652,7.82882,0.0865771
546,372,10.953,-0.187195,0,0,0,0,0,0,0,-1,1770,652,10.953,0.187181
553,372,14.1201,-4.83234,0,0,0,0,0,0,0,-1,1777,652,14.1201,4.83235
560,372,20.1057,-8.06934,0,0,0,0,0,0,0,-1,1784,652,20.1058,8.06936
567,372,40.467,-20.2508,0,0,0,0,0,0,0,-1,1791,652,40.4671,20.2508
574,372,40.3893,-18.9248,0.00200411,-0.00106081,-0.000438471,0.00206561,-0.0011223,-0.139338,0.00186721,0.044111,1798,652,40.3893,18.9248
581,372,40.3251,-17.9976,0.00133866,-0.000648352,-0.000277186,0.0013766,-0.000686294,-0.13604,0.00121304,0.02303,1805,652,40.3251,17.9976
588,372,40.257,-16.9846,0.00111592,-0.000217888,3.27056e-05,0.00111672,-0.000218689,0.0245009,0.000827071,0.0168553,1812,652,40.2569,16.9846
595,372,40.1697,-15.944,0.00116756,0.000387806,0.000414079,0.00134642,0.000208942,0.407746,0.000836709,0.0151955,1819,652,40.1697,15.944
602,372,40.1283,-14.9349,0.00141063,0.0010668,0.000859243,0.00211499,0.000362441,0.686662,0.00130605,0.0200253,1826,652,40.1283,14.9349
609,372,39.9656,-13.9363,0.00172513,0.0018201,0.00131703,0.0030905,0.000454723,0.803418,0.00192673,0.0218995,1833,652,39.9656,13.9364
616,372,39.874,-12.8384,0.00214941,0.00264872,0.00177991,0.0041964,0.000601735,0.855075,0.00262016,0.0197859,1840,652,39.874,12.8385
623,372,39.851,-11.7208,0.00274941,0.00351452,0.00230836,0.00547181,0.000792121,0.867516,0.0034146,0.013948,1847,652,39.8509,11.7208
630,372,39.792,-10.6791,0.00330837,0.00437823,0.00277662,0.00667098,0.00101561,0.88056,0.00415041,0.0176743,1854,652,39.792,10.6791
637,372,39.7645,-9.65698,0.00381855,0.00532822,0.0031985,0.00785974,0.00128702,0.901276,0.00486787,0.0280788,1861,652,39.7645,9.65696
644,372,39.8816,-8.58362,0,0,0,0,0,0,0,-1,1868,652,39.8816,8.58363
651,372,21.3998,-0.888,0,0,0,0,0,0,0,-1,1875,652,21.3998,0.887992
658,372,14.157,0.280273,0,0,0,0,0,0,0,-1,1882,652,14.157,-0.280264
665,372,15.2286,0.463867,0,0,0,0,0,0,0,-1,1889,652,15.2287,-0.463854
672,372,9.34106,1.48444,0,0,0,0,0,0,0,-1,1896,652,9.34109,-1.48444
679,372,10.7308,2.32391,0,0,0,0,0,0,0,-1,1903,652,10.7309,-2.3239
686,372,11.6295,2.52997,0,0,0,0,0,0,0,-1,1910,652,11.6296,-2.52996
693,372,0,0,0,0,0,0,0,0,0,-1,1917,652,0,0
700,372,0,0,0,0,0,0,0,0,0,-1,1924,652,0,0
707,372,0,0,0,0,0,0,0,0,0,-1,1931,652,0,0
714,372,0,0,0,0,0,0,0,0,0,-1,1938,652,0,0
721,372,0,0,0,0,0,0,0,0,0,-1,1945,652,0,0
728,372,0,0,0,0,0,0,0,0,0,-1,1952,652,0,0
735,372,0,0,0,0,0,0,0,0,0,-1,1959,652,0,0
742,372,0,0,0,0,0,0,0,0,0,-1,1966,652,0,0
749,372,0,0,0,0,0,0,0,0,0,-1,1973,652,0,0
756,372,0,0,0,0,0,0,0,0,0,-1,1980,652,0,0
763,372,0,0,0,0,0,0,0,0,0,-1,1987,652,0,0
770,372,0,0,0,0,0,0,0,0,0,-1,1994,652,0,0
777,372,0,0,0,0,0,0,0,0,0,-1,2001,652,0,0
784,372,0,0,0,0,0,0,0,0,0,-1,2008,652,0,0
791,372,0,0,0,0,0,0,0,0,0,-1,2015,652,0,0
798,372,0,0,0,0,0,0,0,0,0,-1,2022,652,0,0
805,372,0,0,0,0,0,0,0,0,0,-1,2029,652,0,0
812,372,0,0,0,0,0,0,0,0,0,-1,2036,652,0,0
-700,365,0,0,0,0,0,0,0,0,0,-1,524,659,0,0
-693,365,0,0,0,0,0,0,0,0,0,-1,531,659,0,0
-686,365,0,0,0,0,0,0,0,0,0,-1,538,659,0,0
-679,365,0,0,0,0,0,0,0,0,0,-1,545,659,0,0
-672,365,0,0,0,0,0,0,0,0,0,-1,552,659,0,0
-665,365,0,0,0,0,0,0,0,0,0,-1,559,659,0,0
-658,365,0,0,0,0,0,0,0,0,0,-1,566,659,0,0
-651,365,0,0,0,0,0,0,0,0,0,-1,573,659,0,0
-644,365,0,0,0,0,0,0,0,0,0,-1,580,659,0,0
-637,365,0,0,0,0,0,0,0,0,0,-1,587,659,0,0
-630,365,0,0,0,0,0,0,0,0,0,-1,594,659,0,0
-623,365,0,0,0,0,0,0,0,0,0,-1,601,659,0,0
-616,365,0,0,0,0,0,0,0,0,0,-1,608,659,0,0
-609,365,0,0,0,0,0,0,0,0,0,-1,615,659,0,0
-602,365,0,0,0,0,0,0,0,0,0,-1,622,659,0,0
-595,365,0,0,0,0,0,0,0,0,0,-1,629,659,0,0
-588,365,0,0,0,0,0,0,0,0,0,-1,636,659,0,0
-581,365,0,0,0,0,0,0,0,0,0,-1,643,659,0,0
-574,365,-7.69281,1.59015,0,0,0,0,0,0,0,-1,650,659,-7.69282,-1.59018
-567,365,-8.2583,1.72638,0,0,0,0,0,0,0,-1,657,659,-8.25827,-1.72637
-560,365,-7.17767,0.275757,0,0,0,0,0,0,0,-1,664,659,-7.17768,-0.27577
-553,365,-10.0349,-0.169617,0,0,0,0,0,0,0,-1,671,659,-10.0349,0.169593
-546,365,-10.6303,-1.51642,0,0,0,0,0,0,0,-1,678,659,-10.6303,1.5164
-539,365,-8.38599,1.52936,0,0,0,0,0,0,0,-1,685,659,-8.38598,-1.52935
-532,365,-8.52863,0.166504,0,0,0,0,0,0,0,-1,692,659,-8.52863,-0.166501
-525,365,-9.28229,-2.62726,0,0,0,0,0,0,0,-1,699,659,-9.28227,2.62724
-518,365,-23.6099,-8.07318,0,0,0,0,0,0,0,-1,706,659,-23.6099,8.07317
-511,365,-23.6522,-9.26617,0.00174437,0.000361403,-0.00137741,0.00259412,-0.000488348,-0.552768,0.00191309,0.0384608,713,659,-23.6522,9.2662
-504,365,-23.7063,-10.3601,0.00160659,0.00019904,-0.000969064,0.00210048,-0.000294842,-0.471337,0.00150823,0.0132969,720,659,-23.7063,10.3601
-497,365,-23.7892,-11.4576,0.00152092,6.31938e-05,-0.0006887,0.00179483,-0.000210714,-0.378537,0.00127262,0.0140709,727,659,-23.7893,11.4576
-490,365,-23.8584,-12.5189,0.00147978,-3.33785e-05,-0.000505822,0.00163329,-0.000186891,-0.294657,0.00115621,0.0154145,734,659,-23.8584,12.5189
-483,365,-23.9378,-13.5366,0.00151357,-7.06846e-05,-0.000435604,0.00162544,-0.000182558,-0.25139,0.00114932,0.0138099,741,659,-23.9378,13.5366
-476,365,-23.955,-14.6062,0.00163007,-3.76547e-05,-0.000457027,0.0017471,-0.000154687,-0.250686,0.00121957,0.01939,748,659,-23.9549,14.6062
-469,365,-24.0591,-15.6541,0.00186563,5.62054e-05,-0.000600344,0.0020467,-0.000124862,-0.292929,0.00140793,0.0198927,755,659,-24.0591,15.6541
-462,365,-24.1586,-16.6505,0.00220796,0.000216448,-0.000844368,0.00251777,-9.3356e-05,-0.351656,0.00171048,0.0156034,762,659,-24.1586,16.6504
-455,365,-24.2236,-17.7017,0.00271998,0.000407982,-0.00119147,0.00322408,-9.61192e-05,-0.400254,0.00218213,0.0197105,769,659,-24.2236,17.7017
-448,365,-24.2923,-18.8701,0,0,0,0,0,0,0,-1,776,659,-24.2923,18.8701
-441,365,-16.9571,-15.1896,0,0,0,0,0,0,0,-1,783,659,-16.9571,15.1896
-434,365,-5.45056,-3.98041,0,0,0,0,0,0,0,-1,790,659,-5.45055,3.98042
-427,365,-5.05377,-4.74689,0,0,0,0,0,0,0,-1,797,659,-5.05376,4.7469
-420,365,-4.58813,-3.16376,0,0,0,0,0,0,0,-1,804,659,-4.58816,3.16374
-413,365,0.141357,0.672729,0,0,0,0,0,0,0,-1,811,659,0.141365,-0.672714
-406,365,-1.75067,-0.934448,0,0,0,0,0,0,0,-1,818,659,-1.7507,0.934424
-399,365,-4.10242,-1.25439,0,0,0,0,0,0,0,-1,825,659,-4.10244,1.25438
-392,365,-7.46545,-0.779724,0,0,0,0,0,0,0,-1,832,659,-7.46543,0.779744
-385,365,-6.27875,-0.887573,0,0,0,0,0,0,0,-1,839,659,-6.27874,0.887545
-378,365,-5.34503,-0.263306,0,0,0,0,0,0,0,-1,846,659,-5.34504,0.263275
-371,365,0,0,0,0,0,0,0,0,0,-1,853,659,0,0
-364,365,0,0,0,0,0,0,0,0,0,-1,860,659,0,0
-357,365,0,0,0,0,0,0,0,0,0,-1,867,659,0,0
-350,365,0,0,0,0,0,0,0,0,0,-1,874,659,0,0
-343,365,0,0,0,0,0,0,0,0,0,-1,881,659,0,0
-336,365,0,0,0,0,0,0,0,0,0,-1,888,659,0,0
-329,365,0,0,0,0,0,0,0,0,0,-1,895,659,0,0
-322,365,0,0,0,0,0,0,0,0,0,-1,902,659,0,0
-315,365,0,0,0,0,0,0,0,0,0,-1,909,659,0,0
-308,365,0,0,0,0,0,0,0,0,0,-1,916,659,0,0
-301,365,0,0,0,0,0,0,0,0,0,-1,923,659,0,0
-294,365,0,0,0,0,0,0,0,0,0,-1,930,659,0,0
-287,365,0,0,0,0,0,0,0,0,0,-1,937,659,0,0
-280,365,0,0,0,0,0,0,0,0,0,-1,944,659,0,0
-273,365,0,0,0,0,0,0,0,0,0,-1,951,659,0,0
-266,365,0,0,0,0,0,0,0,0,0,-1,958,659,0,0
-259,365,0,0,0,0,0,0,0,0,0,-1,965,659,0,0
-252,365,0,0,0,0,0,0,0,0,0,-1,972,659,0,0
-245,365,0,0,0,0,0,0,0,0,0,-1,979,659,0,0
-238,365,0,0,0,0,0,0,0,0,0,-1,986,659,0,0
-231,365,0,0,0,0,0,0,0,0,0,-1,993,659,0,0
-224,365,0,0,0,0,0,0,0,0,0,-1,1000,659,0,0
-217,365,0,0,0,0,0,0,0,0,0,-1,1007,659,0,0
-210,365,0,0,0,0,0,0,0,0,0,-1,1014,659,0,0
-203,365,0,0,0,0,0,0,0,0,0,-1,1021,659,0,0
-196,365,0,0,0,0,0,0,0,0,0,-1,1028,659,0,0
-189,365,0,0,0,0,0,0,0,0,0,-1,1035,659,0,0
-182,365,0,0,0,0,0,0,0,0,0,-1,1042,659,0,0
-175,365,0,0,0,0,0,0,0,0,0,-1,1049,659,0,0
-168,365,0,0,0,0,0,0,0,0,0,-1,1056,659,0,0
-161,365,0,0,0,0,0,0,0,0,0,-1,1063,659,0,0
-154,365,0,0,0,0,0,0,0,0,0,-1,1070,659,0,0
-147,365,0,0,0,0,0,0,0,0,0,-1,1077,659,0,0
-140,365,0,0,0,0,0,0,0,0,0,-1,1084,659,0,0
-133,365,0,0,0,0,0,0,0,0,0,-1,1091,659,0,0
-126,365,0,0,0,0,0,0,0,0,0,-1,1098,659,0,0
-119,365,0,0,0,0,0,0,0,0,0,-1,1105,659,0,0
-112,365,0,0,0,0,0,0,0,0,0,-1,1112,659,0,0
-105,365,0,0,0,0,0,0,0,0,0,-1,1119,659,0,0
-98,365,0,0,0,0,0,0,0,0,0,-1,1126,659,0,0
-91,365,0,0,0,0,0,0,0,0,0,-1,1133,659,0,0
-84,365,0,0,0,0,0,0,0,0,0,-1,1140,659,0,0
-77,365,0,0,0,0,0,0,0,0,0,-1,1147,659,0,0
-70,365,0,0,0,0,0,0,0,0,0,-1,1154,659,0,0
-63,365,0,0,0,0,0,0,0,0,0,-1,1161,659,0,0
-56,365,0,0,0,0,0,0,0,0,0,-1,1168,659,0,0
-49,365,0,0,0,0,0,0,0,0,0,-1,1175,659,0,0
-42,365,0,0,0,0,0,0,0,0,0,-1,1182,659,0,0
-35,365,0,0,0,0,0,0,0,0,0,-1,1189,659,0,0
-28,365,0,0,0,0,0,0,0,0,0,-1,1196,659,0,0
-21,365,0,0,0,0,0,0,0,0,0,-1,1203,659,0,0
-14,365,0,0,0,0,0,0,0,0,0,-1,1210,659,0,0
-7,365,0,0,0,0,0,0,0,0,0,-1,1217,659,0,0
0,365,0,0,0,0,0,0,0,0,0,-1,1224,659,0,0
7,365,0,0,0,0,0,0,0,0,0,-1,1231,659,0,0
14,365,0,0,0,0,0,0,0,0,0,-1,1238,659,0,0
21,365,0,0,0,0,0,0,0,0,0,-1,1245,659,0,0
28,365,0,0,0,0,0,0,0,0,0,-1,1252,659,0,0
35,365,0,0,0,0,0,0,0,0,0,-1,1259,659,0,0
42,365,0,0,0,0,0,0,0,0,0,-1,1266,659,0,0
49,365,0,0,0,0,0,0,0,0,0,-1,1273,659,0,0
56,365,0,0,0,0,0,0,0,0,0,-1,1280,659,0,0
63,365,0,0,0,0,0,0,0,0,0,-1,1287,659,0,0
70,365,0,0,0,0,0,0,0,0,0,-1,1294,659,0,0
77,365,0,0,0,0,0,0,0,0,0,-1,1301,659,0,0
84,365,0,0,0,0,0,0,0,0,0,-1,1308,659,0,0
91,365,0,0,0,0,0,0,0,0,0,-1,1315,659,0,0
98,365,0,0,0,0,0,0,0,0,0,-1,1322,659,0,0
105,365,0,0,0,0,0,0,0,0,0,-1,1329,659,0,0
112,365,0,0,0,0,0,0,0,0,0,-1,1336,659,0,0
119,365,0,0,0,0,0,0,0,0,0,-1,1343,659,0,0
126,365,0,0,0,0,0,0,0,0,0,-1,1350,659,0,0
133,365,0,0,0,0,0,0,0,0,0,-1,1357,659,0,0
140,365,0,0,0,0,0,0,0,0,0,-1,1364,659,0,0
147,365,0,0,0,0,0,0,0,0,0,-1,1371,659,0,0
154,365,0,0,0,0,0,0,0,0,0,-1,1378,659,0,0
161,365,0,0,0,0,0,0,0,0,0,-1,1385,659,0,0
168,365,0,0,0,0,0,0,0,0,0,-1,1392,659,0,0
175,365,0,0,0,0,0,0,0,0,0,-1,1399,659,0,0
182,365,0,0,0,0,0,0,0,0,0,-1,1406,659,0,0
189,365,0,0,0,0,0,0,0,0,0,-1,1413,659,0,0
196,365,0,0,0,0,0,0,0,0,0,-1,1420,659,0,0
203,365,0,0,0,0,0,0,0,0,0,-1,1427,659,0,0
210,365,0,0,0,0,0,0,0,0,0,-1,1434,659,0,0
217,365,0,0,0,0,0,0,0,0,0,-1,1441,659,0,0
224,365,0,0,0,0,0,0,0,0,0,-1,1448,659,0,0
231,365,0,0,0,0,0,0,0,0,0,-1,1455,659,0,0
238,365,0,0,0,0,0,0,0,0,0,-1,1462,659,0,0
245,365,0,0,0,0,0,0,0,0,0,-1,1469,659,0,0
252,365,0,0,0,0,0,0,0,0,0,-1,1476,659,0,0
259,365,0,0,0,0,0,0,0,0,0,-1,1483,659,0,0
266,365,0,0,0,0,0,0,0,0,0,-1,1490,659,0,0
273,365,0,0,0,0,0,0,0,0,0,-1,1497,659,0,0
280,365,0,0,0,0,0,0,0,0,0,-1,1504,659,0,0
287,365,0,0,0,0,0,0,0,0,0,-1,1511,659,0,0
294,365,0,0,0,0,0,0,0,0,0,-1,1518,659,0,0
301,365,0,0,0,0,0,0,0,0,0,-1,1525,659,0,0
308,365,0,0,0,0,0,0,0,0,0,-1,1532,659,0,0
315,365,0,0,0,0,0,0,0,0,0,-1,1539,659,0,0
322,365,0,0,0,0,0,0,0,0,0,-1,1546,659,0,0
329,365,0,0,0,0,0,0,0,0,0,-1,1553,659,0,0
336,365,0,0,0,0,0,0,0,0,0,-1,1560,659,0,0
343,365,0,0,0,0,0,0,0,0,0,-1,1567,659,0,0
350,365,0,0,0,0,0,0,0,0,0,-1,1574,659,0,0
357,365,0,0,0,0,0,0,0,0,0,-1,1581,659,0,0
364,365,0,0,0,0,0,0,0,0,0,-1,1588,659,0,0
371,365,0,0,0,0,0,0,0,0,0,-1,1595,659,0,0
378,365,0,0,0,0,0,0,0,0,0,-1,1602,659,0,0
385,365,0,0,0,0,0,0,0,0,0,-1,1609,659,0,0
392,365,0,0,0,0,0,0,0,0,0,-1,1616,659,0,0
399,365,0,0,0,0,0,0,0,0,0,-1,1623,659,0,0
406,365,0,0,0,0,0,0,0,0,0,-1,1630,659,0,0
413,365,0,0,0,0,0,0,0,0,0,-1,1637,659,0,0
420,365,0,0,0,0,0,0,0,0,0,-1,1644,659,0,0
427,365,0,0,0,0,0,0,0,0,0,-1,1651,659,0,0
434,365,0,0,0,0,0,0,0,0,0,-1,1658,659,0,0
441,365,0,0,0,0,0,0,0,0,0,-1,1665,659,0,0
448,365,0,0,0,0,0,0,0,0,0,-1,1672,659,0,0
455,365,0,0,0,0,0,0,0,0,0,-1,1679,659,0,0
462,365,0,0,0,0,0,0,0,0,0,-1,1686,659,0,0
469,365,0,0,0,0,0,0,0,0,0,-1,1693,659,0,0
476,365,0,0,0,0,0,0,0,0,0,-1,1700,659,0,0
483,365,0,0,0,0,0,0,0,0,0,-1,1707,659,0,0
490,365,8.39551,0.471252,0,0,0,0,0,0,0,-1,1714,659,8.39551,-0.471241
497,365,9.89233,1.35394,0,0,0,0,0,0,0,-1,1721,659,9.89237,-1.35396
504,365,10.1414,1.18005,0,0,0,0,0,0,0,-1,1728,659,10.1413,-1.18004
511,365,10.5151,0.993896,0,0,0,0,0,0,0,-1,1735,659,10.5152,-0.993894
518,365,11.2029,0.398132,0,0,0,0,0,0,0,-1,1742,659,11.2029,-0.398136
525,365,15.5748,3.85303,0,0,0,0,0,0,0,-1,1749,659,15.5748,-3.85303
532,365,11.2446,1.00629,0,0,0,0,0,0,0,-1,1756,659,11.2446,-1.00631
539,365,12.6301,1.03204,0,0,0,0,0,0,0,-1,1763,659,12.6302,-1.03204
546,365,11.647,0.84198,0,0,0,0,0,0,0,-1,1770,659,11.6469,-0.841955
553,365,12.028,-0.558899,0,0,0,0,0,0,0,-1,1777,659,12.028,0.558873
560,365,14.5372,-4.55548,0,0,0,0,0,0,0,-1,1784,659,14.5373,4.55547
567,365,20.5676,-7.53888,0,0,0,0,0,0,0,-1,1791,659,20.5676,7.53887
574,365,41.7087,-18.782,0,0,0,0,0,0,0,-1,1798,659,41.7087,18.782
581,365,41.272,-18.0429,0,0,0,0,0,0,0,-1,1805,659,41.272,18.0429
588,365,41.2599,-16.955,0.00116503,-0.000611047,-8.68585e-05,0.00116927,-0.000615285,-0.0487497,0.00104673,0.0216902,1812,659,41.2599,16.955
595,365,41.2068,-15.8553,0.00112422,-4.5223e-05,0.000236825,0.00117036,-9.13623e-05,0.192414,0.000812409,0.0143036,1819,659,41.2068,15.8553
602,365,41.1238,-14.7972,0.0012773,0.000539627,0.000603015,0.00161534,0.000201593,0.510925,0.00101638,0.0198796,1826,659,41.1237,14.7972
609,365,40.9689,-13.7557,0.00148325,0.00117,0.000966419,0.00230565,0.000347597,0.705065,0.00143534,0.0221494,1833,659,40.9688,13.7557
616,365,40.9233,-12.6878,0.00176732,0.00184473,0.00131357,0.00312017,0.000491881,0.800127,0.00193708,0.0224659,1840,659,40.9233,12.6878
623,365,40.896,-11.6417,0.00221656,0.00254735,0.00170311,0.00409307,0.000670835,0.833803,0.00253487,0.013601,1847,659,40.896,11.6417
630,365,40.8195,-10.6158,0.00261502,0.00326435,0.00204219,0.00500753,0.000871844,0.864229,0.00308902,0.0169657,1854,659,40.8195,10.6158
637,365,40.7654,-9.60004,0.00297622,0.00401234,0.00231715,0.00586864,0.00111992,0.895378,0.0035977,0.022649,1861,659,40.7654,9.60005
644,365,40.7074,-8.52496,0.00330707,0.0048838,0.00258668,0.00679959,0.00139128,0.933315,0.00414782,0.0272693,1868,659,40.7074,8.52497
651,365,40.8154,-7.25861,0,0,0,0,0,0,0,-1,1875,659,40.8155,7.2586
658,365,24.745,-2.13275,0,0,0,0,0,0,0,-1,1882,659,24.745,2.13277
665,365,14.0961,0.769043,0,0,0,0,0,0,0,-1,1889,659,14.0961,-0.769063
672,365,10.0579,2.15088,0,0,0,0,0,0,0,-1,1896,659,10.0579,-2.15088
679,365,10.9718,2.19208,0,0,0,0,0,0,0,-1,1903,659,10.9718,-2.19211
686,365,12.2134,2.17108,0,0,0,0,0,0,0,-1,1910,659,12.2134,-2.17109
693,365,13.7141,1.98279,0,0,0,0,0,0,0,-1,1917,659,13.7141,-1.98278
700,365,0,0,0,0,0,0,0,0,0,-1,1924,659,0,0
707,365,0,0,0,0,0,0,0,0,0,-1,1931,659,0,0
714,365,0,0,0,0,0,0,0,0,0,-1,1938,659,0,0
721,365,0,0,0,0,0,0,0,0,0,-1,1945,659,0,0
728,365,0,0,0,0,0,0,0,0,0,-1,1952,659,0,0
735,365,0,0,0,0,0,0,0,0,0,-1,1959,659,0,0
742,365,0,0,0,0,0,0,0,0,0,-1,1966,659,0,0
749,365,0,0,0,0,0,0,0,0,0,-1,1973,659,0,0
756,365,0,0,0,0,0,0,0,0,0,-1,1980,659,0,0
763,365,0,0,0,0,0,0,0,0,0,-1,1987,659,0,0
770,365,0,0,0,0,0,0,0,0,0,-1,1994,659,0,0
777,365,0,0,0,0,0,0,0,0,0,-1,2001,659,0,0
784,365,0,0,0,0,0,0,0,0,0,-1,2008,659,0,0
791,365,0,0,0,0,0,0,0,0,0,-1,2015,659,0,0
798,365,0,0,0,0,0,0,0,0,0,-1,2022,659,0,0
805,365,0,0,0,0,0,0,0,0,0,-1,2029,659,0,0
812,365,0,0,0,0,0,0,0,0,0,-1,2036,659,0,0
-700,358,0,0,0,0,0,0,0,0,0,-1,524,666,0,0
-693,358,0,0,0,0,0,0,0,0,0,-1,531,666,0,0
-686,358,0,0,0,0,0,0,0,0,0,-1,538,666,0,0
-679,358,0,0,0,0,0,0,0,0,0,-1,545,666,0,0
-672,358,0,0,0,0,0,0,0,0,0,-1,552,666,0,0
-665,358,0,0,0,0,0,0,0,0,0,-1,559,666,0,0
-658,358,0,0,0,0,0,0,0,0,0,-1,566,666,0,0
-651,358,0,0,0,0,0,0,0,0,0,-1,573,666,0,0
-644,358,0,0,0,0,0,0,0,0,0,-1,580,666,0,0
-637,358,0,0,0,0,0,0,0,0,0,-1,587,666,0,0
-630,358,0,0,0,0,0,0,0,0,0,-1,594,666,0,0
-623,358,0,0,0,0,0,0,0,0,0,-1,601,666,0,0
-616,358,0,0,0,0,0,0,0,0,0,-1,608,666,0,0
-609,358,0,0,0,0,0,0,0,0,0,-1,615,666,0,0
-602,358,0,0,0,0,0,0,0,0,0,-1,622,666,0,0
-595,358,0,0,0,0,0,0,0,0,0,-1,629,666,0,0
-588,358,0,0,0,0,0,0,0,0,0,-1,636,666,0,0
-581,358,-8.31616,1.61993,0,0,0,0,0,0,0,-1,643,666,-8.31614,-1.61993
-574,358,-8.22406,1.75385,0,0,0,0,0,0,0,-1,650,666,-8.22408,-1.75383
-567,358,-8.14215,1.91577,0,0,0,0,0,0,0,-1,657,666,-8.14214,-1.91579
-560,358,-10.6086,2.18872,0,0,0,0,0,0,0,-1,664,666,-10.6086,-2.18873
-553,358,-13.4767,1.09552,0,0,0,0,0,0,0,-1,671,666,-13.4767,-1.09551
-546,358,-13.3743,-0.185059,0,0,0,0,0,0,0,-1,678,666,-13.3743,0.185037
-539,358,-9.43884,-2.04785,0,0,0,0,0,0,0,-1,685,666,-9.43884,2.04785
-532,358,-12.4141,-2.36572,0,0,0,0,0,0,0,-1,692,666,-12.4141,2.3657
-525,358,-12.731,-3.88031,0,0,0,0,0,0,0,-1,699,666,-12.731,3.88029
-518,358,-24.6249,-8.16693,0,0,0,0,0,0,0,-1,706,666,-24.6249,8.16691
-511,358,-24.6899,-9.22101,0.00202833,0.000512465,-0.00135049,0.00281904,-0.000278243,-0.529687,0.00197864,0.0180062,713,666,-24.6899,9.22103
-504,358,-24.7687,-10.2855,0.00182636,0.000276137,-0.000899928,0.00223896,-0.000136467,-0.429889,0.00154015,0.0126626,720,666,-24.7687,10.2855
-497,358,-24.8431,-11.3735,0.00172229,0.000109292,-0.000594829,0.00191792,-8.63381e-05,-0.317741,0.00130834,0.0121296,727,666,-24.8431,11.3735
-490,358,-24.9051,-12.4326,0.0016755,2.68163e-05,-0.000410324,0.00177197,-6.96597e-05,-0.230927,0.00120521,0.0116523,734,666,-24.9051,12.4326
-483,358,-24.9761,-13.4377,0.00174376,3.20105e-05,-0.000373965,0.00182189,-4.61229e-05,-0.20597,0.00123026,0.0106797,741,666,-24.976,13.4377
-476,358,-24.9845,-14.4744,0.00190341,0.000123371,-0.00044931,0.00201039,1.6388e-05,-0.233753,0.00133483,0.0151168,748,666,-24.9845,14.4744
-469,358,-25.0989,-15.5147,0.00218576,0.000291455,-0.000666112,0.00239654,8.06766e-05,-0.306461,0.00157149,0.0203229,755,666,-25.0989,15.5147
-462,358,-25.2178,-16.5712,0.00259112,0.000566542,-0.00100947,0.00300843,0.00014923,-0.392002,0.00195777,0.0208236,762,666,-25.2178,16.5712
-455,358,-25.2491,-17.6619,0,0,0,0,0,0,0,-1,769,666,-25.2492,17.6619
-448,358,-17.7847,-14.434,0,0,0,0,0,0,0,-1,776,666,-17.7847,14.434
-441,358,-5.56293,-3.98041,0,0,0,0,0,0,0,-1,783,666,-5.56291,3.98043
-434,358,-5.21558,-4.43127,0,0,0,0,0,0,0,-1,790,666,-5.21559,4.43125
-427,358,-3.56189,-3.15729,0,0,0,0,0,0,0,-1,797,666,-3.56192,3.15729
-420,358,0.200195,1.08234,0,0,0,0,0,0,0,-1,804,666,0.200174,-1.08231
-413,358,0.0325317,0.161072,0,0,0,0,0,0,0,-1,811,666,0.0325501,-0.161098
-406,358,-3.85846,0.753113,0,0,0,0,0,0,0,-1,818,666,-3.85846,-0.753129
-399,358,-1.31213,0.190735,0,0,0,0,0,0,0,-1,825,666,-1.31215,-0.190763
-392,358,-3.73914,-0.832214,0,0,0,0,0,0,0,-1,832,666,-3.73915,0.832202
-385,358,-5.95178,-1.69141,0,0,0,0,0,0,0,-1,839,666,-5.9518,1.69143
-378,358,0,0,0,0,0,0,0,0,0,-1,846,666,0,0
-371,358,0,0,0,0,0,0,0,0,0,-1,853,666,0,0
-364,358,0,0,0,0,0,0,0,0,0,-1,860,666,0,0
-357,358,0,0,0,0,0,0,0,0,0,-1,867,666,0,0
-350,358,0,0,0,0,0,0,0,0,0,-1,874,666,0,0
-343,358,0,0,0,0,0,0,0,0,0,-1,881,666,0,0
-336,358,0,0,0,0,0,0,0,0,0,-1,888,666,0,0
-329,358,0,0,0,0,0,0,0,0,0,-1,895,666,0,0
-322,358,0,0,0,0,0,0,0,0,0,-1,902,666,0,0
-315,358,0,0,0,0,0,0,0,0,0,-1,909,666,0,0
-308,358,0,0,0,0,0,0,0,0,0,-1,916,666,0,0
-301,358,0,0,0,0,0,0,0,0,0,-1,923,666,0,0
-294,358,0,0,0,0,0,0,0,0,0,-1,930,666,0,0
-287,358,0,0,0,0,0,0,0,0,0,-1,937,666,0,0
-280,358,0,0,0,0,0,0,0,0,0,-1,944,666,0,0
-273,358,0,0,0,0,0,0,0,0,0,-1,951,666,0,0
-266,358,0,0,0,0,0,0,0,0,0,-1,958,666,0,0
-259,358,0,0,0,0,0,0,0,0,0,-1,965,666,0,0
-252,358,0,0,0,0,0,0,0,0,0,-1,972,666,0,0
-245,358,0,0,0,0,0,0,0,0,0,-1,979,666,0,0
-238,358,0,0,0,0,0,0,0,0,0,-1,986,666,0,0
-231,358,0,0,0,0,0,0,0,0,0,-1,993,666,0,0
-224,358,0,0,0,0,0,0,0,0,0,-1,1000,666,0,0
-217,358,0,0,0,0,0,0,0,0,0,-1,1007,666,0,0
-210,358,0,0,0,0,0,0,0,0,0,-1,1014,666,0,0
-203,358,0,0,0,0,0,0,0,0,0,-1,1021,666,0,0
-196,358,0,0,0,0,0,0,0,0,0,-1,1028,666,0,0
-189,358,0,0,0,0,0,0,0,0,0,-1,1035,666,0,0
-182,358,0,0,0,0,0,0,0,0,0,-1,1042,666,0,0
-175,358,0,0,0,0,0,0,0,0,0,-1,1049,666,0,0
-168,358,0,0,0,0,0,0,0,0,0,-1,1056,666,0,0
-161,358,0,0,0,0,0,0,0,0,0,-1,1063,666,0,0
-154,358,0,0,0,0,0,0,0,0,0,-1,1070,666,0,0
-147,358,0,0,0,0,0,0,0,0,0,-1,1077,666,0,0
-140,358,0,0,0,0,0,0,0,0,0,-1,1084,666,0,0
-133,358,0,0,0,0,0,0,0,0,0,-1,1091,666,0,0
-126,358,0,0,0,0,0,0,0,0,0,-1,1098,666,0,0
-119,358,0,0,0,0,0,0,0,0,0,-1,1105,666,0,0
-112,358,0,0,0,0,0,0,0,0,0,-1,1112,666,0,0
-105,358,0,0,0,0,0,0,0,0,0,-1,1119,666,0,0
-98,358,0,0,0,0,0,0,0,0,0,-1,1126,666,0,0
-91,358,0,0,0,0,0,0,0,0,0,-1,1133,666,0,0
-84,358,0,0,0,0,0,0,0,0,0,-1,1140,666,0,0
-77,358,0,0,0,0,0,0,0,0,0,-1,1147,666,0,0
-70,358,0,0,0,0,0,0,0,0,0,-1,1154,666,0,0
-63,358,0,0,0,0,0,0,0,0,0,-1,1161,666,0,0
-56,358,0,0,0,0,0,0,0,0,0,-1,1168,666,0,0
-49,358,0,0,0,0,0,0,0,0,0,-1,1175,666,0,0
-42,358,0,0,0,0,0,0,0,0,0,-1,1182,666,0,0
-35,358,0,0,0,0,0,0,0,0,0,-1,1189,666,0,0
-28,358,0,0,0,0,0,0,0,0,0,-1,1196,666,0,0
-21,358,0,0,0,0,0,0,0,0,0,-1,1203,666,0,0
-14,358,0,0,0,0,0,0,0,0,0,-1,1210,666,0,0
-7,358,0,0,0,0,0,0,0,0,0,-1,1217,666,0,0
0,358,0,0,0,0,0,0,0,0,0,-1,1224,666,0,0
7,358,0,0,0,0,0,0,0,0,0,-1,1231,666,0,0
14,358,0,0,0,0,0,0,0,0,0,-1,1238,666,0,0
21,358,0,0,0,0,0,0,0,0,0,-1,1245,666,0,0
28,358,0,0,0,0,0,0,0,0,0,-1,1252,666,0,0
35,358,0,0,0,0,0,0,0,0,0,-1,1259,666,0,0
42,358,0,0,0,0,0,0,0,0,0,-1,1266,666,0,0
49,358,0,0,0,0,0,0,0,0,0,-1,1273,666,0,0
56,358,0,0,0,0,0,0,0,0,0,-1,1280,666,0,0
63,358,0,0,0,0,0,0,0,0,0,-1,1287,666,0,0
70,358,0,0,0,0,0,0,0,0,0,-1,1294,666,0,0
77,358,0,0,0,0,0,0,0,0,0,-1,1301,666,0,0
84,358,0,0,0,0,0,0,0,0,0,-1,1308,666,0,0
91,358,0,0,0,0,0,0,0,0,0,-1,1315,666,0,0
98,358,0,0,0,0,0,0,0,0,0,-1,1322,666,0,0
105,358,0,0,0,0,0,0,0,0,0,-1,1329,666,0,0
112,358,0,0,0,0,0,0,0,0,0,-1,1336,666,0,0
119,358,0,0,0,0,0,0,0,0,0,-1,1343,666,0,0
126,358,0,0,0,0,0,0,0,0,0,-1,1350,666,0,0
133,358,0,0,0,0,0,0,0,0,0,-1,1357,666,0,0
140,358,0,0,0,0,0,0,0,0,0,-1,1364,666,0,0
147,358,0,0,0,0,0,0,0,0,0,-1,1371,666,0,0
154,358,0,0,0,0,0,0,0,0,0,-1,1378,666,0,0
161,358,0,0,0,0,0,0,0,0,0,-1,1385,666,0,0
168,358,0,0,0,0,0,0,0,0,0,-1,1392,666,0,0
175,358,0,0,0,0,0,0,0,0,0,-1,1399,666,0,0
182,358,0,0,0,0,0,0,0,0,0,-1,1406,666,0,0
189,358,0,0,0,0,0,0,0,0,0,-1,1413,666,0,0
196,358,0,0,0,0,0,0,0,0,0,-1,1420,666,0,0
203,358,0,0,0,0,0,0,0,0,0,-1,1427,666,0,0
210,358,0,0,0,0,0,0,0,0,0,-1,1434,666,0,0
217,358,0,0,0,0,0,0,0,0,0,-1,1441,666,0,0
224,358,0,0,0,0,0,0,0,0,0,-1,1448,666,0,0
231,358,0,0,0,0,0,0,0,0,0,-1,1455,666,0,0
238,358,0,0,0,0,0,0,0,0,0,-1,1462,666,0,0
245,358,0,0,0,0,0,0,0,0,0,-1,1469,666,0,0
252,358,0,0,0,0,0,0,0,0,0,-1,1476,666,0,0
259,358,0,0,0,0,0,0,0,0,0,-1,1483,666,0,0
266,358,0,0,0,0,0,0,0,0,0,-1,1490,666,0,0
273,358,0,0,0,0,0,0,0,0,0,-1,1497,666,0,0
280,358,0,0,0,0,0,0,0,0,0,-1,1504,666,0,0
287,358,0,0,0,0,0,0,0,0,0,-1,1511,666,0,0
294,358,0,0,0,0,0,0,0,0,0,-1,1518,666,0,0
301,358,0,0,0,0,0,0,0,0,0,-1,1525,666,0,0
308,358,0,0,0,0,0,0,0,0,0,-1,1532,666,0,0
315,358,0,0,0,0,0,0,0,0,0,-1,1539,666,0,0
322,358,0,0,0,0,0,0,0,0,0,-1,1546,666,0,0
329,358,0,0,0,0,0,0,0,0,0,-1,1553,666,0,0
336,358,0,0,0,0,0,0,0,0,0,-1,1560,666,0,0
343,358,0,0,0,0,0,0,0,0,0,-1,1567,666,0,0
350,358,0,0,0,0,0,0,0,0,0,-1,1574,666,0,0
357,358,0,0,0,0,0,0,0,0,0,-1,1581,666,0,0
364,358,0,0,0,0,0,0,0,0,0,-1,1588,666,0,0
371,358,0,0,0,0,0,0,0,0,0,-1,1595,666,0,0
378,358,0,0,0,0,0,0,0,0,0,-1,1602,666,0,0
385,358,0,0,0,0,0,0,0,0,0,-1,1609,666,0,0
392,358,0,0,0,0,0,0,0,0,0,-1,1616,666,0,0
399,358,0,0,0,0,0,0,0,0,0,-1,1623,666,0,0
406,358,0,0,0,0,0,0,0,0,0,-1,1630,666,0,0
413,358,0,0,0,0,0,0,0,0,0,-1,1637,666,0,0
420,358,0,0,0,0,0,0,0,0,0,-1,1644,666,0,0
427,358,0,0,0,0,0,0,0,0,0,-1,1651,666,0,0
434,358,0,0,0,0,0,0,0,0,0,-1,1658,666,0,0
441,358,0,0,0,0,0,0,0,0,0,-1,1665,666,0,0
448,358,0,0,0,0,0,0,0,0,0,-1,1672,666,0,0
455,358,0,0,0,0,0,0,0,0,0,-1,1679,666,0,0
462,358,0,0,0,0,0,0,0,0,0,-1,1686,666,0,0
469,358,0,0,0,0,0,0,0,0,0,-1,1693,666,0,0
476,358,0,0,0,0,0,0,0,0,0,-1,1700,666,0,0
483,358,0,0,0,0,0,0,0,0,0,-1,1707,666,0,0
490,358,0,0,0,0,0,0,0,0,0,-1,1714,666,0,0
497,358,8.57239,1.1322,0,0,0,0,0,0,0,-1,1721,666,8.57234,-1.13219
504,358,10.5972,0.832947,0,0,0,0,0,0,0,-1,1728,666,10.5972,-0.832968
511,358,10.6873,0.868469,0,0,0,0,0,0,0,-1,1735,666,10.6872,-0.868484
518,358,16.5884,2.34894,0,0,0,0,0,0,0,-1,1742,666,16.5884,-2.34894
525,358,15.7626,3.65344,0,0,0,0,0,0,0,-1,1749,666,15.7626,-3.65342
532,358,14.9368,4.95789,0,0,0,0,0,0,0,-1,1756,666,14.9367,-4.9579
539,358,15.1597,3.42694,0,0,0,0,0,0,0,-1,1763,666,15.1597,-3.42692
546,358,12.3792,1.53558,0,0,0,0,0,0,0,-1,1770,666,12.3792,-1.5356
553,358,11.6584,1.26172,0,0,0,0,0,0,0,-1,1777,666,11.6585,-1.26175
560,358,10.8234,1.43042,0,0,0,0,0,0,0,-1,1784,666,10.8233,-1.43041
567,358,10.1333,-0.955139,0,0,0,0,0,0,0,-1,1791,666,10.1333,0.955132
574,358,14.7886,-2.69293,0,0,0,0,0,0,0,-1,1798,666,14.7885,2.6929
581,358,20.1738,-6.76135,0,0,0,0,0,0,0,-1,1805,666,20.1738,6.76137
588,358,42.3057,-16.8357,0,0,0,0,0,0,0,-1,1812,666,42.3057,16.8357
595,358,42.2389,-15.7515,0.00118896,-0.000411307,0.000203852,0.00121452,-0.000436866,0.124733,0.000988036,0.0159676,1819,666,42.2389,15.7515
602,358,42.1233,-14.6669,0.00128783,0.000122418,0.000482667,0.00146177,-5.15223e-05,0.345885,0.000992137,0.0153632,1826,666,42.1233,14.6669
609,358,41.9948,-13.6313,0.00142555,0.000666182,0.000758141,0.00189376,0.000197963,0.553252,0.00120197,0.0210292,1833,666,41.9947,13.6313
616,358,41.9553,-12.5861,0.00159948,0.00122305,0.00101123,0.00243986,0.00038266,0.693389,0.00151521,0.0197634,1840,666,41.9553,12.5861
623,358,41.953,-11.5706,0.00190881,0.00179808,0.00128613,0.00314076,0.000566121,0.763888,0.00193297,0.0160458,1847,666,41.9531,11.5706
630,358,41.8705,-10.566,0.00218488,0.00241915,0.00153933,0.0038458,0.000758232,0.823373,0.00235222,0.0181735,1854,666,41.8705,10.566
637,358,41.7445,-9.56451,0.00244058,0.0030288,0.00172335,0.00448295,0.000986422,0.869914,0.00272012,0.0249621,1861,666,41.7446,9.56449
644,358,41.6978,-8.51672,0.00268965,0.00372389,0.00189248,0.00516863,0.00124491,0.918767,0.00311484,0.0217133,1868,666,41.6978,8.51672
651,358,41.665,-7.30194,0,0,0,0,0,0,0,-1,1875,666,41.6651,7.30197
658,358,41.4785,-6.02045,0,0,0,0,0,0,0,-1,1882,666,41.4785,6.02044
665,358,28.0272,-2.07764,0,0,0,0,0,0,0,-1,1889,666,28.0272,2.07764
672,358,12.4299,1.47272,0,0,0,0,0,0,0,-1,1896,666,12.4299,-1.4727
679,358,12.1294,2.19702,0,0,0,0,0,0,0,-1,1903,666,12.1294,-2.19703
686,358,11.9557,2.2002,0,0,0,0,0,0,0,-1,1910,666,11.9557,-2.20021
693,358,13.188,2.52203,0,0,0,0,0,0,0,-1,1917,666,13.188,-2.52202
700,358,0,0,0,0,0,0,0,0,0,-1,1924,666,0,0
707,358,0,0,0,0,0,0,0,0,0,-1,1931,666,0,0
714,358,0,0,0,0,0,0,0,0,0,-1,1938,666,0,0
721,358,0,0,0,0,0,0,0,0,0,-1,1945,666,0,0
728,358,0,0,0,0,0,0,0,0,0,-1,1952,666,0,0
735,358,0,0,0,0,0,0,0,0,0,-1,1959,666,0,0
742,358,0,0,0,0,0,0,0,0,0,-1,1966,666,0,0
749,358,0,0,0,0,0,0,0,0,0,-1,1973,666,0,0
756,358,0,0,0,0,0,0,0,0,0,-1,1980,666,0,0
763,358,0,0,0,0,0,0,0,0,0,-1,1987,666,0,0
770,358,0,0,0,0,0,0,0,0,0,-1,1994,666,0,0
777,358,0,0,0,0,0,0,0,0,0,-1,2001,666,0,0
784,358,0,0,0,0,0,0,0,0,0,-1,2008,666,0,0
791,358,0,0,0,0,0,0,0,0,0,-1,2015,666,0,0
798,358,0,0,0,0,0,0,0,0,0,-1,2022,666,0,0
805,358,0,0,0,0,0,0,0,0,0,-1,2029,666,0,0
812,358,0,0,0,0,0,0,0,0,0,-1,2036,666,0,0
-700,351,0,0,0,0,0,0,0,0,0,-1,524,673,0,0
-693,351,0,0,0,0,0,0,0,0,0,-1,531,673,0,0
-686,351,0,0,0,0,0,0,0,0,0,-1,538,673,0,0
-679,351,0,0,0,0,0,0,0,0,0,-1,545,673,0,0
-672,351,0,0,0,0,0,0,0,0,0,-1,552,673,0,0
-665,351,0,0,0,0,0,0,0,0,0,-1,559,673,0,0
-658,351,0,0,0,0,0,0,0,0,0,-1,566,673,0,0
-651,351,0,0,0,0,0,0,0,0,0,-1,573,673,0,0
-644,351,0,0,0,0,0,0,0,0,0,-1,580,673,0,0
-637,351,0,0,0,0,0,0,0,0,0,-1,587,673,0,0
-630,351,0,0,0,0,0,0,0,0,0,-1,594,673,0,0
-623,351,0,0,0,0,0,0,0,0,0,-1,601,673,0,0
-616,351,0,0,0,0,0,0,0,0,0,-1,608,673,0,0
-609,351,0,0,0,0,0,0,0,0,0,-1,615,673,0,0
-602,351,0,0,0,0,0,0,0,0,0,-1,622,673,0,0
-595,351,0,0,0,0,0,0,0,0,0,-1,629,673,0,0
-588,351,0,0,0,0,0,0,0,0,0,-1,636,673,0,0
-581,351,-9.0647,1.71906,0,0,0,0,0,0,0,-1,643,673,-9.06472,-1.71908
-574,351,-8.23584,2.64764,0,0,0,0,0,0,0,-1,650,673,-8.23584,-2.64764
-567,351,-10.8027,4.56836,0,0,0,0,0,0,0,-1,657,673,-10.8027,-4.56839
-560,351,-14.2001,2.17084,0,0,0,0,0,0,0,-1,664,673,-14.2002,-2.17086
-553,351,-13.4979,0.779541,0,0,0,0,0,0,0,-1,671,673,-13.4978,-0.779519
-546,351,-14.0065,0.73645,0,0,0,0,0,0,0,-1,678,673,-14.0065,-0.736473
-539,351,-12.8123,-1.46393,0,0,0,0,0,0,0,-1,685,673,-12.8123,1.46395
-532,351,-16.0198,-4.03937,0,0,0,0,0,0,0,-1,692,673,-16.0198,4.03936
-525,351,-25.718,-6.98663,0,0,0,0,0,0,0,-1,699,673,-25.718,6.98664
-518,351,-25.6964,-8.03577,0.00265293,0.00130986,-0.0021169,0.00420226,-0.000239468,-0.631806,0.00288464,0.0227419,706,673,-25.6964,8.03578
-511,351,-25.7388,-9.15247,0.00224415,0.000720142,-0.00133196,0.00301667,-5.23769e-05,-0.525575,0.0020288,0.012687,713,673,-25.7388,9.15245
-504,351,-25.8269,-10.1965,0.00200224,0.000378999,-0.00084182,0.00235997,2.12656e-05,-0.401831,0.00156627,0.011899,720,673,-25.8269,10.1965
-497,351,-25.9045,-11.2611,0.00188122,0.00014686,-0.000501873,0.00201598,1.21031e-05,-0.26232,0.00133997,0.0114914,727,673,-25.9045,11.2611
-490,351,-25.9847,-12.3215,0.00185295,6.76615e-05,-0.000326321,0.00191072,9.88529e-06,-0.175237,0.00127053,0.0107649,734,673,-25.9847,12.3214
-483,351,-26.0558,-13.3392,0.00195504,0.00011669,-0.000322708,0.00201004,6.16867e-05,-0.16882,0.00131995,0.0130437,741,673,-26.0558,13.3392
-476,351,-26.1405,-14.3702,0.00215167,0.000278775,-0.000462167,0.00225951,0.000170936,-0.22923,0.00145272,0.0126722,748,673,-26.1405,14.3702
-469,351,-26.1715,-15.3927,0.00248241,0.000541961,-0.000764135,0.00274719,0.000277181,-0.333562,0.00174642,0.014758,755,673,-26.1715,15.3927
-462,351,-26.2173,-16.543,0.00294854,0.000987091,-0.00123036,0.00354122,0.000394408,-0.448912,0.00224095,0.0431309,762,673,-26.2174,16.543
-455,351,-26.209,-17.7412,0,0,0,0,0,0,0,-1,769,673,-26.2091,17.7412
-448,351,-6.61456,-4.38654,0,0,0,0,0,0,0,-1,776,673,-6.61456,4.38654
-441,351,-4.31567,-2.3009,0,0,0,0,0,0,0,-1,783,673,-4.31565,2.30089
-434,351,-3.81708,-2.28003,0,0,0,0,0,0,0,-1,790,673,-3.81706,2.28006
-427,351,-2.05157,-2.7785,0,0,0,0,0,0,0,-1,797,673,-2.05157,2.77848
-420,351,-1.06989,-2.43665,0,0,0,0,0,0,0,-1,804,673,-1.06991,2.43663
-413,351,-0.392334,-2.06671,0,0,0,0,0,0,0,-1,811,673,-0.392363,2.06672
-406,351,-1.86316,-2.58105,0,0,0,0,0,0,0,-1,818,673,-1.86313,2.58106
-399,351,1.00952,-1.53455,0,0,0,0,0,0,0,-1,825,673,1.00954,1.53457
-392,351,-1.02197,0.877136,0,0,0,0,0,0,0,-1,832,673,-1.02195,-0.877143
-385,351,-1.47205,1.04437,0,0,0,0,0,0,0,-1,839,673,-1.47207,-1.04435
-378,351,0,0,0,0,0,0,0,0,0,-1,846,673,0,0
-371,351,0,0,0,0,0,0,0,0,0,-1,853,673,0,0
-364,351,0,0,0,0,0,0,0,0,0,-1,860,673,0,0
-357,351,0,0,0,0,0,0,0,0,0,-1,867,673,0,0
-350,351,0,0,0,0,0,0,0,0,0,-1,874,673,0,0
-343,351,0,0,0,0,0,0,0,0,0,-1,881,673,0,0
-336,351,0,0,0,0,0,0,0,0,0,-1,888,673,0,0
-329,351,0,0,0,0,0,0,0,0,0,-1,895,673,0,0
-322,351,0,0,0,0,0,0,0,0,0,-1,902,673,0,0
-315,351,0,0,0,0,0,0,0,0,0,-1,909,673,0,0
-308,351,0,0,0,0,0,0,0,0,0,-1,916,673,0,0
-301,351,0,0,0,0,0,0,0,0,0,-1,923,673,0,0
-294,351,0,0,0,0,0,0,0,0,0,-1,930,673,0,0
-287,351,0,0,0,0,0,0,0,0,0,-1,937,673,0,0
-280,351,0,0,0,0,0,0,0,0,0,-1,944,673,0,0
-273,351,0,0,0,0,0,0,0,0,0,-1,951,673,0,0
-266,351,0,0,0,0,0,0,0,0,0,-1,958,673,0,0
-259,351,0,0,0,0,0,0,0,0,0,-1,965,673,0,0
-252,351,0,0,0,0,0,0,0,0,0,-1,972,673,0,0
-245,351,0,0,0,0,0,0,0,0,0,-1,979,673,0,0
-238,351,0,0,0,0,0,0,0,0,0,-1,986,673,0,0
-231,351,0,0,0,0,0,0,0,0,0,-1,993,673,0,0
-224,351,0,0,0,0,0,0,0,0,0,-1,1000,673,0,0
-217,351,0,0,0,0,0,0,0,0,0,-1,1007,673,0,0
-210,351,0,0,0,0,0,0,0,0,0,-1,1014,673,0,0
-203,351,0,0,0,0,0,0,0,0,0,-1,1021,673,0,0
-196,351,0,0,0,0,0,0,0,0,0,-1,1028,673,0,0
-189,351,0,0,0,0,0,0,0,0,0,-1,1035,673,0,0
-182,351,0,0,0,0,0,0,0,0,0,-1,1042,673,0,0
-175,351,0,0,0,0,0,0,0,0,0,-1,1049,673,0,0
-168,351,0,0,0,0,0,0,0,0,0,-1,1056,673,0,0
-161,351,0,0,0,0,0,0,0,0,0,-1,1063,673,0,0
-154,351,0,0,0,0,0,0,0,0,0,-1,1070,673,0,0
-147,351,0,0,0,0,0,0,0,0,0,-1,1077,673,0,0
-140,351,0,0,0,0,0,0,0,0,0,-1,1084,673,0,0
-133,351,0,0,0,0,0,0,0,0,0,-1,1091,673,0,0
-126,351,0,0,0,0,0,0,0,0,0,-1,1098,673,0,0
-119,351,0,0,0,0,0,0,0,0,0,-1,1105,673,0,0
-112,351,0,0,0,0,0,0,0,0,0,-1,1112,673,0,0
-105,351,0,0,0,0,0,0,0,0,0,-1,1119,673,0,0
-98,351,0,0,0,0,0,0,0,0,0,-1,1126,673,0,0
-91,351,0,0,0,0,0,0,0,0,0,-1,1133,673,0,0
-84,351,0,0,0,0,0,0,0,0,0,-1,1140,673,0,0
-77,351,0,0,0,0,0,0,0,0,0,-1,1147,673,0,0
-70,351,0,0,0,0,0,0,0,0,0,-1,1154,673,0,0
-63,351,0,0,0,0,0,0,0,0,0,-1,1161,673,0,0
-56,351,0,0,0,0,0,0,0,0,0,-1,1168,673,0,0
-49,351,0,0,0,0,0,0,0,0,0,-1,1175,673,0,0
-42,351,0,0,0,0,0,0,0,0,0,-1,1182,673,0,0
-35,351,0,0,0,0,0,0,0,0,0,-1,1189,673,0,0
-28,351,0,0,0,0,0,0,0,0,0,-1,1196,673,0,0
-21,351,0,0,0,0,0,0,0,0,0,-1,1203,673,0,0
-14,351,0,0,0,0,0,0,0,0,0,-1,1210,673,0,0
-7,351,0,0,0,0,0,0,0,0,0,-1,1217,673,0,0
0,351,0,0,0,0,0,0,0,0,0,-1,1224,673,0,0
7,351,0,0,0,0,0,0,0,0,0,-1,1231,673,0,0
14,351,0,0,0,0,0,0,0,0,0,-1,1238,673,0,0
21,351,0,0,0,0,0,0,0,0,0,-1,1245,673,0,0
28,351,0,0,0,0,0,0,0,0,0,-1,1252,673,0,0
35,351,0,0,0,0,0,0,0,0,0,-1,1259,673,0,0
42,351,0,0,0,0,0,0,0,0,0,-1,1266,673,0,0
49,351,0,0,0,0,0,0,0,0,0,-1,1273,673,0,0
56,351,0,0,0,0,0,0,0,0,0,-1,1280,673,0,0
63,351,0,0,0,0,0,0,0,0,0,-1,1287,673,0,0
70,351,0,0,0,0,0,0,0,0,0,-1,1294,673,0,0
77,351,0,0,0,0,0,0,0,0,0,-1,1301,673,0,0
84,351,0,0,0,0,0,0,0,0,0,-1,1308,673,0,0
91,351,0,0,0,0,0,0,0,0,0,-1,1315,673,0,0
98,351,0,0,0,0,0,0,0,0,0,-1,1322,673,0,0
105,351,0,0,0,0,0,0,0,0,0,-1,1329,673,0,0
112,351,0,0,0,0,0,0,0,0,0,-1,1336,673,0,0
119,351,0,0,0,0,0,0,0,0,0,-1,1343,673,0,0
126,351,0,0,0,0,0,0,0,0,0,-1,1350,673,0,0
133,351,0,0,0,0,0,0,0,0,0,-1,1357,673,0,0
140,351,0,0,0,0,0,0,0,0,0,-1,1364,673,0,0
147,351,0,0,0,0,0,0,0,0,0,-1,1371,673,0,0
154,351,0,0,0,0,0,0,0,0,0,-1,1378,673,0,0
161,351,0,0,0,0,0,0,0,0,0,-1,1385,673,0,0
168,351,0,0,0,0,0,0,0,0,0,-1,1392,673,0,0
175,351,0,0,0,0,0,0,0,0,0,-1,1399,673,0,0
182,351,0,0,0,0,0,0,0,0,0,-1,1406,673,0,0
189,351,0,0,0,0,0,0,0,0,0,-1,1413,673,0,0
196,351,0,0,0,0,0,0,0,0,0,-1,1420,673,0,0
203,351,0,0,0,0,0,0,0,0,0,-1,1427,673,0,0
210,351,0,0,0,0,0,0,0,0,0,-1,1434,673,0,0
217,351,0,0,0,0,0,0,0,0,0,-1,1441,673,0,0
224,351,0,0,0,0,0,0,0,0,0,-1,1448,673,0,0
231,351,0,0,0,0,0,0,0,0,0,-1,1455,673,0,0
238,351,0,0,0,0,0,0,0,0,0,-1,1462,673,0,0
245,351,0,0,0,0,0,0,0,0,0,-1,1469,673,0,0
252,351,0,0,0,0,0,0,0,0,0,-1,1476,673,0,0
259,351,0,0,0,0,0,0,0,0,0,-1,1483,673,0,0
266,351,0,0,0,0,0,0,0,0,0,-1,1490,673,0,0
273,351,0,0,0,0,0,0,0,0,0,-1,1497,673,0,0
280,351,0,0,0,0,0,0,0,0,0,-1,1504,673,0,0
287,351,0,0,0,0,0,0,0,0,0,-1,1511,673,0,0
294,351,0,0,0,0,0,0,0,0,0,-1,1518,673,0,0
301,351,0,0,0,0,0,0,0,0,0,-1,1525,673,0,0
308,351,0,0,0,0,0,0,0,0,0,-1,1532,673,0,0
315,351,0,0,0,0,0,0,0,0,0,-1,1539,673,0,0
322,351,0,0,0,0,0,0,0,0,0,-1,1546,673,0,0
329,351,0,0,0,0,0,0,0,0,0,-1,1553,673,0,0
336,351,0,0,0,0,0,0,0,0,0,-1,1560,673,0,0
343,351,0,0,0,0,0,0,0,0,0,-1,1567,673,0,0
350,351,0,0,0,0,0,0,0,0,0,-1,1574,673,0,0
357,351,0,0,0,0,0,0,0,0,0,-1,1581,673,0,0
364,351,0,0,0,0,0,0,0,0,0,-1,1588,673,0,0
371,351,0,0,0,0,0,0,0,0,0,-1,1595,673,0,0
378,351,0,0,0,0,0,0,0,0,0,-1,1602,673,0,0
385,351,0,0,0,0,0,0,0,0,0,-1,1609,673,0,0
392,351,0,0,0,0,0,0,0,0,0,-1,1616,673,0,0
399,351,0,0,0,0,0,0,0,0,0,-1,1623,673,0,0
406,351,0,0,0,0,0,0,0,0,0,-1,1630,673,0,0
413,351,0,0,0,0,0,0,0,0,0,-1,1637,673,0,0
420,351,0,0,0,0,0,0,0,0,0,-1,1644,673,0,0
427,351,0,0,0,0,0,0,0,0,0,-1,1651,673,0,0
434,351,0,0,0,0,0,0,0,0,0,-1,1658,673,0,0
441,351,0,0,0,0,0,0,0,0,0,-1,1665,673,0,0
448,351,0,0,0,0,0,0,0,0,0,-1,1672,673,0,0
455,351,0,0,0,0,0,0,0,0,0,-1,1679,673,0,0
462,351,0,0,0,0,0,0,0,0,0,-1,1686,673,0,0
469,351,0,0,0,0,0,0,0,0,0,-1,1693,673,0,0
476,351,0,0,0,0,0,0,0,0,0,-1,1700,673,0,0
483,351,0,0,0,0,0,0,0,0,0,-1,1707,673,0,0
490,351,0,0,0,0,0,0,0,0,0,-1,1714,673,0,0
497,351,0,0,0,0,0,0,0,0,0,-1,1721,673,0,0
504,351,10.8842,1.61615,0,0,0,0,0,0,0,-1,1728,673,10.8842,-1.61618
511,351,15.4548,0.0236816,0,0,0,0,0,0,0,-1,1735,673,15.4549,-0.0236664
518,351,16.7448,2.49268,0,0,0,0,0,0,0,-1,1742,673,16.7448,-2.49269
525,351,16.0701,3.43225,0,0,0,0,0,0,0,-1,1749,673,16.07,-3.43227
532,351,32.3822,3.03021,0,0,0,0,0,0,0,-1,1756,673,32.3822,-3.03019
539,351,15.3387,3.54486,0,0,0,0,0,0,0,-1,1763,673,15.3387,-3.54485
546,351,13.9387,4.59357,0,0,0,0,0,0,0,-1,1770,673,13.9388,-4.59359
553,351,12.0682,2.02832,0,0,0,0,0,0,0,-1,1777,673,12.0683,-2.02831
560,351,12.0173,0.55304,0,0,0,0,0,0,0,-1,1784,673,12.0174,-0.553028
567,351,10.7827,0.130188,0,0,0,0,0,0,0,-1,1791,673,10.7827,-0.130183
574,351,13.405,-1.09204,0,0,0,0,0,0,0,-1,1798,673,13.405,1.09207
581,351,15.2351,-3.06049,0,0,0,0,0,0,0,-1,1805,673,15.2351,3.06046
588,351,43.0338,-16.9222,0,0,0,0,0,0,0,-1,1812,673,43.0339,16.9222
595,351,43.2007,-15.7725,0.00143602,-0.000594523,0.000418169,0.00151877,-0.000677269,0.195352,0.00129854,0.0395327,1819,673,43.2007,15.7724
602,351,43.1892,-14.6555,0.00139068,-0.000169215,0.000515862,0.00154585,-0.000324378,0.292175,0.00115399,0.0197908,1826,673,43.1892,14.6555
609,351,43.1265,-13.6409,0.00142148,0.000235941,0.000644989,0.00170472,-4.72959e-05,0.413781,0.00115257,0.0196643,1833,673,43.1265,13.6409
616,351,43.0425,-12.5703,0.00146616,0.000647035,0.000777768,0.00193561,0.000177584,0.543053,0.00123547,0.0167138,1840,673,43.0424,12.5703
623,351,43.0236,-11.541,0.00162749,0.00109893,0.000922742,0.00232305,0.000403369,0.645928,0.00143329,0.0169366,1847,673,43.0236,11.541
630,351,42.916,-10.5172,0.00180357,0.00163299,0.00109158,0.00281318,0.000623372,0.746411,0.00170606,0.0260964,1854,673,42.916,10.5172
637,351,42.7849,-9.45984,0.0019971,0.00216459,0.00121793,0.00330166,0.000860038,0.819725,0.00197777,0.0287834,1861,673,42.7849,9.45985
644,351,42.7252,-8.4079,0.00222103,0.00276826,0.00133741,0.00385976,0.00112953,0.886298,0.00229142,0.0214327,1868,673,42.7252,8.40789
651,351,42.7026,-7.28931,0.0025402,0.00351969,0.00150692,0.00461445,0.00144544,0.942513,0.0027254,0.0181257,1875,673,42.7026,7.28931
658,351,42.589,-6.17517,0.00285897,0.00430279,0.00159836,0.00533471,0.00182706,0.997513,0.00313053,0.0476565,1882,673,42.589,6.17518
665,351,42.1484,-5.0257,0,0,0,0,0,0,0,-1,1889,673,42.1484,5.02571
672,351,34.9646,-3.1748,0,0,0,0,0,0,0,-1,1896,673,34.9646,3.17482
679,351,14.1252,1.85681,0,0,0,0,0,0,0,-1,1903,673,14.1253,-1.85682
686,351,13.0294,2.1189,0,0,0,0,0,0,0,-1,1910,673,13.0294,-2.11892
693,351,13.5187,2.34595,0,0,0,0,0,0,0,-1,1917,673,13.5187,-2.34596
700,351,14.5629,-2.40173,0,0,0,0,0,0,0,-1,1924,673,14.5629,2.40172
707,351,0,0,0,0,0,0,0,0,0,-1,1931,673,0,0
714,351,0,0,0,0,0,0,0,0,0,-1,1938,673,0,0
721,351,0,0,0,0,0,0,0,0,0,-1,1945,673,0,0
728,351,0,0,0,0,0,0,0,0,0,-1,1952,673,0,0
735,351,0,0,0,0,0,0,0,0,0,-1,1959,673,0,0
742,351,0,0,0,0,0,0,0,0,0,-1,1966,673,0,0
749,351,0,0,0,0,0,0,0,0,0,-1,1973,673,0,0
756,351,0,0,0,0,0,0,0,0,0,-1,1980,673,0,0
763,351,0,0,0,0,0,0,0,0,0,-1,1987,673,0,0
770,351,0,0,0,0,0,0,0,0,0,-1,1994,673,0,0
777,351,0,0,0,0,0,0,0,0,0,-1,2001,673,0,0
784,351,0,0,0,0,0,0,0,0,0,-1,2008,673,0,0
791,351,0,0,0,0,0,0,0,0,0,-1,2015,673,0,0
798,351,0,0,0,0,0,0,0,0,0,-1,2022,673,0,0
805,351,0,0,0,0,0,0,0,0,0,-1,2029,673,0,0
812,351,0,0,0,0,0,0,0,0,0,-1,2036,673,0,0
-700,344,0,0,0,0,0,0,0,0,0,-1,524,680,0,0
-693,344,0,0,0,0,0,0,0,0,0,-1,531,680,0,0
-686,344,0,0,0,0,0,0,0,0,0,-1,538,680,0,0
-679,344,0,0,0,0,0,0,0,0,0,-1,545,680,0,0
-672,344,0,0,0,0,0,0,0,0,0,-1,552,680,0,0
-665,344,0,0,0,0,0,0,0,0,0,-1,559,680,0,0
-658,344,0,0,0,0,0,0,0,0,0,-1,566,680,0,0
-651,344,0,0,0,0,0,0,0,0,0,-1,573,680,0,0
-644,344,0,0,0,0,0,0,0,0,0,-1,580,680,0,0
-637,344,0,0,0,0,0,0,0,0,0,-1,587,680,0,0
-630,344,0,0,0,0,0,0,0,0,0,-1,594,680,0,0
-623,344,0,0,0,0,0,0,0,0,0,-1,601,680,0,0
-616,344,0,0,0,0,0,0,0,0,0,-1,608,680,0,0
-609,344,0,0,0,0,0,0,0,0,0,-1,615,680,0,0
-602,344,0,0,0,0,0,0,0,0,0,-1,622,680,0,0
-595,344,0,0,0,0,0,0,0,0,0,-1,629,680,0,0
-588,344,-9.27826,1.47302,0,0,0,0,0,0,0,-1,636,680,-9.27829,-1.473
-581,344,-10.0098,1.71753,0,0,0,0,0,0,0,-1,643,680,-10.0098,-1.7175
-574,344,-10.2208,3.04871,0,0,0,0,0,0,0,-1,650,680,-10.2208,-3.04869
-567,344,-14.3779,2.29016,0,0,0,0,0,0,0,-1,657,680,-14.3779,-2.29014
-560,344,-14.1238,1.8374,0,0,0,0,0,0,0,-1,664,680,-14.1238,-1.83743
-553,344,-14.7884,2.00116,0,0,0,0,0,0,0,-1,671,680,-14.7884,-2.00115
-546,344,-17.4192,0.157654,0,0,0,0,0,0,0,-1,678,680,-17.4192,-0.157635
-539,344,-17.2671,-2.75714,0,0,0,0,0,0,0,-1,685,680,-17.2671,2.75712
-532,344,-18.4417,-4.38605,0,0,0,0,0,0,0,-1,692,680,-18.4417,4.38603
-525,344,-26.8271,-6.85938,0,0,0,0,0,0,0,-1,699,680,-26.8271,6.8594
-518,344,-26.7552,-8.02307,0.00267773,0.00155268,-0.0019361,0.00413137,9.90399e-05,-0.644019,0.00272184,0.0209613,706,680,-26.7552,8.02305
-511,344,-26.8182,-9.08228,0.00225601,0.000811233,-0.0011728,0.00291106,0.000156192,-0.509365,0.00189079,0.0175937,713,680,-26.8183,9.08226
-504,344,-26.8872,-10.126,0.00201046,0.000314067,-0.000663777,0.00223932,8.5214e-05,-0.332012,0.0014653,0.0181548,720,680,-26.8872,10.1261
-497,344,-26.9529,-11.192,0.00191453,-2.52671e-06,-0.000316422,0.0019654,-5.3404e-05,-0.159425,0.00132843,0.016629,727,680,-26.9529,11.192
-490,344,-27.0432,-12.2574,0.00193926,-0.000111171,-0.000171926,0.00195358,-0.000125487,-0.0830755,0.00134617,0.0154078,734,680,-27.0432,12.2574
-483,344,-27.0966,-13.2825,0.00210333,-3.03266e-05,-0.000223674,0.00212653,-5.35225e-05,-0.103335,0.00143586,0.0160159,741,680,-27.0966,13.2825
-476,344,-27.169,-14.3211,0.0023825,0.000204373,-0.000467865,0.00247875,0.000108128,-0.202881,0.00161766,0.0160184,748,680,-27.169,14.3211
-469,344,-27.2061,-15.4141,0.00279911,0.000588208,-0.000899542,0.00311886,0.000268458,-0.34153,0.00199578,0.0241603,755,680,-27.206,15.4141
-462,344,-27.2158,-16.5129,0,0,0,0,0,0,0,-1,762,680,-27.2157,16.5129
-455,344,-12.1653,-7.99176,0,0,0,0,0,0,0,-1,769,680,-12.1653,7.99174
-448,344,-5.67657,-2.72864,0,0,0,0,0,0,0,-1,776,680,-5.6766,2.72863
-441,344,-5.09229,-2.34167,0,0,0,0,0,0,0,-1,783,680,-5.09229,2.34168
-434,344,-4.28778,-2.08807,0,0,0,0,0,0,0,-1,790,680,-4.28778,2.08809
-427,344,-3.06506,-1.45404,0,0,0,0,0,0,0,-1,797,680,-3.06505,1.45402
-420,344,-1.96582,-1.57574,0,0,0,0,0,0,0,-1,804,680,-1.96579,1.57574
-413,344,-0.817993,-1.4751,0,0,0,0,0,0,0,-1,811,680,-0.818017,1.47511
-406,344,-0.00714111,-1.25189,0,0,0,0,0,0,0,-1,818,680,-0.00714956,1.25191
-399,344,0.240051,-1.75769,0,0,0,0,0,0,0,-1,825,680,0.240079,1.75767
-392,344,1.11353,-2.05615,0,0,0,0,0,0,0,-1,832,680,1.11351,2.05616
-385,344,0,0,0,0,0,0,0,0,0,-1,839,680,0,0
-378,344,0,0,0,0,0,0,0,0,0,-1,846,680,0,0
-371,344,0,0,0,0,0,0,0,0,0,-1,853,680,0,0
-364,344,0,0,0,0,0,0,0,0,0,-1,860,680,0,0
-357,344,0,0,0,0,0,0,0,0,0,-1,867,680,0,0
-350,344,0,0,0,0,0,0,0,0,0,-1,874,680,0,0
-343,344,0,0,0,0,0,0,0,0,0,-1,881,680,0,0
-336,344,0,0,0,0,0,0,0,0,0,-1,888,680,0,0
-329,344,0,0,0,0,0,0,0,0,0,-1,895,680,0,0
-322,344,0,0,0,0,0,0,0,0,0,-1,902,680,0,0
-315,344,0,0,0,0,0,0,0,0,0,-1,909,680,0,0
-308,344,0,0,0,0,0,0,0,0,0,-1,916,680,0,0
-301,344,0,0,0,0,0,0,0,0,0,-1,923,680,0,0
-294,344,0,0,0,0,0,0,0,0,0,-1,930,680,0,0
-287,344,0,0,0,0,0,0,0,0,0,-1,937,680,0,0
-280,344,0,0,0,0,0,0,0,0,0,-1,944,680,0,0
-273,344,0,0,0,0,0,0,0,0,0,-1,951,680,0,0
-266,344,0,0,0,0,0,0,0,0,0,-1,958,680,0,0
-259,344,0,0,0,0,0,0,0,0,0,-1,965,680,0,0
-252,344,0,0,0,0,0,0,0,0,0,-1,972,680,0,0
-245,344,0,0,0,0,0,0,0,0,0,-1,979,680,0,0
-238,344,0,0,0,0,0,0,0,0,0,-1,986,680,0,0
-231,344,0,0,0,0,0,0,0,0,0,-1,993,680,0,0
-224,344,0,0,0,0,0,0,0,0,0,-1,1000,680,0,0
-217,344,0,0,0,0,0,0,0,0,0,-1,1007,680,0,0
-210,344,0,0,0,0,0,0,0,0,0,-1,1014,680,0,0
-203,344,0,0,0,0,0,0,0,0,0,-1,1021,680,0,0
-196,344,0,0,0,0,0,0,0,0,0,-1,1028,680,0,0
-189,344,0,0,0,0,0,0,0,0,0,-1,1035,680,0,0
-182,344,0,0,0,0,0,0,0,0,0,-1,1042,680,0,0
-175,344,0,0,0,0,0,0,0,0,0,-1,1049,680,0,0
-168,344,0,0,0,0,0,0,0,0,0,-1,1056,680,0,0
-161,344,0,0,0,0,0,0,0,0,0,-1,1063,680,0,0
-154,344,0,0,0,0,0,0,0,0,0,-1,1070,680,0,0
-147,344,0,0,0,0,0,0,0,0,0,-1,1077,680,0,0
-140,344,0,0,0,0,0,0,0,0,0,-1,1084,680,0,0
-133,344,0,0,0,0,0,0,0,0,0,-1,1091,680,0,0
-126,344,0,0,0,0,0,0,0,0,0,-1,1098,680,0,0
-119,344,0,0,0,0,0,0,0,0,0,-1,1105,680,0,0
-112,344,0,0,0,0,0,0,0,0,0,-1,1112,680,0,0
-105,344,0,0,0,0,0,0,0,0,0,-1,1119,680,0,0
-98,344,0,0,0,0,0,0,0,0,0,-1,1126,680,0,0
-91,344,0,0,0,0,0,0,0,0,0,-1,1133,680,0,0
-84,344,0,0,0,0,0,0,0,0,0,-1,1140,680,0,0
-77,344,0,0,0,0,0,0,0,0,0,-1,1147,680,0,0
-70,344,0,0,0,0,0,0,0,0,0,-1,1154,680,0,0
-63,344,0,0,0,0,0,0,0,0,0,-1,1161,680,0,0
-56,344,0,0,0,0,0,0,0,0,0,-1,1168,680,0,0
-49,344,0,0,0,0,0,0,0,0,0,-1,1175,680,0,0
-42,344,0,0,0,0,0,0,0,0,0,-1,1182,680,0,0
-35,344,0,0,0,0,0,0,0,0,0,-1,1189,680,0,0
-28,344,0,0,0,0,0,0,0,0,0,-1,1196,680,0,0
-21,344,0,0,0,0,0,0,0,0,0,-1,1203,680,0,0
-14,344,0,0,0,0,0,0,0,0,0,-1,1210,680,0,0
-7,344,0,0,0,0,0,0,0,0,0,-1,1217,680,0,0
0,344,0,0,0,0,0,0,0,0,0,-1,1224,680,0,0
7,344,0,0,0,0,0,0,0,0,0,-1,1231,680,0,0
14,344,0,0,0,0,0,0,0,0,0,-1,1238,680,0,0
21,344,0,0,0,0,0,0,0,0,0,-1,1245,680,0,0
28,344,0,0,0,0,0,0,0,0,0,-1,1252,680,0,0
35,344,0,0,0,0,0,0,0,0,0,-1,1259,680,0,0
42,344,0,0,0,0,0,0,0,0,0,-1,1266,680,0,0
49,344,0,0,0,0,0,0,0,0,0,-1,1273,680,0,0
56,344,0,0,0,0,0,0,0,0,0,-1,1280,680,0,0
63,344,0,0,0,0,0,0,0,0,0,-1,1287,680,0,0
70,344,0,0,0,0,0,0,0,0,0,-1,1294,680,0,0
77,344,0,0,0,0,0,0,0,0,0,-1,1301,680,0,0
84,344,0,0,0,0,0,0,0,0,0,-1,1308,680,0,0
91,344,0,0,0,0,0,0,0,0,0,-1,1315,680,0,0
98,344,0,0,0,0,0,0,0,0,0,-1,1322,680,0,0
105,344,0,0,0,0,0,0,0,0,0,-1,1329,680,0,0
112,344,0,0,0,0,0,0,0,0,0,-1,1336,680,0,0
119,344,0,0,0,0,0,0,0,0,0,-1,1343,680,0,0
126,344,0,0,0,0,0,0,0,0,0,-1,1350,680,0,0
133,344,0,0,0,0,0,0,0,0,0,-1,1357,680,0,0
140,344,0,0,0,0,0,0,0,0,0,-1,1364,680,0,0
147,344,0,0,0,0,0,0,0,0,0,-1,1371,680,0,0
154,344,0,0,0,0,0,0,0,0,0,-1,1378,680,0,0
161,344,0,0,0,0,0,0,0,0,0,-1,1385,680,0,0
168,344,0,0,0,0,0,0,0,0,0,-1,1392,680,0,0
175,344,0,0,0,0,0,0,0,0,0,-1,1399,680,0,0
182,344,0,0,0,0,0,0,0,0,0,-1,1406,680,0,0
189,344,0,0,0,0,0,0,0,0,0,-1,1413,680,0,0
196,344,0,0,0,0,0,0,0,0,0,-1,1420,680,0,0
203,344,0,0,0,0,0,0,0,0,0,-1,1427,680,0,0
210,344,0,0,0,0,0,0,0,0,0,-1,1434,680,0,0
217,344,0,0,0,0,0,0,0,0,0,-1,1441,680,0,0
224,344,0,0,0,0,0,0,0,0,0,-1,1448,680,0,0
231,344,0,0,0,0,0,0,0,0,0,-1,1455,680,0,0
238,344,0,0,0,0,0,0,0,0,0,-1,1462,680,0,0
245,344,0,0,0,0,0,0,0,0,0,-1,1469,680,0,0
252,344,0,0,0,0,0,0,0,0,0,-1,1476,680,0,0
259,344,0,0,0,0,0,0,0,0,0,-1,1483,680,0,0
266,344,0,0,0,0,0,0,0,0,0,-1,1490,680,0,0
273,344,0,0,0,0,0,0,0,0,0,-1,1497,680,0,0
280,344,0,0,0,0,0,0,0,0,0,-1,1504,680,0,0
287,344,0,0,0,0,0,0,0,0,0,-1,1511,680,0,0
294,344,0,0,0,0,0,0,0,0,0,-1,1518,680,0,0
301,344,0,0,0,0,0,0,0,0,0,-1,1525,680,0,0
308,344,0,0,0,0,0,0,0,0,0,-1,1532,680,0,0
315,344,0,0,0,0,0,0,0,0,0,-1,1539,680,0,0
322,344,0,0,0,0,0,0,0,0,0,-1,1546,680,0,0
329,344,0,0,0,0,0,0,0,0,0,-1,1553,680,0,0
336,344,0,0,0,0,0,0,0,0,0,-1,1560,680,0,0
343,344,0,0,0,0,0,0,0,0,0,-1,1567,680,0,0
350,344,0,0,0,0,0,0,0,0,0,-1,1574,680,0,0
357,344,0,0,0,0,0,0,0,0,0,-1,1581,680,0,0
364,344,0,0,0,0,0,0,0,0,0,-1,1588,680,0,0
371,344,0,0,0,0,0,0,0,0,0,-1,1595,680,0,0
378,344,0,0,0,0,0,0,0,0,0,-1,1602,680,0,0
385,344,0,0,0,0,0,0,0,0,0,-1,1609,680,0,0
392,344,0,0,0,0,0,0,0,0,0,-1,1616,680,0,0
399,344,0,0,0,0,0,0,0,0,0,-1,1623,680,0,0
406,344,0,0,0,0,0,0,0,0,0,-1,1630,680,0,0
413,344,0,0,0,0,0,0,0,0,0,-1,1637,680,0,0
420,344,0,0,0,0,0,0,0,0,0,-1,1644,680,0,0
427,344,0,0,0,0,0,0,0,0,0,-1,1651,680,0,0
434,344,0,0,0,0,0,0,0,0,0,-1,1658,680,0,0
441,344,0,0,0,0,0,0,0,0,0,-1,1665,680,0,0
448,344,0,0,0,0,0,0,0,0,0,-1,1672,680,0,0
455,344,0,0,0,0,0,0,0,0,0,-1,1679,680,0,0
462,344,0,0,0,0,0,0,0,0,0,-1,1686,680,0,0
469,344,0,0,0,0,0,0,0,0,0,-1,1693,680,0,0
476,344,0,0,0,0,0,0,0,0,0,-1,1700,680,0,0
483,344,0,0,0,0,0,0,0,0,0,-1,1707,680,0,0
490,344,0,0,0,0,0,0,0,0,0,-1,1714,680,0,0
497,344,0,0,0,0,0,0,0,0,0,-1,1721,680,0,0
504,344,0,0,0,0,0,0,0,0,0,-1,1728,680,0,0
511,344,15.4819,0.452637,0,0,0,0,0,0,0,-1,1735,680,15.4819,-0.452656
518,344,17.1357,2.31207,0,0,0,0,0,0,0,-1,1742,680,17.1358,-2.31207
525,344,31.5201,2.6217,0,0,0,0,0,0,0,-1,1749,680,31.5201,-2.62168
532,344,31.9766,2.61047,0,0,0,0,0,0,0,-1,1756,680,31.9765,-2.6105
539,344,32.4379,2.65314,0,0,0,0,0,0,0,-1,1763,680,32.4378,-2.65316
546,344,14.6722,4.30243,0,0,0,0,0,0,0,-1,1770,680,14.6722,-4.30241
553,344,14.8136,4.35681,0,0,0,0,0,0,0,-1,1777,680,14.8136,-4.35679
560,344,11.9363,2.14185,0,0,0,0,0,0,0,-1,1784,680,11.9362,-2.14182
567,344,11.397,0.925842,0,0,0,0,0,0,0,-1,1791,680,11.397,-0.92583
574,344,10.0004,0.504639,0,0,0,0,0,0,0,-1,1798,680,10.0004,-0.504645
581,344,13.6709,-0.969604,0,0,0,0,0,0,0,-1,1805,680,13.6709,0.969629
588,344,16.1447,-3.15948,0,0,0,0,0,0,0,-1,1812,680,16.1447,3.15946
595,344,44.2574,-15.6888,0,0,0,0,0,0,0,-1,1819,680,44.2575,15.6888
602,344,44.3279,-14.5646,0.00157356,-0.000376997,0.000586085,0.00173612,-0.000539551,0.270555,0.00137306,0.031143,1826,680,44.3279,14.5646
609,344,44.1866,-13.5468,0.00160256,-0.00011409,0.000650907,0.00182146,-0.000332985,0.32441,0.00133917,0.0176976,1833,680,44.1867,13.5467
616,344,44.1078,-12.4901,0.00156219,0.000170457,0.000729933,0.0018748,-0.000142157,0.404644,0.00129985,0.0243241,1840,680,44.1078,12.4901
623,344,44.0895,-11.4641,0.00158482,0.000527318,0.000787796,0.00200486,0.00010728,0.489839,0.00130228,0.0210234,1847,680,44.0894,11.4641
630,344,43.9723,-10.4308,0.0016732,0.000993016,0.000900226,0.00229543,0.000370782,0.604794,0.00142289,0.0266266,1854,680,43.9723,10.4309
637,344,43.8569,-9.34576,0.00181358,0.00148021,0.000992231,0.00265303,0.000640761,0.702182,0.0015985,0.0252257,1861,680,43.8569,9.34578
644,344,43.8309,-8.30432,0.00201602,0.00203819,0.00108292,0.00311008,0.000944133,0.790517,0.00184121,0.0173742,1868,680,43.8309,8.30431
651,344,43.7502,-7.25305,0.00234265,0.0027384,0.00122006,0.00377653,0.00130452,0.86579,0.00221484,0.0120775,1875,680,43.7502,7.25304
658,344,43.6899,-6.08368,0.00275207,0.00352676,0.0013507,0.00454456,0.00173428,0.925037,0.0026482,0.0283021,1882,680,43.6899,6.08369
665,344,43.4777,-5.09412,0.00362504,0.00448755,0.00156044,0.00567523,0.00243736,0.920217,0.00328744,0.0482868,1889,680,43.4777,5.09414
672,344,43.4724,-4.15033,0,0,0,0,0,0,0,-1,1896,680,43.4725,4.15034
679,344,36.7468,-2.59857,0,0,0,0,0,0,0,-1,1903,680,36.7468,2.59857
686,344,15.024,1.82709,0,0,0,0,0,0,0,-1,1910,680,15.024,-1.82706
693,344,12.4362,-1.42346,0,0,0,0,0,0,0,-1,1917,680,12.4361,1.42348
700,344,17.5396,2.61206,0,0,0,0,0,0,0,-1,1924,680,17.5396,-2.61204
707,344,18.5829,3.29352,0,0,0,0,0,0,0,-1,1931,680,18.5828,-3.2935
714,344,0,0,0,0,0,0,0,0,0,-1,1938,680,0,0
721,344,0,0,0,0,0,0,0,0,0,-1,1945,680,0,0
728,344,0,0,0,0,0,0,0,0,0,-1,1952,680,0,0
735,344,0,0,0,0,0,0,0,0,0,-1,1959,680,0,0
742,344,0,0,0,0,0,0,0,0,0,-1,1966,680,0,0
749,344,0,0,0,0,0,0,0,0,0,-1,1973,680,0,0
756,344,0,0,0,0,0,0,0,0,0,-1,1980,680,0,0
763,344,0,0,0,0,0,0,0,0,0,-1,1987,680,0,0
770,344,0,0,0,0,0,0,0,0,0,-1,1994,680,0,0
777,344,0,0,0,0,0,0,0,0,0,-1,2001,680,0,0
784,344,0,0,0,0,0,0,0,0,0,-1,2008,680,0,0
791,344,0,0,0,0,0,0,0,0,0,-1,2015,680,0,0
798,344,0,0,0,0,0,0,0,0,0,-1,2022,680,0,0
805,344,0,0,0,0,0,0,0,0,0,-1,2029,680,0,0
812,344,0,0,0,0,0,0,0,0,0,-1,2036,680,0,0
-700,337,0,0,0,0,0,0,0,0,0,-1,524,687,0,0
-693,337,0,0,0,0,0,0,0,0,0,-1,531,687,0,0
-686,337,0,0,0,0,0,0,0,0,0,-1,538,687,0,0
-679,337,0,0,0,0,0,0,0,0,0,-1,545,687,0,0
-672,337,0,0,0,0,0,0,0,0,0,-1,552,687,0,0
-665,337,0,0,0,0,0,0,0,0,0,-1,559,687,0,0
-658,337,0,0,0,0,0,0,0,0,0,-1,566,687,0,0
-651,337,0,0,0,0,0,0,0,0,0,-1,573,687,0,0
-644,337,0,0,0,0,0,0,0,0,0,-1,580,687,0,0
-637,337,0,0,0,0,0,0,0,0,0,-1,587,687,0,0
-630,337,0,0,0,0,0,0,0,0,0,-1,594,687,0,0
-623,337,0,0,0,0,0,0,0,0,0,-1,601,687,0,0
-616,337,0,0,0,0,0,0,0,0,0,-1,608,687,0,0
-609,337,0,0,0,0,0,0,0,0,0,-1,615,687,0,0
-602,337,0,0,0,0,0,0,0,0,0,-1,622,687,0,0
-595,337,0,0,0,0,0,0,0,0,0,-1,629,687,0,0
-588,337,-10.8413,1.27863,0,0,0,0,0,0,0,-1,636,687,-10.8413,-1.27861
-581,337,-11.2157,1.31567,0,0,0,0,0,0,0,-1,643,687,-11.2157,-1.3157
-574,337,-6.03339,2.0321,0,0,0,0,0,0,0,-1,650,687,-6.03337,-2.03213
-567,337,-13.8102,1.56787,0,0,0,0,0,0,0,-1,657,687,-13.8102,-1.56789
-560,337,-15.5435,2.34247,0,0,0,0,0,0,0,-1,664,687,-15.5435,-2.34247
-553,337,-18.0128,1.12927,0,0,0,0,0,0,0,-1,671,687,-18.0128,-1.12926
-546,337,-18.0244,-2.03845,0,0,0,0,0,0,0,-1,678,687,-18.0244,2.03846
-539,337,-19.2426,-3.53815,0,0,0,0,0,0,0,-1,685,687,-19.2426,3.53813
-532,337,-27.7831,-5.77136,0,0,0,0,0,0,0,-1,692,687,-27.7831,5.77137
-525,337,-27.8014,-6.87073,0.00301511,0.00267311,-0.0027511,0.00560052,8.77059e-05,-0.754359,0.00370479,0.0236636,699,687,-27.8014,6.87075
-518,337,-27.7986,-7.97186,0.00249302,0.00151739,-0.00175515,0.00382689,0.000183522,-0.649853,0.00249234,0.0244105,706,687,-27.7986,7.97189
-511,337,-27.8676,-9.03156,0.00219008,0.000669598,-0.000978848,0.00266924,0.00019044,-0.455222,0.00171953,0.0250521,713,687,-27.8675,9.03153
-504,337,-27.9745,-10.065,0.00198956,4.03186e-05,-0.000391811,0.00206537,-3.54899e-05,-0.191121,0.0013889,0.0247202,720,687,-27.9745,10.065
-497,337,-28.0234,-11.1346,0.00193467,-0.000376538,2.40273e-05,0.00193492,-0.000376788,0.0103945,0.00143216,0.017889,727,687,-28.0234,11.1347
-490,337,-28.0887,-12.2008,0.00203158,-0.000557475,0.000211115,0.00204868,-0.000574576,0.0808298,0.00159225,0.0166337,734,687,-28.0888,12.2008
-483,337,-28.1312,-13.2337,0.00225457,-0.000496293,0.000181938,0.00226655,-0.000508273,0.0657568,0.00170589,0.0171875,741,687,-28.1311,13.2337
-476,337,-28.198,-14.3092,0.00261329,-0.000254405,-0.000111537,0.00261762,-0.000258737,-0.0388161,0.00183741,0.0197908,748,687,-28.198,14.3092
-469,337,-28.2261,-15.4578,0,0,0,0,0,0,0,-1,755,687,-28.2261,15.4578
-462,337,-14.186,-8.89264,0,0,0,0,0,0,0,-1,762,687,-14.186,8.89266
-455,337,-6.00574,-3.12933,0,0,0,0,0,0,0,-1,769,687,-6.00576,3.12934
-448,337,-5.30627,-2.07202,0,0,0,0,0,0,0,-1,776,687,-5.30628,2.07205
-441,337,-4.24762,-1.49597,0,0,0,0,0,0,0,-1,783,687,-4.24762,1.49598
-434,337,-6.86908,1.37531,0,0,0,0,0,0,0,-1,790,687,-6.86908,-1.3753
-427,337,-9.92004,2.487,0,0,0,0,0,0,0,-1,797,687,-9.92002,-2.48701
-420,337,-2.95996,-1.76697,0,0,0,0,0,0,0,-1,804,687,-2.95998,1.76696
-413,337,-1.29169,-1.99487,0,0,0,0,0,0,0,-1,811,687,-1.29171,1.9949
-406,337,-1.02356,-1.89563,0,0,0,0,0,0,0,-1,818,687,-1.02357,1.89564
-399,337,-0.472839,-2.21338,0,0,0,0,0,0,0,-1,825,687,-0.472837,2.2134
-392,337,0,0,0,0,0,0,0,0,0,-1,832,687,0,0
-385,337,0,0,0,0,0,0,0,0,0,-1,839,687,0,0
-378,337,0,0,0,0,0,0,0,0,0,-1,846,687,0,0
-371,337,0,0,0,0,0,0,0,0,0,-1,853,687,0,0
-364,337,0,0,0,0,0,0,0,0,0,-1,860,687,0,0
-357,337,0,0,0,0,0,0,0,0,0,-1,867,687,0,0
-350,337,0,0,0,0,0,0,0,0,0,-1,874,687,0,0
-343,337,0,0,0,0,0,0,0,0,0,-1,881,687,0,0
-336,337,0,0,0,0,0,0,0,0,0,-1,888,687,0,0
-329,337,0,0,0,0,0,0,0,0,0,-1,895,687,0,0
-322,337,0,0,0,0,0,0,0,0,0,-1,902,687,0,0
-315,337,0,0,0,0,0,0,0,0,0,-1,909,687,0,0
-308,337,0,0,0,0,0,0,0,0,0,-1,916,687,0,0
-301,337,0,0,0,0,0,0,0,0,0,-1,923,687,0,0
-294,337,0,0,0,0,0,0,0,0,0,-1,930,687,0,0
-287,337,0,0,0,0,0,0,0,0,0,-1,937,687,0,0
-280,337,0,0,0,0,0,0,0,0,0,-1,944,687,0,0
-273,337,0,0,0,0,0,0,0,0,0,-1,951,687,0,0
-266,337,0,0,0,0,0,0,0,0,0,-1,958,687,0,0
-259,337,0,0,0,0,0,0,0,0,0,-1,965,687,0,0
-252,337,0,0,0,0,0,0,0,0,0,-1,972,687,0,0
-245,337,0,0,0,0,0,0,0,0,0,-1,979,687,0,0
-238,337,0,0,0,0,0,0,0,0,0,-1,986,687,0,0
-231,337,0,0,0,0,0,0,0,0,0,-1,993,687,0,0
-224,337,0,0,0,0,0,0,0,0,0,-1,1000,687,0,0
-217,337,0,0,0,0,0,0,0,0,0,-1,1007,687,0,0
-210,337,0,0,0,0,0,0,0,0,0,-1,1014,687,0,0
-203,337,0,0,0,0,0,0,0,0,0,-1,1021,687,0,0
-196,337,0,0,0,0,0,0,0,0,0,-1,1028,687,0,0
-189,337,0,0,0,0,0,0,0,0,0,-1,1035,687,0,0
-182,337,0,0,0,0,0,0,0,0,0,-1,1042,687,0,0
-175,337,0,0,0,0,0,0,0,0,0,-1,1049,687,0,0
-168,337,0,0,0,0,0,0,0,0,0,-1,1056,687,0,0
-161,337,0,0,0,0,0,0,0,0,0,-1,1063,687,0,0
-154,337,0,0,0,0,0,0,0,0,0,-1,1070,687,0,0
-147,337,0,0,0,0,0,0,0,0,0,-1,1077,687,0,0
-140,337,0,0,0,0,0,0,0,0,0,-1,1084,687,0,0
-133,337,0,0,0,0,0,0,0,0,0,-1,1091,687,0,0
-126,337,0,0,0,0,0,0,0,0,0,-1,1098,687,0,0
-119,337,0,0,0,0,0,0,0,0,0,-1,1105,687,0,0
-112,337,0,0,0,0,0,0,0,0,0,-1,1112,687,0,0
-105,337,0,0,0,0,0,0,0,0,0,-1,1119,687,0,0
-98,337,0,0,0,0,0,0,0,0,0,-1,1126,687,0,0
-91,337,0,0,0,0,0,0,0,0,0,-1,1133,687,0,0
-84,337,0,0,0,0,0,0,0,0,0,-1,1140,687,0,0
-77,337,0,0,0,0,0,0,0,0,0,-1,1147,687,0,0
-70,337,0,0,0,0,0,0,0,0,0,-1,1154,687,0,0
-63,337,0,0,0,0,0,0,0,0,0,-1,1161,687,0,0
-56,337,0,0,0,0,0,0,0,0,0,-1,1168,687,0,0
-49,337,0,0,0,0,0,0,0,0,0,-1,1175,687,0,0
-42,337,0,0,0,0,0,0,0,0,0,-1,1182,687,0,0
-35,337,0,0,0,0,0,0,0,0,0,-1,1189,687,0,0
-28,337,0,0,0,0,0,0,0,0,0,-1,1196,687,0,0
-21,337,0,0,0,0,0,0,0,0,0,-1,1203,687,0,0
-14,337,0,0,0,0,0,0,0,0,0,-1,1210,687,0,0
-7,337,0,0,0,0,0,0,0,0,0,-1,1217,687,0,0
0,337,0,0,0,0,0,0,0,0,0,-1,1224,687,0,0
7,337,0,0,0,0,0,0,0,0,0,-1,1231,687,0,0
14,337,0,0,0,0,0,0,0,0,0,-1,1238,687,0,0
21,337,0,0,0,0,0,0,0,0,0,-1,1245,687,0,0
28,337,0,0,0,0,0,0,0,0,0,-1,1252,687,0,0
35,337,0,0,0,0,0,0,0,0,0,-1,1259,687,0,0
42,337,0,0,0,0,0,0,0,0,0,-1,1266,687,0,0
49,337,0,0,0,0,0,0,0,0,0,-1,1273,687,0,0
56,337,0,0,0,0,0,0,0,0,0,-1,1280,687,0,0
63,337,0,0,0,0,0,0,0,0,0,-1,1287,687,0,0
70,337,0,0,0,0,0,0,0,0,0,-1,1294,687,0,0
77,337,0,0,0,0,0,0,0,0,0,-1,1301,687,0,0
84,337,0,0,0,0,0,0,0,0,0,-1,1308,687,0,0
91,337,0,0,0,0,0,0,0,0,0,-1,1315,687,0,0
98,337,0,0,0,0,0,0,0,0,0,-1,1322,687,0,0
105,337,0,0,0,0,0,0,0,0,0,-1,1329,687,0,0
112,337,0,0,0,0,0,0,0,0,0,-1,1336,687,0,0
119,337,0,0,0,0,0,0,0,0,0,-1,1343,687,0,0
126,337,0,0,0,0,0,0,0,0,0,-1,1350,687,0,0
133,337,0,0,0,0,0,0,0,0,0,-1,1357,687,0,0
140,337,0,0,0,0,0,0,0,0,0,-1,1364,687,0,0
147,337,0,0,0,0,0,0,0,0,0,-1,1371,687,0,0
154,337,0,0,0,0,0,0,0,0,0,-1,1378,687,0,0
161,337,0,0,0,0,0,0,0,0,0,-1,1385,687,0,0
168,337,0,0,0,0,0,0,0,0,0,-1,1392,687,0,0
175,337,0,0,0,0,0,0,0,0,0,-1,1399,687,0,0
182,337,0,0,0,0,0,0,0,0,0,-1,1406,687,0,0
189,337,0,0,0,0,0,0,0,0,0,-1,1413,687,0,0
196,337,0,0,0,0,0,0,0,0,0,-1,1420,687,0,0
203,337,0,0,0,0,0,0,0,0,0,-1,1427,687,0,0
210,337,0,0,0,0,0,0,0,0,0,-1,1434,687,0,0
217,337,0,0,0,0,0,0,0,0,0,-1,1441,687,0,0
224,337,0,0,0,0,0,0,0,0,0,-1,1448,687,0,0
231,337,0,0,0,0,0,0,0,0,0,-1,1455,687,0,0
238,337,0,0,0,0,0,0,0,0,0,-1,1462,687,0,0
245,337,0,0,0,0,0,0,0,0,0,-1,1469,687,0,0
252,337,0,0,0,0,0,0,0,0,0,-1,1476,687,0,0
259,337,0,0,0,0,0,0,0,0,0,-1,1483,687,0,0
266,337,0,0,0,0,0,0,0,0,0,-1,1490,687,0,0
273,337,0,0,0,0,0,0,0,0,0,-1,1497,687,0,0
280,337,0,0,0,0,0,0,0,0,0,-1,1504,687,0,0
287,337,0,0,0,0,0,0,0,0,0,-1,1511,687,0,0
294,337,0,0,0,0,0,0,0,0,0,-1,1518,687,0,0
301,337,0,0,0,0,0,0,0,0,0,-1,1525,687,0,0
308,337,0,0,0,0,0,0,0,0,0,-1,1532,687,0,0
315,337,0,0,0,0,0,0,0,0,0,-1,1539,687,0,0
322,337,0,0,0,0,0,0,0,0,0,-1,1546,687,0,0
329,337,0,0,0,0,0,0,0,0,0,-1,1553,687,0,0
336,337,0,0,0,0,0,0,0,0,0,-1,1560,687,0,0
343,337,0,0,0,0,0,0,0,0,0,-1,1567,687,0,0
350,337,0,0,0,0,0,0,0,0,0,-1,1574,687,0,0
357,337,0,0,0,0,0,0,0,0,0,-1,1581,687,0,0
364,337,0,0,0,0,0,0,0,0,0,-1,1588,687,0,0
371,337,0,0,0,0,0,0,0,0,0,-1,1595,687,0,0
378,337,0,0,0,0,0,0,0,0,0,-1,1602,687,0,0
385,337,0,0,0,0,0,0,0,0,0,-1,1609,687,0,0
392,337,0,0,0,0,0,0,0,0,0,-1,1616,687,0,0
399,337,0,0,0,0,0,0,0,0,0,-1,1623,687,0,0
406,337,0,0,0,0,0,0,0,0,0,-1,1630,687,0,0
413,337,0,0,0,0,0,0,0,0,0,-1,1637,687,0,0
420,337,0,0,0,0,0,0,0,0,0,-1,1644,687,0,0
427,337,0,0,0,0,0,0,0,0,0,-1,1651,687,0,0
434,337,0,0,0,0,0,0,0,0,0,-1,1658,687,0,0
441,337,0,0,0,0,0,0,0,0,0,-1,1665,687,0,0
448,337,0,0,0,0,0,0,0,0,0,-1,1672,687,0,0
455,337,0,0,0,0,0,0,0,0,0,-1,1679,687,0,0
462,337,0,0,0,0,0,0,0,0,0,-1,1686,687,0,0
469,337,0,0,0,0,0,0,0,0,0,-1,1693,687,0,0
476,337,0,0,0,0,0,0,0,0,0,-1,1700,687,0,0
483,337,0,0,0,0,0,0,0,0,0,-1,1707,687,0,0
490,337,0,0,0,0,0,0,0,0,0,-1,1714,687,0,0
497,337,0,0,0,0,0,0,0,0,0,-1,1721,687,0,0
504,337,0,0,0,0,0,0,0,0,0,-1,1728,687,0,0
511,337,0,0,0,0,0,0,0,0,0,-1,1735,687,0,0
518,337,18.0369,1.64581,0,0,0,0,0,0,0,-1,1742,687,18.0368,-1.64581
525,337,31.0717,2.13745,0,0,0,0,0,0,0,-1,1749,687,31.0717,-2.13747
532,337,31.5126,2.13904,0,0,0,0,0,0,0,-1,1756,687,31.5125,-2.13905
539,337,31.9684,2.15594,0,0,0,0,0,0,0,-1,1763,687,31.9684,-2.15596
546,337,32.3584,1.43719,0,0,0,0,0,0,0,-1,1770,687,32.3585,-1.43722
553,337,32.1809,1.36395,0,0,0,0,0,0,0,-1,1777,687,32.181,-1.36396
560,337,18.4053,3.62793,0,0,0,0,0,0,0,-1,1784,687,18.4052,-3.6279
567,337,11.9288,1.38776,0,0,0,0,0,0,0,-1,1791,687,11.9288,-1.38777
574,337,10.704,1.19476,0,0,0,0,0,0,0,-1,1798,687,10.704,-1.19478
581,337,8.50427,0.561768,0,0,0,0,0,0,0,-1,1805,687,8.5043,-0.561754
588,337,8.5885,-0.0536499,0,0,0,0,0,0,0,-1,1812,687,8.58844,0.0536788
595,337,45.15,-15.7415,0,0,0,0,0,0,0,-1,1819,687,45.1501,15.7415
602,337,45.3064,-14.4726,0.00205762,-0.000603621,0.000766855,0.00226278,-0.00080878,0.261411,0.0018384,0.0415745,1826,687,45.3065,14.4726
609,337,45.238,-13.4352,0.0019894,-0.00049603,0.000724895,0.00218537,-0.000692,0.264031,0.00173423,0.0234321,1833,687,45.238,13.4352
616,337,45.1655,-12.406,0.00181169,-0.000316298,0.000750749,0.00204989,-0.000554498,0.307236,0.00158411,0.0185612,1840,687,45.1655,12.406
623,337,45.1057,-11.3871,0.00165371,-2.77262e-05,0.000718529,0.00191893,-0.000292942,0.353596,0.00138728,0.0153402,1847,687,45.1057,11.3871
630,337,45.017,-10.3239,0.00162973,0.000389743,0.000767382,0.00199628,2.31935e-05,0.445618,0.00132319,0.0196156,1854,687,45.017,10.3239
637,337,44.9592,-9.26715,0.00169322,0.000861369,0.000826903,0.00220291,0.00035168,0.552379,0.00136655,0.018359,1861,687,44.9592,9.26714
644,337,44.8922,-8.18994,0.00186155,0.00142978,0.000915172,0.00258595,0.000705372,0.669566,0.00154354,0.0124979,1868,687,44.8922,8.18993
651,337,44.7935,-7.14178,0.00217007,0.00212533,0.00105311,0.00320105,0.00109436,0.774779,0.00187868,0.0112138,1875,687,44.7935,7.14179
658,337,44.7402,-6.09845,0.00262387,0.00294795,0.00125154,0.0040479,0.00152392,0.849776,0.00236071,0.0127136,1882,687,44.7403,6.09847
665,337,44.7043,-5.05658,0.00349705,0.00395125,0.00157235,0.00531281,0.00213548,0.857119,0.00308695,0.0169609,1889,687,44.7043,5.05656
672,337,44.6946,-4.0058,0,0,0,0,0,0,0,-1,1896,687,44.6946,4.00583
679,337,44.5842,-3.05896,0,0,0,0,0,0,0,-1,1903,687,44.5842,3.05898
686,337,18.5614,1.68597,0,0,0,0,0,0,0,-1,1910,687,18.5614,-1.68598
693,337,16.5415,2.21411,0,0,0,0,0,0,0,-1,1917,687,16.5415,-2.2141
700,337,17.2661,2.44379,0,0,0,0,0,0,0,-1,1924,687,17.2661,-2.44378
707,337,17.3544,5.61853,0,0,0,0,0,0,0,-1,1931,687,17.3543,-5.61851
714,337,0,0,0,0,0,0,0,0,0,-1,1938,687,0,0
721,337,0,0,0,0,0,0,0,0,0,-1,1945,687,0,0
728,337,0,0,0,0,0,0,0,0,0,-1,1952,687,0,0
735,337,0,0,0,0,0,0,0,0,0,-1,1959,687,0,0
742,337,0,0,0,0,0,0,0,0,0,-1,1966,687,0,0
749,337,0,0,0,0,0,0,0,0,0,-1,1973,687,0,0
756,337,0,0,0,0,0,0,0,0,0,-1,1980,687,0,0
763,337,0,0,0,0,0,0,0,0,0,-1,1987,687,0,0
770,337,0,0,0,0,0,0,0,0,0,-1,1994,687,0,0
777,337,0,0,0,0,0,0,0,0,0,-1,2001,687,0,0
784,337,0,0,0,0,0,0,0,0,0,-1,2008,687,0,0
791,337,0,0,0,0,0,0,0,0,0,-1,2015,687,0,0
798,337,0,0,0,0,0,0,0,0,0,-1,2022,687,0,0
805,337,0,0,0,0,0,0,0,0,0,-1,2029,687,0,0
812,337,0,0,0,0,0,0,0,0,0,-1,2036,687,0,0
-700,330,0,0,0,0,0,0,0,0,0,-1,524,694,0,0
-693,330,0,0,0,0,0,0,0,0,0,-1,531,694,0,0
-686,330,0,0,0,0,0,0,0,0,0,-1,538,694,0,0
-679,330,0,0,0,0,0,0,0,0,0,-1,545,694,0,0
-672,330,0,0,0,0,0,0,0,0,0,-1,552,694,0,0
-665,330,0,0,0,0,0,0,0,0,0,-1,559,694,0,0
-658,330,0,0,0,0,0,0,0,0,0,-1,566,694,0,0
-651,330,0,0,0,0,0,0,0,0,0,-1,573,694,0,0
-644,330,0,0,0,0,0,0,0,0,0,-1,580,694,0,0
-637,330,0,0,0,0,0,0,0,0,0,-1,587,694,0,0
-630,330,0,0,0,0,0,0,0,0,0,-1,594,694,0,0
-623,330,0,0,0,0,0,0,0,0,0,-1,601,694,0,0
-616,330,0,0,0,0,0,0,0,0,0,-1,608,694,0,0
-609,330,0,0,0,0,0,0,0,0,0,-1,615,694,0,0
-602,330,0,0,0,0,0,0,0,0,0,-1,622,694,0,0
-595,330,-4.67883,1.65515,0,0,0,0,0,0,0,-1,629,694,-4.67881,-1.65515
-588,330,-8.5047,2.67346,0,0,0,0,0,0,0,-1,636,694,-8.50469,-2.67348
-581,330,-12.4227,0.947083,0,0,0,0,0,0,0,-1,643,694,-12.4227,-0.947109
-574,330,-9.02118,1.87952,0,0,0,0,0,0,0,-1,650,694,-9.02115,-1.87953
-567,330,-8.35577,0.909973,0,0,0,0,0,0,0,-1,657,694,-8.35575,-0.909945
-560,330,-13.1036,-0.584656,0,0,0,0,0,0,0,-1,664,694,-13.1035,0.584658
-553,330,-17.5484,-1.21545,0,0,0,0,0,0,0,-1,671,694,-17.5484,1.21547
-546,330,-28.4146,-3.28204,0,0,0,0,0,0,0,-1,678,694,-28.4146,3.28204
-539,330,-28.8624,-4.53241,0,0,0,0,0,0,0,-1,685,694,-28.8624,4.53244
-532,330,-28.812,-5.69348,0.00345357,0.00364649,-0.00334636,0.00689778,0.000202278,-0.799807,0.0045326,0.0312817,692,694,-28.8119,5.69347
-525,330,-28.7902,-6.83881,0.00284912,0.00229654,-0.00230695,0.00489627,0.000249389,-0.7258,0.00318431,0.0113364,699,694,-28.7902,6.83882
-518,330,-28.8243,-7.85907,0.00236542,0.00120956,-0.00139628,0.00329865,0.000276335,-0.589178,0.00211302,0.0151856,706,694,-28.8243,7.85908
-511,330,-28.9409,-8.9231,0.0020762,0.00036331,-0.000666605,0.00230505,0.000134462,-0.330696,0.0014939,0.0215752,713,694,-28.9408,8.92309
-504,330,-29.0583,-9.9682,0.00187055,-0.000292284,-6.28492e-05,0.00187237,-0.000294109,-0.0290261,0.00135695,0.0202085,720,694,-29.0583,9.96818
-497,330,-29.116,-11.0256,0.0018221,-0.000733242,0.000376089,0.0018763,-0.000787444,0.143135,0.00158016,0.0144338,727,694,-29.116,11.0256
-490,330,-29.1396,-12.0969,0.00195725,-0.000937909,0.000588184,0.00207218,-0.00105284,0.192972,0.00183595,0.01589,734,694,-29.1396,12.0968
-483,330,-29.1702,-13.1558,0.00219422,-0.000868161,0.000608984,0.00231087,-0.00098482,0.189269,0.00195344,0.015562,741,694,-29.1702,13.1558
-476,330,-29.2601,-14.23,0,0,0,0,0,0,0,-1,748,694,-29.2601,14.23
-469,330,-16.1478,-9.23303,0,0,0,0,0,0,0,-1,755,694,-16.1478,9.23301
-462,330,-7.26733,-3.84833,0,0,0,0,0,0,0,-1,762,694,-7.26731,3.84832
-455,330,-5.04254,-1.79303,0,0,0,0,0,0,0,-1,769,694,-5.04252,1.79305
-448,330,-4.89886,-1.66156,0,0,0,0,0,0,0,-1,776,694,-4.89886,1.66157
-441,330,-5.30676,-2.34045,0,0,0,0,0,0,0,-1,783,694,-5.30679,2.34048
-434,330,-7.20428,1.00024,0,0,0,0,0,0,0,-1,790,694,-7.20431,-1.00027
-427,330,-16.0428,2.89258,0,0,0,0,0,0,0,-1,797,694,-16.0428,-2.89259
-420,330,-29.0331,0.271606,0,0,0,0,0,0,0,-1,804,694,-29.0331,-0.27158
-413,330,-29.0896,0.56366,0,0,0,0,0,0,0,-1,811,694,-29.0896,-0.563671
-406,330,-1.65375,-1.74371,0,0,0,0,0,0,0,-1,818,694,-1.65375,1.74371
-399,330,0,0,0,0,0,0,0,0,0,-1,825,694,0,0
-392,330,0,0,0,0,0,0,0,0,0,-1,832,694,0,0
-385,330,0,0,0,0,0,0,0,0,0,-1,839,694,0,0
-378,330,0,0,0,0,0,0,0,0,0,-1,846,694,0,0
-371,330,0,0,0,0,0,0,0,0,0,-1,853,694,0,0
-364,330,0,0,0,0,0,0,0,0,0,-1,860,694,0,0
-357,330,0,0,0,0,0,0,0,0,0,-1,867,694,0,0
-350,330,0,0,0,0,0,0,0,0,0,-1,874,694,0,0
-343,330,0,0,0,0,0,0,0,0,0,-1,881,694,0,0
-336,330,0,0,0,0,0,0,0,0,0,-1,888,694,0,0
-329,330,0,0,0,0,0,0,0,0,0,-1,895,694,0,0
-322,330,0,0,0,0,0,0,0,0,0,-1,902,694,0,0
-315,330,0,0,0,0,0,0,0,0,0,-1,909,694,0,0
-308,330,0,0,0,0,0,0,0,0,0,-1,916,694,0,0
-301,330,0,0,0,0,0,0,0,0,0,-1,923,694,0,0
-294,330,0,0,0,0,0,0,0,0,0,-1,930,694,0,0
-287,330,0,0,0,0,0,0,0,0,0,-1,937,694,0,0
-280,330,0,0,0,0,0,0,0,0,0,-1,944,694,0,0
-273,330,0,0,0,0,0,0,0,0,0,-1,951,694,0,0
-266,330,0,0,0,0,0,0,0,0,0,-1,958,694,0,0
-259,330,0,0,0,0,0,0,0,0,0,-1,965,694,0,0
-252,330,0,0,0,0,0,0,0,0,0,-1,972,694,0,0
-245,330,0,0,0,0,0,0,0,0,0,-1,979,694,0,0
-238,330,0,0,0,0,0,0,0,0,0,-1,986,694,0,0
-231,330,0,0,0,0,0,0,0,0,0,-1,993,694,0,0
-224,330,0,0,0,0,0,0,0,0,0,-1,1000,694,0,0
-217,330,0,0,0,0,0,0,0,0,0,-1,1007,694,0,0
-210,330,0,0,0,0,0,0,0,0,0,-1,1014,694,0,0
-203,330,0,0,0,0,0,0,0,0,0,-1,1021,694,0,0
-196,330,0,0,0,0,0,0,0,0,0,-1,1028,694,0,0
-189,330,0,0,0,0,0,0,0,0,0,-1,1035,694,0,0
-182,330,0,0,0,0,0,0,0,0,0,-1,1042,694,0,0
-175,330,0,0,0,0,0,0,0,0,0,-1,1049,694,0,0
-168,330,0,0,0,0,0,0,0,0,0,-1,1056,694,0,0
-161,330,0,0,0,0,0,0,0,0,0,-1,1063,694,0,0
-154,330,0,0,0,0,0,0,0,0,0,-1,1070,694,0,0
-147,330,0,0,0,0,0,0,0,0,0,-1,1077,694,0,0
-140,330,0,0,0,0,0,0,0,0,0,-1,1084,694,0,0
-133,330,0,0,0,0,0,0,0,0,0,-1,1091,694,0,0
-126,330,0,0,0,0,0,0,0,0,0,-1,1098,694,0,0
-119,330,0,0,0,0,0,0,0,0,0,-1,1105,694,0,0
-112,330,0,0,0,0,0,0,0,0,0,-1,1112,694,0,0
-105,330,0,0,0,0,0,0,0,0,0,-1,1119,694,0,0
-98,330,0,0,0,0,0,0,0,0,0,-1,1126,694,0,0
-91,330,0,0,0,0,0,0,0,0,0,-1,1133,694,0,0
-84,330,0,0,0,0,0,0,0,0,0,-1,1140,694,0,0
-77,330,0,0,0,0,0,0,0,0,0,-1,1147,694,0,0
-70,330,0,0,0,0,0,0,0,0,0,-1,1154,694,0,0
-63,330,0,0,0,0,0,0,0,0,0,-1,1161,694,0,0
-56,330,0,0,0,0,0,0,0,0,0,-1,1168,694,0,0
-49,330,0,0,0,0,0,0,0,0,0,-1,1175,694,0,0
-42,330,0,0,0,0,0,0,0,0,0,-1,1182,694,0,0
-35,330,0,0,0,0,0,0,0,0,0,-1,1189,694,0,0
-28,330,0,0,0,0,0,0,0,0,0,-1,1196,694,0,0
-21,330,0,0,0,0,0,0,0,0,0,-1,1203,694,0,0
-14,330,0,0,0,0,0,0,0,0,0,-1,1210,694,0,0
-7,330,0,0,0,0,0,0,0,0,0,-1,1217,694,0,0
0,330,0,0,0,0,0,0,0,0,0,-1,1224,694,0,0
7,330,0,0,0,0,0,0,0,0,0,-1,1231,694,0,0
14,330,0,0,0,0,0,0,0,0,0,-1,1238,694,0,0
21,330,0,0,0,0,0,0,0,0,0,-1,1245,694,0,0
28,330,0,0,0,0,0,0,0,0,0,-1,1252,694,0,0
35,330,0,0,0,0,0,0,0,0,0,-1,1259,694,0,0
42,330,0,0,0,0,0,0,0,0,0,-1,1266,694,0,0
49,330,0,0,0,0,0,0,0,0,0,-1,1273,694,0,0
56,330,0,0,0,0,0,0,0,0,0,-1,1280,694,0,0
63,330,0,0,0,0,0,0,0,0,0,-1,1287,694,0,0
70,330,0,0,0,0,0,0,0,0,0,-1,1294,694,0,0
77,330,0,0,0,0,0,0,0,0,0,-1,1301,694,0,0
84,330,0,0,0,0,0,0,0,0,0,-1,1308,694,0,0
91,330,0,0,0,0,0,0,0,0,0,-1,1315,694,0,0
98,330,0,0,0,0,0,0,0,0,0,-1,1322,694,0,0
105,330,0,0,0,0,0,0,0,0,0,-1,1329,694,0,0
112,330,0,0,0,0,0,0,0,0,0,-1,1336,694,0,0
119,330,0,0,0,0,0,0,0,0,0,-1,1343,694,0,0
126,330,0,0,0,0,0,0,0,0,0,-1,1350,694,0,0
133,330,0,0,0,0,0,0,0,0,0,-1,1357,694,0,0
140,330,0,0,0,0,0,0,0,0,0,-1,1364,694,0,0
147,330,0,0,0,0,0,0,0,0,0,-1,1371,694,0,0
154,330,0,0,0,0,0,0,0,0,0,-1,1378,694,0,0
161,330,0,0,0,0,0,0,0,0,0,-1,1385,694,0,0
168,330,0,0,0,0,0,0,0,0,0,-1,1392,694,0,0
175,330,0,0,0,0,0,0,0,0,0,-1,1399,694,0,0
182,330,0,0,0,0,0,0,0,0,0,-1,1406,694,0,0
189,330,0,0,0,0,0,0,0,0,0,-1,1413,694,0,0
196,330,0,0,0,0,0,0,0,0,0,-1,1420,694,0,0
203,330,0,0,0,0,0,0,0,0,0,-1,1427,694,0,0
210,330,0,0,0,0,0,0,0,0,0,-1,1434,694,0,0
217,330,0,0,0,0,0,0,0,0,0,-1,1441,694,0,0
224,330,0,0,0,0,0,0,0,0,0,-1,1448,694,0,0
231,330,0,0,0,0,0,0,0,0,0,-1,1455,694,0,0
238,330,0,0,0,0,0,0,0,0,0,-1,1462,694,0,0
245,330,0,0,0,0,0,0,0,0,0,-1,1469,694,0,0
252,330,0,0,0,0,0,0,0,0,0,-1,1476,694,0,0
259,330,0,0,0,0,0,0,0,0,0,-1,1483,694,0,0
266,330,0,0,0,0,0,0,0,0,0,-1,1490,694,0,0
273,330,0,0,0,0,0,0,0,0,0,-1,1497,694,0,0
280,330,0,0,0,0,0,0,0,0,0,-1,1504,694,0,0
287,330,0,0,0,0,0,0,0,0,0,-1,1511,694,0,0
294,330,0,0,0,0,0,0,0,0,0,-1,1518,694,0,0
301,330,0,0,0,0,0,0,0,0,0,-1,1525,694,0,0
308,330,0,0,0,0,0,0,0,0,0,-1,1532,694,0,0
315,330,0,0,0,0,0,0,0,0,0,-1,1539,694,0,0
322,330,0,0,0,0,0,0,0,0,0,-1,1546,694,0,0
329,330,0,0,0,0,0,0,0,0,0,-1,1553,694,0,0
336,330,0,0,0,0,0,0,0,0,0,-1,1560,694,0,0
343,330,0,0,0,0,0,0,0,0,0,-1,1567,694,0,0
350,330,0,0,0,0,0,0,0,0,0,-1,1574,694,0,0
357,330,0,0,0,0,0,0,0,0,0,-1,1581,694,0,0
364,330,0,0,0,0,0,0,0,0,0,-1,1588,694,0,0
371,330,0,0,0,0,0,0,0,0,0,-1,1595,694,0,0
378,330,0,0,0,0,0,0,0,0,0,-1,1602,694,0,0
385,330,0,0,0,0,0,0,0,0,0,-1,1609,694,0,0
392,330,0,0,0,0,0,0,0,0,0,-1,1616,694,0,0
399,330,0,0,0,0,0,0,0,0,0,-1,1623,694,0,0
406,330,0,0,0,0,0,0,0,0,0,-1,1630,694,0,0
413,330,0,0,0,0,0,0,0,0,0,-1,1637,694,0,0
420,330,0,0,0,0,0,0,0,0,0,-1,1644,694,0,0
427,330,0,0,0,0,0,0,0,0,0,-1,1651,694,0,0
434,330,0,0,0,0,0,0,0,0,0,-1,1658,694,0,0
441,330,0,0,0,0,0,0,0,0,0,-1,1665,694,0,0
448,330,0,0,0,0,0,0,0,0,0,-1,1672,694,0,0
455,330,0,0,0,0,0,0,0,0,0,-1,1679,694,0,0
462,330,0,0,0,0,0,0,0,0,0,-1,1686,694,0,0
469,330,0,0,0,0,0,0,0,0,0,-1,1693,694,0,0
476,330,0,0,0,0,0,0,0,0,0,-1,1700,694,0,0
483,330,0,0,0,0,0,0,0,0,0,-1,1707,694,0,0
490,330,0,0,0,0,0,0,0,0,0,-1,1714,694,0,0
497,330,0,0,0,0,0,0,0,0,0,-1,1721,694,0,0
504,330,0,0,0,0,0,0,0,0,0,-1,1728,694,0,0
511,330,0,0,0,0,0,0,0,0,0,-1,1735,694,0,0
518,330,0,0,0,0,0,0,0,0,0,-1,1742,694,0,0
525,330,30.6694,0.69519,0,0,0,0,0,0,0,-1,1749,694,30.6694,-0.695206
532,330,30.9469,1.32501,0,0,0,0,0,0,0,-1,1756,694,30.9469,-1.32501
539,330,31.5155,1.62506,0,0,0,0,0,0,0,-1,1763,694,31.5155,-1.62507
546,330,31.4187,1.85651,0,0,0,0,0,0,0,-1,1770,694,31.4187,-1.85651
553,330,31.8452,1.81476,0,0,0,0,0,0,0,-1,1777,694,31.8452,-1.81475
560,330,32.2401,2.43225,0,0,0,0,0,0,0,-1,1784,694,32.2401,-2.43227
567,330,18.0321,3.98578,0,0,0,0,0,0,0,-1,1791,694,18.0321,-3.98576
574,330,12.0454,2.1662,0,0,0,0,0,0,0,-1,1798,694,12.0455,-2.16618
581,330,11.4215,4.50836,0,0,0,0,0,0,0,-1,1805,694,11.4215,-4.50837
588,330,6.45667,-0.0630493,0,0,0,0,0,0,0,-1,1812,694,6.45661,0.0630695
595,330,8.23193,-0.258484,0,0,0,0,0,0,0,-1,1819,694,8.23188,0.258459
602,330,46.0732,-14.6418,0,0,0,0,0,0,0,-1,1826,694,46.0732,14.6418
609,330,46.2229,-13.4003,0.00262739,-0.00075987,0.000950092,0.00287568,-0.00100816,0.255617,0.00232714,0.0270309,1833,694,46.2229,13.4003
616,330,46.2173,-12.3502,0.00222707,-0.000660284,0.000895865,0.00248244,-0.000915659,0.277695,0.00203022,0.0121343,1840,694,46.2173,12.3502
623,330,46.1432,-11.3028,0.00183244,-0.000411623,0.000757463,0.00206418,-0.000643366,0.296903,0.00163337,0.0133579,1847,694,46.1432,11.3028
630,330,46.0829,-10.2284,0.00167274,-3.80083e-05,0.000728986,0.00194124,-0.000306505,0.352897,0.00140749,0.0135323,1854,694,46.0828,10.2284
637,330,46.0178,-9.17352,0.00163898,0.000417205,0.000738587,0.00198658,6.96064e-05,0.439873,0.0013018,0.0132757,1861,694,46.0179,9.17353
644,330,45.9185,-8.12988,0.00173975,0.000979578,0.000805002,0.00224988,0.000469443,0.564836,0.00137051,0.00911587,1868,694,45.9185,8.12988
651,330,45.8505,-7.06696,0.00198893,0.0016484,0.000925555,0.00275975,0.000877582,0.694434,0.00162815,0.0130235,1875,694,45.8505,7.06697
658,330,45.7653,-6.03296,0.00241614,0.00245443,0.0011414,0.00357684,0.00129372,0.793784,0.00209126,0.0138878,1882,694,45.7652,6.03296
665,330,45.6688,-5.00653,0.00319551,0.00342546,0.00149405,0.00480896,0.00181202,0.823799,0.00280441,0.0125283,1889,694,45.6689,5.00655
672,330,45.743,-3.91272,0.00438823,0.00464242,0.00194592,0.00646539,0.00256526,0.818008,0.00375922,0.0421263,1896,694,45.743,3.91269
679,330,45.9487,-2.72601,0,0,0,0,0,0,0,-1,1903,694,45.9487,2.72601
686,330,30.6691,0.582825,0,0,0,0,0,0,0,-1,1910,694,30.6691,-0.582798
693,330,17.3999,2.5976,0,0,0,0,0,0,0,-1,1917,694,17.4,-2.59759
700,330,17.1072,4.13,0,0,0,0,0,0,0,-1,1924,694,17.1071,-4.13002
707,330,16.663,4.88672,0,0,0,0,0,0,0,-1,1931,694,16.6629,-4.88673
714,330,16.5454,5.80896,0,0,0,0,0,0,0,-1,1938,694,16.5454,-5.80899
721,330,0,0,0,0,0,0,0,0,0,-1,1945,694,0,0
728,330,0,0,0,0,0,0,0,0,0,-1,1952,694,0,0
735,330,0,0,0,0,0,0,0,0,0,-1,1959,694,0,0
742,330,0,0,0,0,0,0,0,0,0,-1,1966,694,0,0
749,330,0,0,0,0,0,0,0,0,0,-1,1973,694,0,0
756,330,0,0,0,0,0,0,0,0,0,-1,1980,694,0,0
763,330,0,0,0,0,0,0,0,0,0,-1,1987,694,0,0
770,330,0,0,0,0,0,0,0,0,0,-1,1994,694,0,0
777,330,0,0,0,0,0,0,0,0,0,-1,2001,694,0,0
784,330,0,0,0,0,0,0,0,0,0,-1,2008,694,0,0
791,330,0,0,0,0,0,0,0,0,0,-1,2015,694,0,0
798,330,0,0,0,0,0,0,0,0,0,-1,2022,694,0,0
805,330,0,0,0,0,0,0,0,0,0,-1,2029,694,0,0
812,330,0,0,0,0,0,0,0,0,0,-1,2036,694,0,0
-700,323,0,0,0,0,0,0,0,0,0,-1,524,701,0,0
-693,323,0,0,0,0,0,0,0,0,0,-1,531,701,0,0
-686,323,0,0,0,0,0,0,0,0,0,-1,538,701,0,0
-679,323,0,0,0,0,0,0,0,0,0,-1,545,701,0,0
-672,323,0,0,0,0,0,0,0,0,0,-1,552,701,0,0
-665,323,0,0,0,0,0,0,0,0,0,-1,559,701,0,0
-658,323,0,0,0,0,0,0,0,0,0,-1,566,701,0,0
-651,323,0,0,0,0,0,0,0,0,0,-1,573,701,0,0
-644,323,0,0,0,0,0,0,0,0,0,-1,580,701,0,0
-637,323,0,0,0,0,0,0,0,0,0,-1,587,701,0,0
-630,323,0,0,0,0,0,0,0,0,0,-1,594,701,0,0
-623,323,0,0,0,0,0,0,0,0,0,-1,601,701,0,0
-616,323,0,0,0,0,0,0,0,0,0,-1,608,701,0,0
-609,323,0,0,0,0,0,0,0,0,0,-1,615,701,0,0
-602,323,-4.15833,2.12256,0,0,0,0,0,0,0,-1,622,701,-4.1583,-2.12257
-595,323,-4.052,1.79156,0,0,0,0,0,0,0,-1,629,701,-4.05198,-1.79158
-588,323,-4.07019,1.94543,0,0,0,0,0,0,0,-1,636,701,-4.07019,-1.94542
-581,323,-6.63727,0.562805,0,0,0,0,0,0,0,-1,643,701,-6.63728,-0.56279
-574,323,-6.15887,0.426697,0,0,0,0,0,0,0,-1,650,701,-6.15887,-0.426727
-567,323,-10.0015,0.0371094,0,0,0,0,0,0,0,-1,657,701,-10.0015,-0.037126
-560,323,-16.3503,-1.16956,0,0,0,0,0,0,0,-1,664,701,-16.3503,1.16957
-553,323,-29.7581,-2.70526,0,0,0,0,0,0,0,-1,671,701,-29.7581,2.70525
-546,323,-29.6657,-3.57672,0,0,0,0,0,0,0,-1,678,701,-29.6657,3.57674
-539,323,-29.6299,-4.52142,0.00375147,0.00437425,-0.00359332,0.00766965,0.000456076,-0.828619,0.00496806,0.0341853,685,701,-29.6299,4.52145
-532,323,-29.7646,-5.65082,0.00312423,0.00303205,-0.00267159,0.00575013,0.000406155,-0.776773,0.00370547,0.0128921,692,701,-29.7646,5.65083
-525,323,-29.848,-6.74548,0.00260391,0.00186713,-0.00180235,0.00407513,0.000395907,-0.684589,0.00259487,0.00838081,699,701,-29.848,6.74549
-518,323,-29.9172,-7.77563,0.00216193,0.000887851,-0.0010141,0.00272248,0.000327302,-0.504957,0.00171632,0.0103544,706,701,-29.9172,7.77566
-511,323,-30.0349,-8.82452,0.00187598,7.96878e-05,-0.000360143,0.00194549,1.01718e-05,-0.190678,0.00129362,0.0142467,713,701,-30.0348,8.82454
-504,323,-30.1154,-9.86902,0.00165219,-0.000580848,0.000224726,0.00167458,-0.000603239,0.0993101,0.00136273,0.0158887,720,701,-30.1153,9.86899
-497,323,-30.1509,-10.9334,0.00158534,-0.00104683,0.00066754,0.00174496,-0.00120644,0.234702,0.00171342,0.0127254,727,701,-30.1509,10.9334
-490,323,-30.2235,-11.9963,0.00173521,-0.00131029,0.000911054,0.00198694,-0.00156202,0.269583,0.00205388,0.0145392,734,701,-30.2235,11.9963
-483,323,-30.253,-13.0642,0.00197798,-0.00123834,0.000998909,0.00226296,-0.00152332,0.277913,0.00219987,0.035824,741,701,-30.253,13.0642
-476,323,-30.2763,-14.1085,0,0,0,0,0,0,0,-1,748,701,-30.2763,14.1084
-469,323,-8.33301,-3.64001,0,0,0,0,0,0,0,-1,755,701,-8.33298,3.64
-462,323,-5.29431,-1.45697,0,0,0,0,0,0,0,-1,762,701,-5.29431,1.45699
-455,323,-5.0658,-1.36639,0,0,0,0,0,0,0,-1,769,701,-5.06578,1.3664
-448,323,-4.91608,-1.59601,0,0,0,0,0,0,0,-1,776,701,-4.91606,1.59604
-441,323,-14.4006,0.535217,0,0,0,0,0,0,0,-1,783,701,-14.4006,-0.535203
-434,323,-15.3158,2.479,0,0,0,0,0,0,0,-1,790,701,-15.3158,-2.47898
-427,323,-28.3923,1.16797,0,0,0,0,0,0,0,-1,797,701,-28.3923,-1.16796
-420,323,-28.7292,1.09302,0,0,0,0,0,0,0,-1,804,701,-28.7292,-1.09304
-413,323,-28.7955,1.22418,0,0,0,0,0,0,0,-1,811,701,-28.7956,-1.22419
-406,323,0,0,0,0,0,0,0,0,0,-1,818,701,0,0
-399,323,0,0,0,0,0,0,0,0,0,-1,825,701,0,0
-392,323,0,0,0,0,0,0,0,0,0,-1,832,701,0,0
-385,323,0,0,0,0,0,0,0,0,0,-1,839,701,0,0
-378,323,0,0,0,0,0,0,0,0,0,-1,846,701,0,0
-371,323,0,0,0,0,0,0,0,0,0,-1,853,701,0,0
-364,323,0,0,0,0,0,0,0,0,0,-1,860,701,0,0
-357,323,0,0,0,0,0,0,0,0,0,-1,867,701,0,0
-350,323,0,0,0,0,0,0,0,0,0,-1,874,701,0,0
-343,323,0,0,0,0,0,0,0,0,0,-1,881,701,0,0
-336,323,0,0,0,0,0,0,0,0,0,-1,888,701,0,0
-329,323,0,0,0,0,0,0,0,0,0,-1,895,701,0,0
-322,323,0,0,0,0,0,0,0,0,0,-1,902,701,0,0
-315,323,0,0,0,0,0,0,0,0,0,-1,909,701,0,0
-308,323,0,0,0,0,0,0,0,0,0,-1,916,701,0,0
-301,323,0,0,0,0,0,0,0,0,0,-1,923,701,0,0
-294,323,0,0,0,0,0,0,0,0,0,-1,930,701,0,0
-287,323,0,0,0,0,0,0,0,0,0,-1,937,701,0,0
-280,323,0,0,0,0,0,0,0,0,0,-1,944,701,0,0
-273,323,0,0,0,0,0,0,0,0,0,-1,951,701,0,0
-266,323,0,0,0,0,0,0,0,0,0,-1,958,701,0,0
-259,323,0,0,0,0,0,0,0,0,0,-1,965,701,0,0
-252,323,0,0,0,0,0,0,0,0,0,-1,972,701,0,0
-245,323,0,0,0,0,0,0,0,0,0,-1,979,701,0,0
-238,323,0,0,0,0,0,0,0,0,0,-1,986,701,0,0
-231,323,0,0,0,0,0,0,0,0,0,-1,993,701,0,0
-224,323,0,0,0,0,0,0,0,0,0,-1,1000,701,0,0
-217,323,0,0,0,0,0,0,0,0,0,-1,1007,701,0,0
-210,323,0,0,0,0,0,0,0,0,0,-1,1014,701,0,0
-203,323,0,0,0,0,0,0,0,0,0,-1,1021,701,0,0
-196,323,0,0,0,0,0,0,0,0,0,-1,1028,701,0,0
-189,323,0,0,0,0,0,0,0,0,0,-1,1035,701,0,0
-182,323,0,0,0,0,0,0,0,0,0,-1,1042,701,0,0
-175,323,0,0,0,0,0,0,0,0,0,-1,1049,701,0,0
-168,323,0,0,0,0,0,0,0,0,0,-1,1056,701,0,0
-161,323,0,0,0,0,0,0,0,0,0,-1,1063,701,0,0
-154,323,0,0,0,0,0,0,0,0,0,-1,1070,701,0,0
-147,323,0,0,0,0,0,0,0,0,0,-1,1077,701,0,0
-140,323,0,0,0,0,0,0,0,0,0,-1,1084,701,0,0
-133,323,0,0,0,0,0,0,0,0,0,-1,1091,701,0,0
-126,323,0,0,0,0,0,0,0,0,0,-1,1098,701,0,0
-119,323,0,0,0,0,0,0,0,0,0,-1,1105,701,0,0
-112,323,0,0,0,0,0,0,0,0,0,-1,1112,701,0,0
-105,323,0,0,0,0,0,0,0,0,0,-1,1119,701,0,0
-98,323,0,0,0,0,0,0,0,0,0,-1,1126,701,0,0
-91,323,0,0,0,0,0,0,0,0,0,-1,1133,701,0,0
-84,323,0,0,0,0,0,0,0,0,0,-1,1140,701,0,0
-77,323,0,0,0,0,0,0,0,0,0,-1,1147,701,0,0
-70,323,0,0,0,0,0,0,0,0,0,-1,1154,701,0,0
-63,323,0,0,0,0,0,0,0,0,0,-1,1161,701,0,0
-56,323,0,0,0,0,0,0,0,0,0,-1,1168,701,0,0
-49,323,0,0,0,0,0,0,0,0,0,-1,1175,701,0,0
-42,323,0,0,0,0,0,0,0,0,0,-1,1182,701,0,0
-35,323,0,0,0,0,0,0,0,0,0,-1,1189,701,0,0
-28,323,0,0,0,0,0,0,0,0,0,-1,1196,701,0,0
-21,323,0,0,0,0,0,0,0,0,0,-1,1203,701,0,0
-14,323,0,0,0,0,0,0,0,0,0,-1,1210,701,0,0
-7,323,0,0,0,0,0,0,0,0,0,-1,1217,701,0,0
0,323,0,0,0,0,0,0,0,0,0,-1,1224,701,0,0
7,323,0,0,0,0,0,0,0,0,0,-1,1231,701,0,0
14,323,0,0,0,0,0,0,0,0,0,-1,1238,701,0,0
21,323,0,0,0,0,0,0,0,0,0,-1,1245,701,0,0
28,323,0,0,0,0,0,0,0,0,0,-1,1252,701,0,0
35,323,0,0,0,0,0,0,0,0,0,-1,1259,701,0,0
42,323,0,0,0,0,0,0,0,0,0,-1,1266,701,0,0
49,323,0,0,0,0,0,0,0,0,0,-1,1273,701,0,0
56,323,0,0,0,0,0,0,0,0,0,-1,1280,701,0,0
63,323,0,0,0,0,0,0,0,0,0,-1,1287,701,0,0
70,323,0,0,0,0,0,0,0,0,0,-1,1294,701,0,0
77,323,0,0,0,0,0,0,0,0,0,-1,1301,701,0,0
84,323,0,0,0,0,0,0,0,0,0,-1,1308,701,0,0
91,323,0,0,0,0,0,0,0,0,0,-1,1315,701,0,0
98,323,0,0,0,0,0,0,0,0,0,-1,1322,701,0,0
105,323,0,0,0,0,0,0,0,0,0,-1,1329,701,0,0
112,323,0,0,0,0,0,0,0,0,0,-1,1336,701,0,0
119,323,0,0,0,0,0,0,0,0,0,-1,1343,701,0,0
126,323,0,0,0,0,0,0,0,0,0,-1,1350,701,0,0
133,323,0,0,0,0,0,0,0,0,0,-1,1357,701,0,0
140,323,0,0,0,0,0,0,0,0,0,-1,1364,701,0,0
147,323,0,0,0,0,0,0,0,0,0,-1,1371,701,0,0
154,323,0,0,0,0,0,0,0,0,0,-1,1378,701,0,0
161,323,0,0,0,0,0,0,0,0,0,-1,1385,701,0,0
168,323,0,0,0,0,0,0,0,0,0,-1,1392,701,0,0
175,323,0,0,0,0,0,0,0,0,0,-1,1399,701,0,0
182,323,0,0,0,0,0,0,0,0,0,-1,1406,701,0,0
189,323,0,0,0,0,0,0,0,0,0,-1,1413,701,0,0
196,323,0,0,0,0,0,0,0,0,0,-1,1420,701,0,0
203,323,0,0,0,0,0,0,0,0,0,-1,1427,701,0,0
210,323,0,0,0,0,0,0,0,0,0,-1,1434,701,0,0
217,323,0,0,0,0,0,0,0,0,0,-1,1441,701,0,0
224,323,0,0,0,0,0,0,0,0,0,-1,1448,701,0,0
231,323,0,0,0,0,0,0,0,0,0,-1,1455,701,0,0
238,323,0,0,0,0,0,0,0,0,0,-1,1462,701,0,0
245,323,0,0,0,0,0,0,0,0,0,-1,1469,701,0,0
252,323,0,0,0,0,0,0,0,0,0,-1,1476,701,0,0
259,323,0,0,0,0,0,0,0,0,0,-1,1483,701,0,0
266,323,0,0,0,0,0,0,0,0,0,-1,1490,701,0,0
273,323,0,0,0,0,0,0,0,0,0,-1,1497,701,0,0
280,323,0,0,0,0,0,0,0,0,0,-1,1504,701,0,0
287,323,0,0,0,0,0,0,0,0,0,-1,1511,701,0,0
294,323,0,0,0,0,0,0,0,0,0,-1,1518,701,0,0
301,323,0,0,0,0,0,0,0,0,0,-1,1525,701,0,0
308,323,0,0,0,0,0,0,0,0,0,-1,1532,701,0,0
315,323,0,0,0,0,0,0,0,0,0,-1,1539,701,0,0
322,323,0,0,0,0,0,0,0,0,0,-1,1546,701,0,0
329,323,0,0,0,0,0,0,0,0,0,-1,1553,701,0,0
336,323,0,0,0,0,0,0,0,0,0,-1,1560,701,0,0
343,323,0,0,0,0,0,0,0,0,0,-1,1567,701,0,0
350,323,0,0,0,0,0,0,0,0,0,-1,1574,701,0,0
357,323,0,0,0,0,0,0,0,0,0,-1,1581,701,0,0
364,323,0,0,0,0,0,0,0,0,0,-1,1588,701,0,0
371,323,0,0,0,0,0,0,0,0,0,-1,1595,701,0,0
378,323,0,0,0,0,0,0,0,0,0,-1,1602,701,0,0
385,323,0,0,0,0,0,0,0,0,0,-1,1609,701,0,0
392,323,0,0,0,0,0,0,0,0,0,-1,1616,701,0,0
399,323,0,0,0,0,0,0,0,0,0,-1,1623,701,0,0
406,323,0,0,0,0,0,0,0,0,0,-1,1630,701,0,0
413,323,0,0,0,0,0,0,0,0,0,-1,1637,701,0,0
420,323,0,0,0,0,0,0,0,0,0,-1,1644,701,0,0
427,323,0,0,0,0,0,0,0,0,0,-1,1651,701,0,0
434,323,0,0,0,0,0,0,0,0,0,-1,1658,701,0,0
441,323,0,0,0,0,0,0,0,0,0,-1,1665,701,0,0
448,323,0,0,0,0,0,0,0,0,0,-1,1672,701,0,0
455,323,0,0,0,0,0,0,0,0,0,-1,1679,701,0,0
462,323,0,0,0,0,0,0,0,0,0,-1,1686,701,0,0
469,323,0,0,0,0,0,0,0,0,0,-1,1693,701,0,0
476,323,0,0,0,0,0,0,0,0,0,-1,1700,701,0,0
483,323,0,0,0,0,0,0,0,0,0,-1,1707,701,0,0
490,323,0,0,0,0,0,0,0,0,0,-1,1714,701,0,0
497,323,0,0,0,0,0,0,0,0,0,-1,1721,701,0,0
504,323,0,0,0,0,0,0,0,0,0,-1,1728,701,0,0
511,323,0,0,0,0,0,0,0,0,0,-1,1735,701,0,0
518,323,0,0,0,0,0,0,0,0,0,-1,1742,701,0,0
525,323,0,0,0,0,0,0,0,0,0,-1,1749,701,0,0
532,323,33.6193,1.69446,0,0,0,0,0,0,0,-1,1756,701,33.6193,-1.69444
539,323,32.2698,2.44037,0,0,0,0,0,0,0,-1,1763,701,32.2697,-2.44036
546,323,31.1644,3.9444,0,0,0,0,0,0,0,-1,1770,701,31.1644,-3.94438
553,323,30.2488,5.8775,0,0,0,0,0,0,0,-1,1777,701,30.2487,-5.87752
560,323,40.6711,1.25153,0,0,0,0,0,0,0,-1,1784,701,40.6711,-1.25154
567,323,42.1637,2.01208,0,0,0,0,0,0,0,-1,1791,701,42.1637,-2.01207
574,323,12.514,5.89685,0,0,0,0,0,0,0,-1,1798,701,12.5141,-5.89683
581,323,11.821,5.3476,0,0,0,0,0,0,0,-1,1805,701,11.821,-5.34762
588,323,11.7933,7.00818,0,0,0,0,0,0,0,-1,1812,701,11.7933,-7.00819
595,323,6.67847,0.06604,0,0,0,0,0,0,0,-1,1819,701,6.67841,-0.0660418
602,323,46.9626,-14.4589,0,0,0,0,0,0,0,-1,1826,701,46.9626,14.4589
609,323,47.1798,-13.3215,0.0033284,-0.000692613,0.00137698,0.00375474,-0.00111895,0.300258,0.0029478,0.0398553,1833,701,47.1798,13.3215
616,323,47.2545,-12.2399,0.00274711,-0.000702996,0.00121617,0.00313272,-0.0010886,0.307038,0.00253063,0.0142077,1840,701,47.2546,12.2398
623,323,47.1914,-11.1937,0.00213991,-0.000522134,0.000949349,0.00244379,-0.000826007,0.309781,0.00196333,0.0142574,1847,701,47.1914,11.1937
630,323,47.1278,-10.1257,0.0018822,-0.00023424,0.000820466,0.00216301,-0.000515047,0.329757,0.00164086,0.0140642,1854,701,47.1278,10.1256
637,323,47.057,-9.08545,0.00176441,0.000162848,0.000762938,0.00206967,-0.000142412,0.380602,0.00142961,0.0112599,1861,701,47.057,9.08542
644,323,46.95,-8.07239,0.00179274,0.000669888,0.000786079,0.00219729,0.000265332,0.475299,0.00138492,0.00940497,1868,701,46.95,8.07239
651,323,46.9176,-7.01208,0.00196792,0.00127782,0.000869021,0.00255788,0.00068785,0.596416,0.00152847,0.0142928,1875,701,46.9177,7.01207
658,323,46.7823,-5.94135,0.00232429,0.00202068,0.00106112,0.00324441,0.00110056,0.71435,0.00190517,0.0251833,1882,701,46.7823,5.94133
665,323,46.6522,-4.9118,0.00295309,0.00291118,0.00138834,0.00432063,0.00154364,0.777852,0.00252817,0.0204366,1889,701,46.6523,4.91178
672,323,46.7158,-3.82324,0.00390797,0.0040131,0.00184451,0.0058058,0.00211527,0.799643,0.00339286,0.0242332,1896,701,46.7158,3.82326
679,323,46.8595,-2.57257,0,0,0,0,0,0,0,-1,1903,701,46.8596,2.57259
686,323,30.4916,0.378235,0,0,0,0,0,0,0,-1,1910,701,30.4916,-0.37825
693,323,23.8806,1.08844,0,0,0,0,0,0,0,-1,1917,701,23.8806,-1.08845
700,323,10.7705,0.828613,0,0,0,0,0,0,0,-1,1924,701,10.7705,-0.828591
707,323,16.9005,4.79193,0,0,0,0,0,0,0,-1,1931,701,16.9005,-4.7919
714,323,16.2346,6.25958,0,0,0,0,0,0,0,-1,1938,701,16.2346,-6.25956
721,323,0,0,0,0,0,0,0,0,0,-1,1945,701,0,0
728,323,0,0,0,0,0,0,0,0,0,-1,1952,701,0,0
735,323,0,0,0,0,0,0,0,0,0,-1,1959,701,0,0
742,323,0,0,0,0,0,0,0,0,0,-1,1966,701,0,0
749,323,0,0,0,0,0,0,0,0,0,-1,1973,701,0,0
756,323,0,0,0,0,0,0,0,0,0,-1,1980,701,0,0
763,323,0,0,0,0,0,0,0,0,0,-1,1987,701,0,0
770,323,0,0,0,0,0,0,0,0,0,-1,1994,701,0,0
777,323,0,0,0,0,0,0,0,0,0,-1,2001,701,0,0
784,323,0,0,0,0,0,0,0,0,0,-1,2008,701,0,0
791,323,0,0,0,0,0,0,0,0,0,-1,2015,701,0,0
798,323,0,0,0,0,0,0,0,0,0,-1,2022,701,0,0
805,323,0,0,0,0,0,0,0,0,0,-1,2029,701,0,0
812,323,0,0,0,0,0,0,0,0,0,-1,2036,701,0,0
-700,316,0,0,0,0,0,0,0,0,0,-1,524,708,0,0
-693,316,0,0,0,0,0,0,0,0,0,-1,531,708,0,0
-686,316,0,0,0,0,0,0,0,0,0,-1,538,708,0,0
-679,316,0,0,0,0,0,0,0,0,0,-1,545,708,0,0
-672,316,0,0,0,0,0,0,0,0,0,-1,552,708,0,0
-665,316,0,0,0,0,0,0,0,0,0,-1,559,708,0,0
-658,316,0,0,0,0,0,0,0,0,0,-1,566,708,0,0
-651,316,0,0,0,0,0,0,0,0,0,-1,573,708,0,0
-644,316,0,0,0,0,0,0,0,0,0,-1,580,708,0,0
-637,316,0,0,0,0,0,0,0,0,0,-1,587,708,0,0
-630,316,0,0,0,0,0,0,0,0,0,-1,594,708,0,0
-623,316,0,0,0,0,0,0,0,0,0,-1,601,708,0,0
-616,316,0,0,0,0,0,0,0,0,0,-1,608,708,0,0
-609,316,0,0,0,0,0,0,0,0,0,-1,615,708,0,0
-602,316,-0.451782,-0.0494995,0,0,0,0,0,0,0,-1,622,708,-0.451768,0.0495022
-595,316,-3.3761,2.17188,0,0,0,0,0,0,0,-1,629,708,-3.37609,-2.17189
-588,316,-5.00177,2.60675,0,0,0,0,0,0,0,-1,636,708,-5.00175,-2.60676
-581,316,-3.94653,0.393433,0,0,0,0,0,0,0,-1,643,708,-3.94655,-0.39342
-574,316,-9.67395,1.06067,0,0,0,0,0,0,0,-1,650,708,-9.67396,-1.06065
-567,316,-10.1962,0.448425,0,0,0,0,0,0,0,-1,657,708,-10.1962,-0.448411
-560,316,-18.9941,-1.75067,0,0,0,0,0,0,0,-1,664,708,-18.9941,1.75068
-553,316,-25.6896,-2.78827,0,0,0,0,0,0,0,-1,671,708,-25.6896,2.78827
-546,316,-30.6443,-3.46796,0,0,0,0,0,0,0,-1,678,708,-30.6443,3.46793
-539,316,-30.72,-4.54626,0.00296433,0.00386224,-0.00282167,0.00627044,0.00055612,-0.864291,0.0040078,0.0139097,685,708,-30.72,4.54627
-532,316,-30.8081,-5.59131,0.00256739,0.00257128,-0.00206932,0.00463865,0.000500013,-0.785868,0.00293997,0.0109126,692,708,-30.8081,5.59132
-525,316,-30.8863,-6.62988,0.00218771,0.00139555,-0.00132948,0.00317886,0.000404404,-0.640624,0.00199813,0.0107275,699,708,-30.8863,6.62988
-518,316,-30.9457,-7.67993,0.00186044,0.000453077,-0.00062349,0.00209692,0.000216594,-0.362525,0.00133163,0.0109673,706,708,-30.9457,7.67994
-511,316,-31.0611,-8.745,0.00163482,-0.000361491,9.17057e-07,0.00163482,-0.000361492,0.000459377,0.00122824,0.0118208,713,708,-31.0611,8.74499
-504,316,-31.1436,-9.81775,0.0014388,-0.0010733,0.000602308,0.00157574,-0.00121024,0.223568,0.0016131,0.0153965,720,708,-31.1436,9.81776
-497,316,-31.1797,-10.8384,0.00139872,-0.00161562,0.00107966,0.00174553,-0.00196243,0.310808,0.00214201,0.0134962,727,708,-31.1797,10.8384
-490,316,-31.2333,-11.8918,0.00162144,-0.00199117,0.00136638,0.00208003,-0.00244976,0.323808,0.00261817,0.0199829,734,708,-31.2333,11.8918
-483,316,-31.2941,-13.0362,0,0,0,0,0,0,0,-1,741,708,-31.2941,13.0362
-476,316,-8.90894,-3.31207,0,0,0,0,0,0,0,-1,748,708,-8.90896,3.31206
-469,316,-6.24194,-1.42725,0,0,0,0,0,0,0,-1,755,708,-6.24192,1.42725
-462,316,-5.74237,-1.40039,0,0,0,0,0,0,0,-1,762,708,-5.74238,1.40039
-455,316,-5.44745,-1.21899,0,0,0,0,0,0,0,-1,769,708,-5.44746,1.21898
-448,316,-14.8945,0.655396,0,0,0,0,0,0,0,-1,776,708,-14.8946,-0.655396
-441,316,-14.9626,0.576111,0,0,0,0,0,0,0,-1,783,708,-14.9626,-0.576115
-434,316,-27.7723,1.15576,0,0,0,0,0,0,0,-1,790,708,-27.7723,-1.15579
-427,316,-28.0504,1.31427,0,0,0,0,0,0,0,-1,797,708,-28.0504,-1.31427
-420,316,-28.198,1.62891,0,0,0,0,0,0,0,-1,804,708,-28.198,-1.62889
-413,316,0,0,0,0,0,0,0,0,0,-1,811,708,0,0
-406,316,0,0,0,0,0,0,0,0,0,-1,818,708,0,0
-399,316,0,0,0,0,0,0,0,0,0,-1,825,708,0,0
-392,316,0,0,0,0,0,0,0,0,0,-1,832,708,0,0
-385,316,0,0,0,0,0,0,0,0,0,-1,839,708,0,0
-378,316,0,0,0,0,0,0,0,0,0,-1,846,708,0,0
-371,316,0,0,0,0,0,0,0,0,0,-1,853,708,0,0
-364,316,0,0,0,0,0,0,0,0,0,-1,860,708,0,0
-357,316,0,0,0,0,0,0,0,0,0,-1,867,708,0,0
-350,316,0,0,0,0,0,0,0,0,0,-1,874,708,0,0
-343,316,0,0,0,0,0,0,0,0,0,-1,881,708,0,0
-336,316,0,0,0,0,0,0,0,0,0,-1,888,708,0,0
-329,316,0,0,0,0,0,0,0,0,0,-1,895,708,0,0
-322,316,0,0,0,0,0,0,0,0,0,-1,902,708,0,0
-315,316,0,0,0,0,0,0,0,0,0,-1,909,708,0,0
-308,316,0,0,0,0,0,0,0,0,0,-1,916,708,0,0
-301,316,0,0,0,0,0,0,0,0,0,-1,923,708,0,0
-294,316,0,0,0,0,0,0,0,0,0,-1,930,708,0,0
-287,316,0,0,0,0,0,0,0,0,0,-1,937,708,0,0
-280,316,0,0,0,0,0,0,0,0,0,-1,944,708,0,0
-273,316,0,0,0,0,0,0,0,0,0,-1,951,708,0,0
-266,316,0,0,0,0,0,0,0,0,0,-1,958,708,0,0
-259,316,0,0,0,0,0,0,0,0,0,-1,965,708,0,0
-252,316,0,0,0,0,0,0,0,0,0,-1,972,708,0,0
-245,316,0,0,0,0,0,0,0,0,0,-1,979,708,0,0
-238,316,0,0,0,0,0,0,0,0,0,-1,986,708,0,0
-231,316,0,0,0,0,0,0,0,0,0,-1,993,708,0,0
-224,316,0,0,0,0,0,0,0,0,0,-1,1000,708,0,0
-217,316,0,0,0,0,0,0,0,0,0,-1,1007,708,0,0
-210,316,0,0,0,0,0,0,0,0,0,-1,1014,708,0,0
-203,316,0,0,0,0,0,0,0,0,0,-1,1021,708,0,0
-196,316,0,0,0,0,0,0,0,0,0,-1,1028,708,0,0
-189,316,0,0,0,0,0,0,0,0,0,-1,1035,708,0,0
-182,316,0,0,0,0,0,0,0,0,0,-1,1042,708,0,0
-175,316,0,0,0,0,0,0,0,0,0,-1,1049,708,0,0
-168,316,0,0,0,0,0,0,0,0,0,-1,1056,708,0,0
-161,316,0,0,0,0,0,0,0,0,0,-1,1063,708,0,0
-154,316,0,0,0,0,0,0,0,0,0,-1,1070,708,0,0
-147,316,0,0,0,0,0,0,0,0,0,-1,1077,708,0,0
-140,316,0,0,0,0,0,0,0,0,0,-1,1084,708,0,0
-133,316,0,0,0,0,0,0,0,0,0,-1,1091,708,0,0
-126,316,0,0,0,0,0,0,0,0,0,-1,1098,708,0,0
-119,316,0,0,0,0,0,0,0,0,0,-1,1105,708,0,0
-112,316,0,0,0,0,0,0,0,0,0,-1,1112,708,0,0
-105,316,0,0,0,0,0,0,0,0,0,-1,1119,708,0,0
-98,316,0,0,0,0,0,0,0,0,0,-1,1126,708,0,0
-91,316,0,0,0,0,0,0,0,0,0,-1,1133,708,0,0
-84,316,0,0,0,0,0,0,0,0,0,-1,1140,708,0,0
-77,316,0,0,0,0,0,0,0,0,0,-1,1147,708,0,0
-70,316,0,0,0,0,0,0,0,0,0,-1,1154,708,0,0
-63,316,0,0,0,0,0,0,0,0,0,-1,1161,708,0,0
-56,316,0,0,0,0,0,0,0,0,0,-1,1168,708,0,0
-49,316,0,0,0,0,0,0,0,0,0,-1,1175,708,0,0
-42,316,0,0,0,0,0,0,0,0,0,-1,1182,708,0,0
-35,316,0,0,0,0,0,0,0,0,0,-1,1189,708,0,0
-28,316,0,0,0,0,0,0,0,0,0,-1,1196,708,0,0
-21,316,0,0,0,0,0,0,0,0,0,-1,1203,708,0,0
-14,316,0,0,0,0,0,0,0,0,0,-1,1210,708,0,0
-7,316,0,0,0,0,0,0,0,0,0,-1,1217,708,0,0
0,316,0,0,0,0,0,0,0,0,0,-1,1224,708,0,0
7,316,0,0,0,0,0,0,0,0,0,-1,1231,708,0,0
14,316,0,0,0,0,0,0,0,0,0,-1,1238,708,0,0
21,316,0,0,0,0,0,0,0,0,0,-1,1245,708,0,0
28,316,0,0,0,0,0,0,0,0,0,-1,1252,708,0,0
35,316,0,0,0,0,0,0,0,0,0,-1,1259,708,0,0
42,316,0,0,0,0,0,0,0,0,0,-1,1266,708,0,0
49,316,0,0,0,0,0,0,0,0,0,-1,1273,708,0,0
56,316,0,0,0,0,0,0,0,0,0,-1,1280,708,0,0
63,316,0,0,0,0,0,0,0,0,0,-1,1287,708,0,0
70,316,0,0,0,0,0,0,0,0,0,-1,1294,708,0,0
77,316,0,0,0,0,0,0,0,0,0,-1,1301,708,0,0
84,316,0,0,0,0,0,0,0,0,0,-1,1308,708,0,0
91,316,0,0,0,0,0,0,0,0,0,-1,1315,708,0,0
98,316,0,0,0,0,0,0,0,0,0,-1,1322,708,0,0
105,316,0,0,0,0,0,0,0,0,0,-1,1329,708,0,0
112,316,0,0,0,0,0,0,0,0,0,-1,1336,708,0,0
119,316,0,0,0,0,0,0,0,0,0,-1,1343,708,0,0
126,316,0,0,0,0,0,0,0,0,0,-1,1350,708,0,0
133,316,0,0,0,0,0,0,0,0,0,-1,1357,708,0,0
140,316,0,0,0,0,0,0,0,0,0,-1,1364,708,0,0
147,316,0,0,0,0,0,0,0,0,0,-1,1371,708,0,0
154,316,0,0,0,0,0,0,0,0,0,-1,1378,708,0,0
161,316,0,0,0,0,0,0,0,0,0,-1,1385,708,0,0
168,316,0,0,0,0,0,0,0,0,0,-1,1392,708,0,0
175,316,0,0,0,0,0,0,0,0,0,-1,1399,708,0,0
182,316,0,0,0,0,0,0,0,0,0,-1,1406,708,0,0
189,316,0,0,0,0,0,0,0,0,0,-1,1413,708,0,0
196,316,0,0,0,0,0,0,0,0,0,-1,1420,708,0,0
203,316,0,0,0,0,0,0,0,0,0,-1,1427,708,0,0
210,316,0,0,0,0,0,0,0,0,0,-1,1434,708,0,0
217,316,0,0,0,0,0,0,0,0,0,-1,1441,708,0,0
224,316,0,0,0,0,0,0,0,0,0,-1,1448,708,0,0
231,316,0,0,0,0,0,0,0,0,0,-1,1455,708,0,0
238,316,0,0,0,0,0,0,0,0,0,-1,1462,708,0,0
245,316,0,0,0,0,0,0,0,0,0,-1,1469,708,0,0
252,316,0,0,0,0,0,0,0,0,0,-1,1476,708,0,0
259,316,0,0,0,0,0,0,0,0,0,-1,1483,708,0,0
266,316,0,0,0,0,0,0,0,0,0,-1,1490,708,0,0
273,316,0,0,0,0,0,0,0,0,0,-1,1497,708,0,0
280,316,0,0,0,0,0,0,0,0,0,-1,1504,708,0,0
287,316,0,0,0,0,0,0,0,0,0,-1,1511,708,0,0
294,316,0,0,0,0,0,0,0,0,0,-1,1518,708,0,0
301,316,0,0,0,0,0,0,0,0,0,-1,1525,708,0,0
308,316,0,0,0,0,0,0,0,0,0,-1,1532,708,0,0
315,316,0,0,0,0,0,0,0,0,0,-1,1539,708,0,0
322,316,0,0,0,0,0,0,0,0,0,-1,1546,708,0,0
329,316,0,0,0,0,0,0,0,0,0,-1,1553,708,0,0
336,316,0,0,0,0,0,0,0,0,0,-1,1560,708,0,0
343,316,0,0,0,0,0,0,0,0,0,-1,1567,708,0,0
350,316,0,0,0,0,0,0,0,0,0,-1,1574,708,0,0
357,316,0,0,0,0,0,0,0,0,0,-1,1581,708,0,0
364,316,0,0,0,0,0,0,0,0,0,-1,1588,708,0,0
371,316,0,0,0,0,0,0,0,0,0,-1,1595,708,0,0
378,316,0,0,0,0,0,0,0,0,0,-1,1602,708,0,0
385,316,0,0,0,0,0,0,0,0,0,-1,1609,708,0,0
392,316,0,0,0,0,0,0,0,0,0,-1,1616,708,0,0
399,316,0,0,0,0,0,0,0,0,0,-1,1623,708,0,0
406,316,0,0,0,0,0,0,0,0,0,-1,1630,708,0,0
413,316,0,0,0,0,0,0,0,0,0,-1,1637,708,0,0
420,316,0,0,0,0,0,0,0,0,0,-1,1644,708,0,0
427,316,0,0,0,0,0,0,0,0,0,-1,1651,708,0,0
434,316,0,0,0,0,0,0,0,0,0,-1,1658,708,0,0
441,316,0,0,0,0,0,0,0,0,0,-1,1665,708,0,0
448,316,0,0,0,0,0,0,0,0,0,-1,1672,708,0,0
455,316,0,0,0,0,0,0,0,0,0,-1,1679,708,0,0
462,316,0,0,0,0,0,0,0,0,0,-1,1686,708,0,0
469,316,0,0,0,0,0,0,0,0,0,-1,1693,708,0,0
476,316,0,0,0,0,0,0,0,0,0,-1,1700,708,0,0
483,316,0,0,0,0,0,0,0,0,0,-1,1707,708,0,0
490,316,0,0,0,0,0,0,0,0,0,-1,1714,708,0,0
497,316,0,0,0,0,0,0,0,0,0,-1,1721,708,0,0
504,316,0,0,0,0,0,0,0,0,0,-1,1728,708,0,0
511,316,0,0,0,0,0,0,0,0,0,-1,1735,708,0,0
518,316,0,0,0,0,0,0,0,0,0,-1,1742,708,0,0
525,316,0,0,0,0,0,0,0,0,0,-1,1749,708,0,0
532,316,33.8604,0.531128,0,0,0,0,0,0,0,-1,1756,708,33.8604,-0.531151
539,316,44.4543,2.73468,0,0,0,0,0,0,0,-1,1763,708,44.4543,-2.7347
546,316,44.713,3.35498,0,0,0,0,0,0,0,-1,1770,708,44.7131,-3.35501
553,316,39.9031,6.57275,0,0,0,0,0,0,0,-1,1777,708,39.9031,-6.57274
560,316,39.1196,1.10046,0,0,0,0,0,0,0,-1,1784,708,39.1197,-1.10048
567,316,47.3683,6.04919,0,0,0,0,0,0,0,-1,1791,708,47.3683,-6.04918
574,316,45.9872,6.7655,0,0,0,0,0,0,0,-1,1798,708,45.9871,-6.76552
581,316,24.6815,7.77496,0,0,0,0,0,0,0,-1,1805,708,24.6815,-7.77499
588,316,19.7659,2.90198,0,0,0,0,0,0,0,-1,1812,708,19.7659,-2.902
595,316,12.5363,1.50702,0,0,0,0,0,0,0,-1,1819,708,12.5363,-1.50701
602,316,7.79919,0.0422363,0,0,0,0,0,0,0,-1,1826,708,7.79923,-0.0422066
609,316,48.1554,-13.2089,0,0,0,0,0,0,0,-1,1833,708,48.1554,13.2088
616,316,48.2842,-12.1519,0.00335205,-0.000689559,0.0015453,0.00387517,-0.00121269,0.32642,0.00306862,0.017043,1840,708,48.2842,12.1519
623,316,48.2212,-11.1078,0.00250111,-0.000542832,0.001159,0.00289217,-0.000933891,0.325415,0.00230341,0.0124841,1847,708,48.2211,11.1078
630,316,48.1456,-10.092,0.00213637,-0.000324396,0.000934065,0.00245076,-0.000638784,0.324671,0.00188323,0.012771,1854,708,48.1456,10.092
637,316,48.0579,-8.99554,0.00193109,3.28526e-05,0.000829373,0.0022424,-0.00027846,0.359085,0.00159587,0.0121445,1861,708,48.0578,8.99557
644,316,47.9877,-7.95599,0.00188313,0.000501605,0.000827119,0.00227,0.000114741,0.437495,0.00147657,0.0135156,1868,708,47.9876,7.95597
651,316,47.9144,-6.92224,0.00198359,0.00106471,0.000891968,0.00252749,0.000520806,0.547575,0.00154101,0.01955,1875,708,47.9145,6.92225
658,316,47.8042,-5.82678,0.00226325,0.00175494,0.00107358,0.00311235,0.000905847,0.66917,0.00184848,0.0423861,1882,708,47.8042,5.82678
665,316,47.6576,-4.79175,0.00274557,0.00257909,0.00138576,0.00405059,0.00127408,0.755401,0.00239163,0.0295915,1889,708,47.6576,4.79175
672,316,47.6879,-3.81805,0.0034969,0.00359304,0.0018468,0.0053924,0.00169754,0.79841,0.00318369,0.014119,1896,708,47.6879,3.81808
679,316,47.7275,-2.74811,0,0,0,0,0,0,0,-1,1903,708,47.7276,2.74809
686,316,34.0828,0.223206,0,0,0,0,0,0,0,-1,1910,708,34.0828,-0.223183
693,316,26.4315,1.80652,0,0,0,0,0,0,0,-1,1917,708,26.4315,-1.80651
700,316,12.8749,2.89136,0,0,0,0,0,0,0,-1,1924,708,12.8748,-2.89137
707,316,15.7089,5.41486,0,0,0,0,0,0,0,-1,1931,708,15.7088,-5.41487
714,316,16.1727,5.52045,0,0,0,0,0,0,0,-1,1938,708,16.1728,-5.52042
721,316,16.7094,6.53351,0,0,0,0,0,0,0,-1,1945,708,16.7094,-6.5335
728,316,0,0,0,0,0,0,0,0,0,-1,1952,708,0,0
735,316,0,0,0,0,0,0,0,0,0,-1,1959,708,0,0
742,316,0,0,0,0,0,0,0,0,0,-1,1966,708,0,0
749,316,0,0,0,0,0,0,0,0,0,-1,1973,708,0,0
756,316,0,0,0,0,0,0,0,0,0,-1,1980,708,0,0
763,316,0,0,0,0,0,0,0,0,0,-1,1987,708,0,0
770,316,0,0,0,0,0,0,0,0,0,-1,1994,708,0,0
777,316,0,0,0,0,0,0,0,0,0,-1,2001,708,0,0
784,316,0,0,0,0,0,0,0,0,0,-1,2008,708,0,0
791,316,0,0,0,0,0,0,0,0,0,-1,2015,708,0,0
798,316,0,0,0,0,0,0,0,0,0,-1,2022,708,0,0
805,316,0,0,0,0,0,0,0,0,0,-1,2029,708,0,0
812,316,0,0,0,0,0,0,0,0,0,-1,2036,708,0,0
-700,309,0,0,0,0,0,0,0,0,0,-1,524,715,0,0
-693,309,0,0,0,0,0,0,0,0,0,-1,531,715,0,0
-686,309,0,0,0,0,0,0,0,0,0,-1,538,715,0,0
-679,309,0,0,0,0,0,0,0,0,0,-1,545,715,0,0
-672,309,0,0,0,0,0,0,0,0,0,-1,552,715,0,0
-665,309,0,0,0,0,0,0,0,0,0,-1,559,715,0,0
-658,309,0,0,0,0,0,0,0,0,0,-1,566,715,0,0
-651,309,0,0,0,0,0,0,0,0,0,-1,573,715,0,0
-644,309,0,0,0,0,0,0,0,0,0,-1,580,715,0,0
-637,309,0,0,0,0,0,0,0,0,0,-1,587,715,0,0
-630,309,0,0,0,0,0,0,0,0,0,-1,594,715,0,0
-623,309,0,0,0,0,0,0,0,0,0,-1,601,715,0,0
-616,309,0,0,0,0,0,0,0,0,0,-1,608,715,0,0
-609,309,-5.95392,-3.93689,0,0,0,0,0,0,0,-1,615,715,-5.95392,3.93686
-602,309,-4.99786,-3.31287,0,0,0,0,0,0,0,-1,622,715,-4.99786,3.31284
-595,309,-6.80847,2.4046,0,0,0,0,0,0,0,-1,629,715,-6.80845,-2.40458
-588,309,-6.08795,2.19324,0,0,0,0,0,0,0,-1,636,715,-6.08793,-2.19325
-581,309,-5.97552,1.3277,0,0,0,0,0,0,0,-1,643,715,-5.97552,-1.32769
-574,309,-8.73602,0.208435,0,0,0,0,0,0,0,-1,650,715,-8.73604,-0.208437
-567,309,-10.3909,0.85968,0,0,0,0,0,0,0,-1,657,715,-10.3909,-0.859696
-560,309,-18.6088,-1.73389,0,0,0,0,0,0,0,-1,664,715,-18.6088,1.73389
-553,309,-32.0089,-2.24896,0,0,0,0,0,0,0,-1,671,715,-32.0089,2.24895
-546,309,-31.8722,-3.35748,0.00287523,0.00464697,-0.00255856,0.00646868,0.00105352,-0.952058,0.00400771,0.044433,678,715,-31.8722,3.35751
-539,309,-31.7856,-4.46252,0.00251848,0.00320893,-0.00199342,0.00488679,0.000840614,-0.871139,0.00301695,0.0144022,685,715,-31.7857,4.46254
-532,309,-31.8373,-5.513,0.00211459,0.00195953,-0.00139303,0.00343225,0.000641875,-0.757599,0.00210706,0.0116073,692,715,-31.8373,5.513
-525,309,-31.9331,-6.58264,0.00168668,0.000798624,-0.00078046,0.00214058,0.000344722,-0.526768,0.00132715,0.0160778,699,715,-31.9331,6.58264
-518,309,-32.0052,-7.6134,0.0013238,-0.000106666,-0.000153378,0.00134006,-0.000122927,-0.105623,0.000937038,0.0172439,706,715,-32.0052,7.61341
-511,309,-32.1119,-8.64923,0.00103027,-0.0010024,0.000456457,0.00112806,-0.0011002,0.211062,0.00128652,0.0134525,713,715,-32.1119,8.64924
-504,309,-32.1706,-9.71973,0.000746557,-0.00196237,0.00108245,0.00112595,-0.00234176,0.337118,0.00204269,0.0110509,720,715,-32.1706,9.71974
-497,309,-32.2253,-10.7314,0.000612978,-0.00291265,0.00161427,0.00124043,-0.0035401,0.370721,0.00286452,0.0160919,727,715,-32.2253,10.7314
-490,309,-32.2939,-11.7577,0,0,0,0,0,0,0,-1,734,715,-32.2939,11.7577
-483,309,-17.7261,-7.75836,0,0,0,0,0,0,0,-1,741,715,-17.7261,7.75839
-476,309,-5.29486,-1.2262,0,0,0,0,0,0,0,-1,748,715,-5.29484,1.22622
-469,309,-4.22717,-0.592896,0,0,0,0,0,0,0,-1,755,715,-4.2272,0.592905
-462,309,-10.428,2.46948,0,0,0,0,0,0,0,-1,762,715,-10.428,-2.46947
-455,309,-15.8216,0.00915527,0,0,0,0,0,0,0,-1,769,715,-15.8216,-0.00913359
-448,309,-37.3543,-1.02441,0,0,0,0,0,0,0,-1,776,715,-37.3543,1.02444
-441,309,-19.8181,1.4425,0,0,0,0,0,0,0,-1,783,715,-19.8181,-1.44249
-434,309,-46.7953,1.72064,0,0,0,0,0,0,0,-1,790,715,-46.7953,-1.72067
-427,309,-27.8553,1.40332,0,0,0,0,0,0,0,-1,797,715,-27.8553,-1.40334
-420,309,-27.3148,1.90747,0,0,0,0,0,0,0,-1,804,715,-27.3148,-1.90745
-413,309,0,0,0,0,0,0,0,0,0,-1,811,715,0,0
-406,309,0,0,0,0,0,0,0,0,0,-1,818,715,0,0
-399,309,0,0,0,0,0,0,0,0,0,-1,825,715,0,0
-392,309,0,0,0,0,0,0,0,0,0,-1,832,715,0,0
-385,309,0,0,0,0,0,0,0,0,0,-1,839,715,0,0
-378,309,0,0,0,0,0,0,0,0,0,-1,846,715,0,0
-371,309,0,0,0,0,0,0,0,0,0,-1,853,715,0,0
-364,309,0,0,0,0,0,0,0,0,0,-1,860,715,0,0
-357,309,0,0,0,0,0,0,0,0,0,-1,867,715,0,0
-350,309,0,0,0,0,0,0,0,0,0,-1,874,715,0,0
-343,309,0,0,0,0,0,0,0,0,0,-1,881,715,0,0
-336,309,0,0,0,0,0,0,0,0,0,-1,888,715,0,0
-329,309,0,0,0,0,0,0,0,0,0,-1,895,715,0,0
-322,309,0,0,0,0,0,0,0,0,0,-1,902,715,0,0
-315,309,0,0,0,0,0,0,0,0,0,-1,909,715,0,0
-308,309,0,0,0,0,0,0,0,0,0,-1,916,715,0,0
-301,309,0,0,0,0,0,0,0,0,0,-1,923,715,0,0
-294,309,0,0,0,0,0,0,0,0,0,-1,930,715,0,0
-287,309,0,0,0,0,0,0,0,0,0,-1,937,715,0,0
-280,309,0,0,0,0,0,0,0,0,0,-1,944,715,0,0
-273,309,0,0,0,0,0,0,0,0,0,-1,951,715,0,0
-266,309,0,0,0,0,0,0,0,0,0,-1,958,715,0,0
-259,309,0,0,0,0,0,0,0,0,0,-1,965,715,0,0
-252,309,0,0,0,0,0,0,0,0,0,-1,972,715,0,0
-245,309,0,0,0,0,0,0,0,0,0,-1,979,715,0,0
-238,309,0,0,0,0,0,0,0,0,0,-1,986,715,0,0
-231,309,0,0,0,0,0,0,0,0,0,-1,993,715,0,0
-224,309,0,0,0,0,0,0,0,0,0,-1,1000,715,0,0
-217,309,0,0,0,0,0,0,0,0,0,-1,1007,715,0,0
-210,309,0,0,0,0,0,0,0,0,0,-1,1014,715,0,0
-203,309,0,0,0,0,0,0,0,0,0,-1,1021,715,0,0
-196,309,0,0,0,0,0,0,0,0,0,-1,1028,715,0,0
-189,309,0,0,0,0,0,0,0,0,0,-1,1035,715,0,0
-182,309,0,0,0,0,0,0,0,0,0,-1,1042,715,0,0
-175,309,0,0,0,0,0,0,0,0,0,-1,1049,715,0,0
-168,309,0,0,0,0,0,0,0,0,0,-1,1056,715,0,0
-161,309,0,0,0,0,0,0,0,0,0,-1,1063,715,0,0
-154,309,0,0,0,0,0,0,0,0,0,-1,1070,715,0,0
-147,309,0,0,0,0,0,0,0,0,0,-1,1077,715,0,0
-140,309,0,0,0,0,0,0,0,0,0,-1,1084,715,0,0
-133,309,0,0,0,0,0,0,0,0,0,-1,1091,715,0,0
-126,309,0,0,0,0,0,0,0,0,0,-1,1098,715,0,0
-119,309,0,0,0,0,0,0,0,0,0,-1,1105,715,0,0
-112,309,0,0,0,0,0,0,0,0,0,-1,1112,715,0,0
-105,309,0,0,0,0,0,0,0,0,0,-1,1119,715,0,0
-98,309,0,0,0,0,0,0,0,0,0,-1,1126,715,0,0
-91,309,0,0,0,0,0,0,0,0,0,-1,1133,715,0,0
-84,309,0,0,0,0,0,0,0,0,0,-1,1140,715,0,0
-77,309,0,0,0,0,0,0,0,0,0,-1,1147,715,0,0
-70,309,0,0,0,0,0,0,0,0,0,-1,1154,715,0,0
-63,309,0,0,0,0,0,0,0,0,0,-1,1161,715,0,0
-56,309,0,0,0,0,0,0,0,0,0,-1,1168,715,0,0
-49,309,0,0,0,0,0,0,0,0,0,-1,1175,715,0,0
-42,309,0,0,0,0,0,0,0,0,0,-1,1182,715,0,0
-35,309,0,0,0,0,0,0,0,0,0,-1,1189,715,0,0
-28,309,0,0,0,0,0,0,0,0,0,-1,1196,715,0,0
-21,309,0,0,0,0,0,0,0,0,0,-1,1203,715,0,0
-14,309,0,0,0,0,0,0,0,0,0,-1,1210,715,0,0
-7,309,0,0,0,0,0,0,0,0,0,-1,1217,715,0,0
0,309,0,0,0,0,0,0,0,0,0,-1,1224,715,0,0
7,309,0,0,0,0,0,0,0,0,0,-1,1231,715,0,0
14,309,0,0,0,0,0,0,0,0,0,-1,1238,715,0,0
21,309,0,0,0,0,0,0,0,0,0,-1,1245,715,0,0
28,309,0,0,0,0,0,0,0,0,0,-1,1252,715,0,0
35,309,0,0,0,0,0,0,0,0,0,-1,1259,715,0,0
42,309,0,0,0,0,0,0,0,0,0,-1,1266,715,0,0
49,309,0,0,0,0,0,0,0,0,0,-1,1273,715,0,0
56,309,0,0,0,0,0,0,0,0,0,-1,1280,715,0,0
63,309,0,0,0,0,0,0,0,0,0,-1,1287,715,0,0
70,309,0,0,0,0,0,0,0,0,0,-1,1294,715,0,0
77,309,0,0,0,0,0,0,0,0,0,-1,1301,715,0,0
84,309,0,0,0,0,0,0,0,0,0,-1,1308,715,0,0
91,309,0,0,0,0,0,0,0,0,0,-1,1315,715,0,0
98,309,0,0,0,0,0,0,0,0,0,-1,1322,715,0,0
105,309,0,0,0,0,0,0,0,0,0,-1,1329,715,0,0
112,309,0,0,0,0,0,0,0,0,0,-1,1336,715,0,0
119,309,0,0,0,0,0,0,0,0,0,-1,1343,715,0,0
126,309,0,0,0,0,0,0,0,0,0,-1,1350,715,0,0
133,309,0,0,0,0,0,0,0,0,0,-1,1357,715,0,0
140,309,0,0,0,0,0,0,0,0,0,-1,1364,715,0,0
147,309,0,0,0,0,0,0,0,0,0,-1,1371,715,0,0
154,309,0,0,0,0,0,0,0,0,0,-1,1378,715,0,0
161,309,0,0,0,0,0,0,0,0,0,-1,1385,715,0,0
168,309,0,0,0,0,0,0,0,0,0,-1,1392,715,0,0
175,309,0,0,0,0,0,0,0,0,0,-1,1399,715,0,0
182,309,0,0,0,0,0,0,0,0,0,-1,1406,715,0,0
189,309,0,0,0,0,0,0,0,0,0,-1,1413,715,0,0
196,309,0,0,0,0,0,0,0,0,0,-1,1420,715,0,0
203,309,0,0,0,0,0,0,0,0,0,-1,1427,715,0,0
210,309,0,0,0,0,0,0,0,0,0,-1,1434,715,0,0
217,309,0,0,0,0,0,0,0,0,0,-1,1441,715,0,0
224,309,0,0,0,0,0,0,0,0,0,-1,1448,715,0,0
231,309,0,0,0,0,0,0,0,0,0,-1,1455,715,0,0
238,309,0,0,0,0,0,0,0,0,0,-1,1462,715,0,0
245,309,0,0,0,0,0,0,0,0,0,-1,1469,715,0,0
252,309,0,0,0,0,0,0,0,0,0,-1,1476,715,0,0
259,309,0,0,0,0,0,0,0,0,0,-1,1483,715,0,0
266,309,0,0,0,0,0,0,0,0,0,-1,1490,715,0,0
273,309,0,0,0,0,0,0,0,0,0,-1,1497,715,0,0
280,309,0,0,0,0,0,0,0,0,0,-1,1504,715,0,0
287,309,0,0,0,0,0,0,0,0,0,-1,1511,715,0,0
294,309,0,0,0,0,0,0,0,0,0,-1,1518,715,0,0
301,309,0,0,0,0,0,0,0,0,0,-1,1525,715,0,0
308,309,0,0,0,0,0,0,0,0,0,-1,1532,715,0,0
315,309,0,0,0,0,0,0,0,0,0,-1,1539,715,0,0
322,309,0,0,0,0,0,0,0,0,0,-1,1546,715,0,0
329,309,0,0,0,0,0,0,0,0,0,-1,1553,715,0,0
336,309,0,0,0,0,0,0,0,0,0,-1,1560,715,0,0
343,309,0,0,0,0,0,0,0,0,0,-1,1567,715,0,0
350,309,0,0,0,0,0,0,0,0,0,-1,1574,715,0,0
357,309,0,0,0,0,0,0,0,0,0,-1,1581,715,0,0
364,309,0,0,0,0,0,0,0,0,0,-1,1588,715,0,0
371,309,0,0,0,0,0,0,0,0,0,-1,1595,715,0,0
378,309,0,0,0,0,0,0,0,0,0,-1,1602,715,0,0
385,309,0,0,0,0,0,0,0,0,0,-1,1609,715,0,0
392,309,0,0,0,0,0,0,0,0,0,-1,1616,715,0,0
399,309,0,0,0,0,0,0,0,0,0,-1,1623,715,0,0
406,309,0,0,0,0,0,0,0,0,0,-1,1630,715,0,0
413,309,0,0,0,0,0,0,0,0,0,-1,1637,715,0,0
420,309,0,0,0,0,0,0,0,0,0,-1,1644,715,0,0
427,309,0,0,0,0,0,0,0,0,0,-1,1651,715,0,0
434,309,0,0,0,0,0,0,0,0,0,-1,1658,715,0,0
441,309,0,0,0,0,0,0,0,0,0,-1,1665,715,0,0
448,309,0,0,0,0,0,0,0,0,0,-1,1672,715,0,0
455,309,0,0,0,0,0,0,0,0,0,-1,1679,715,0,0
462,309,0,0,0,0,0,0,0,0,0,-1,1686,715,0,0
469,309,0,0,0,0,0,0,0,0,0,-1,1693,715,0,0
476,309,0,0,0,0,0,0,0,0,0,-1,1700,715,0,0
483,309,0,0,0,0,0,0,0,0,0,-1,1707,715,0,0
490,309,0,0,0,0,0,0,0,0,0,-1,1714,715,0,0
497,309,0,0,0,0,0,0,0,0,0,-1,1721,715,0,0
504,309,0,0,0,0,0,0,0,0,0,-1,1728,715,0,0
511,309,0,0,0,0,0,0,0,0,0,-1,1735,715,0,0
518,309,0,0,0,0,0,0,0,0,0,-1,1742,715,0,0
525,309,0,0,0,0,0,0,0,0,0,-1,1749,715,0,0
532,309,0,0,0,0,0,0,0,0,0,-1,1756,715,0,0
539,309,44.2073,2.66235,0,0,0,0,0,0,0,-1,1763,715,44.2073,-2.66238
546,309,44.4976,3.25531,0,0,0,0,0,0,0,-1,1770,715,44.4976,-3.25533
553,309,47.9611,4.06433,0,0,0,0,0,0,0,-1,1777,715,47.9611,-4.06434
560,309,47.9784,4.64801,0,0,0,0,0,0,0,-1,1784,715,47.9784,-4.64799
567,309,47.0073,5.43121,0,0,0,0,0,0,0,-1,1791,715,47.0073,-5.43121
574,309,45.8746,6.53271,0,0,0,0,0,0,0,-1,1798,715,45.8747,-6.53269
581,309,45.0629,7.73468,0,0,0,0,0,0,0,-1,1805,715,45.0629,-7.73471
588,309,26.2064,7.76422,0,0,0,0,0,0,0,-1,1812,715,26.2064,-7.7642
595,309,19.585,3.71558,0,0,0,0,0,0,0,-1,1819,715,19.5849,-3.71555
602,309,11.0811,3.47772,0,0,0,0,0,0,0,-1,1826,715,11.0811,-3.47772
609,309,49.3666,-13.1494,0,0,0,0,0,0,0,-1,1833,715,49.3666,13.1494
616,309,49.312,-12.0824,0.00363475,-0.000611194,0.00160104,0.00417079,-0.00114723,0.323076,0.00323155,0.0398997,1840,715,49.312,12.0824
623,309,49.2595,-11.0264,0.00254165,-0.000497308,0.00115444,0.00293045,-0.000886113,0.324859,0.00230646,0.0126681,1847,715,49.2595,11.0264
630,309,49.163,-10.0099,0.0020783,-0.000353534,0.000873387,0.00235946,-0.000634701,0.31145,0.00182178,0.0115696,1854,715,49.163,10.0099
637,309,49.0625,-8.94708,0.00179902,-5.88601e-05,0.000738274,0.00205666,-0.000316503,0.335766,0.00148787,0.0144503,1861,715,49.0625,8.94706
644,309,48.9615,-7.88715,0.00170468,0.000358175,0.000722934,0.0020193,4.3549e-05,0.410484,0.00133192,0.0157742,1868,715,48.9615,7.88714
651,309,48.9054,-6.84637,0.00178035,0.000867324,0.000791851,0.00223786,0.000409817,0.523912,0.0013758,0.0158035,1875,715,48.9054,6.8464
658,309,48.8499,-5.80048,0.00204719,0.00149804,0.000991,0.00280095,0.000744279,0.650254,0.00167526,0.0238716,1882,715,48.8499,5.80047
665,309,48.8076,-4.75085,0.00247549,0.00226144,0.00131984,0.00369264,0.00104429,0.744942,0.00219798,0.0189468,1889,715,48.8077,4.75083
672,309,48.7339,-3.7334,0.00316355,0.00319947,0.00181604,0.00499764,0.00136538,0.790343,0.00298269,0.0159193,1896,715,48.7339,3.7334
679,309,48.6901,-2.58185,0.00401392,0.00430976,0.00248423,0.00665047,0.00167321,0.815135,0.00399448,0.0336022,1903,715,48.6901,2.58184
686,309,48.6779,-1.31604,0,0,0,0,0,0,0,-1,1910,715,48.6779,1.31602
693,309,32.7026,1.51727,0,0,0,0,0,0,0,-1,1917,715,32.7026,-1.51727
700,309,23.0179,3.08337,0,0,0,0,0,0,0,-1,1924,715,23.018,-3.08336
707,309,15.6318,4.58655,0,0,0,0,0,0,0,-1,1931,715,15.6318,-4.58657
714,309,16.7573,6.68286,0,0,0,0,0,0,0,-1,1938,715,16.7574,-6.68284
721,309,16.8337,5.4458,0,0,0,0,0,0,0,-1,1945,715,16.8338,-5.44582
728,309,0,0,0,0,0,0,0,0,0,-1,1952,715,0,0
735,309,0,0,0,0,0,0,0,0,0,-1,1959,715,0,0
742,309,0,0,0,0,0,0,0,0,0,-1,1966,715,0,0
749,309,0,0,0,0,0,0,0,0,0,-1,1973,715,0,0
756,309,0,0,0,0,0,0,0,0,0,-1,1980,715,0,0
763,309,0,0,0,0,0,0,0,0,0,-1,1987,715,0,0
770,309,0,0,0,0,0,0,0,0,0,-1,1994,715,0,0
777,309,0,0,0,0,0,0,0,0,0,-1,2001,715,0,0
784,309,0,0,0,0,0,0,0,0,0,-1,2008,715,0,0
791,309,0,0,0,0,0,0,0,0,0,-1,2015,715,0,0
798,309,0,0,0,0,0,0,0,0,0,-1,2022,715,0,0
805,309,0,0,0,0,0,0,0,0,0,-1,2029,715,0,0
812,309,0,0,0,0,0,0,0,0,0,-1,2036,715,0,0
-700,302,0,0,0,0,0,0,0,0,0,-1,524,722,0,0
-693,302,0,0,0,0,0,0,0,0,0,-1,531,722,0,0
-686,302,0,0,0,0,0,0,0,0,0,-1,538,722,0,0
-679,302,0,0,0,0,0,0,0,0,0,-1,545,722,0,0
-672,302,0,0,0,0,0,0,0,0,0,-1,552,722,0,0
-665,302,0,0,0,0,0,0,0,0,0,-1,559,722,0,0
-658,302,0,0,0,0,0,0,0,0,0,-1,566,722,0,0
-651,302,0,0,0,0,0,0,0,0,0,-1,573,722,0,0
-644,302,0,0,0,0,0,0,0,0,0,-1,580,722,0,0
-637,302,0,0,0,0,0,0,0,0,0,-1,587,722,0,0
-630,302,0,0,0,0,0,0,0,0,0,-1,594,722,0,0
-623,302,0,0,0,0,0,0,0,0,0,-1,601,722,0,0
-616,302,0,0,0,0,0,0,0,0,0,-1,608,722,0,0
-609,302,-7.79266,-3.71649,0,0,0,0,0,0,0,-1,615,722,-7.79267,3.7165
-602,302,0.92865,-1.99158,0,0,0,0,0,0,0,-1,622,722,0.928637,1.99157
-595,302,-7.89941,2.13641,0,0,0,0,0,0,0,-1,629,722,-7.89939,-2.13639
-588,302,-7.10895,1.79163,0,0,0,0,0,0,0,-1,636,722,-7.10896,-1.79163
-581,302,-9.17566,1.09448,0,0,0,0,0,0,0,-1,643,722,-9.17569,-1.09445
-574,302,-11.5183,-0.344543,0,0,0,0,0,0,0,-1,650,722,-11.5183,0.344557
-567,302,-12.1534,-0.672241,0,0,0,0,0,0,0,-1,657,722,-12.1535,0.672246
-560,302,-32.8418,-1.12726,0,0,0,0,0,0,0,-1,664,722,-32.8418,1.12728
-553,302,-32.7879,-2.19623,0.0025584,0.00511171,-0.0017646,0.00601305,0.00165706,-1.09855,0.00358631,0.0490937,671,722,-32.7879,2.19623
-546,302,-32.7945,-3.3075,0.00229637,0.00380367,-0.00162833,0.00484431,0.00125574,-1.00214,0.00290295,0.0208158,678,722,-32.7945,3.30749
-539,302,-32.854,-4.34406,0.00194097,0.00246954,-0.00124605,0.00347902,0.000931494,-0.889899,0.00207959,0.0156685,685,722,-32.854,4.34405
-532,302,-32.9042,-5.40497,0.00152184,0.00132216,-0.000802482,0.00223067,0.000613331,-0.723511,0.00133065,0.0147435,692,722,-32.9042,5.405
-525,302,-32.9505,-6.52344,0.00105019,0.000253786,-0.000333345,0.0011713,0.000132677,-0.348487,0.000740611,0.0202807,699,722,-32.9505,6.52342
-518,302,-33.0484,-7.54706,0.000642717,-0.000576996,0.000187606,0.000670921,-0.0006052,0.149218,0.000737095,0.0231426,706,722,-33.0484,7.54703
-511,302,-33.1534,-8.57227,0.000293869,-0.00160298,0.000734119,0.000544794,-0.00185391,0.329355,0.00145201,0.0119447,713,722,-33.1534,8.57224
-504,302,-33.2181,-9.64282,6.0903e-06,-0.00289492,0.001282,0.000491431,-0.00338026,0.361906,0.00243391,0.0104006,720,722,-33.2182,9.64281
-497,302,-33.3069,-10.6674,-0.000103174,-0.00433175,0.00175092,0.000527703,-0.00496263,0.345832,0.00349762,0.0179454,727,722,-33.3069,10.6674
-490,302,-33.4139,-11.6876,0,0,0,0,0,0,0,-1,734,722,-33.4139,11.6876
-483,302,-9.53412,-3.1673,0,0,0,0,0,0,0,-1,741,722,-9.53411,3.1673
-476,302,-4.29749,-0.203491,0,0,0,0,0,0,0,-1,748,722,-4.29751,0.203464
-469,302,-12.369,1.42859,0,0,0,0,0,0,0,-1,755,722,-12.3689,-1.42857
-462,302,-17.4766,0.310791,0,0,0,0,0,0,0,-1,762,722,-17.4766,-0.310788
-455,302,-36.7368,-2.97418,0,0,0,0,0,0,0,-1,769,722,-36.7368,2.97416
-448,302,-42.1174,-1.44232,0,0,0,0,0,0,0,-1,776,722,-42.1174,1.44229
-441,302,-46.7637,0.580078,0,0,0,0,0,0,0,-1,783,722,-46.7636,-0.58007
-434,302,-46.574,1.30511,0,0,0,0,0,0,0,-1,790,722,-46.574,-1.30509
-427,302,-46.7514,1.51532,0,0,0,0,0,0,0,-1,797,722,-46.7514,-1.51532
-420,302,0,0,0,0,0,0,0,0,0,-1,804,722,0,0
-413,302,0,0,0,0,0,0,0,0,0,-1,811,722,0,0
-406,302,0,0,0,0,0,0,0,0,0,-1,818,722,0,0
-399,302,0,0,0,0,0,0,0,0,0,-1,825,722,0,0
-392,302,0,0,0,0,0,0,0,0,0,-1,832,722,0,0
-385,302,0,0,0,0,0,0,0,0,0,-1,839,722,0,0
-378,302,0,0,0,0,0,0,0,0,0,-1,846,722,0,0
-371,302,0,0,0,0,0,0,0,0,0,-1,853,722,0,0
-364,302,0,0,0,0,0,0,0,0,0,-1,860,722,0,0
-357,302,0,0,0,0,0,0,0,0,0,-1,867,722,0,0
-350,302,0,0,0,0,0,0,0,0,0,-1,874,722,0,0
-343,302,0,0,0,0,0,0,0,0,0,-1,881,722,0,0
-336,302,0,0,0,0,0,0,0,0,0,-1,888,722,0,0
-329,302,0,0,0,0,0,0,0,0,0,-1,895,722,0,0
-322,302,0,0,0,0,0,0,0,0,0,-1,902,722,0,0
-315,302,0,0,0,0,0,0,0,0,0,-1,909,722,0,0
-308,302,0,0,0,0,0,0,0,0,0,-1,916,722,0,0
-301,302,0,0,0,0,0,0,0,0,0,-1,923,722,0,0
-294,302,0,0,0,0,0,0,0,0,0,-1,930,722,0,0
-287,302,0,0,0,0,0,0,0,0,0,-1,937,722,0,0
-280,302,0,0,0,0,0,0,0,0,0,-1,944,722,0,0
-273,302,0,0,0,0,0,0,0,0,0,-1,951,722,0,0
-266,302,0,0,0,0,0,0,0,0,0,-1,958,722,0,0
-259,302,0,0,0,0,0,0,0,0,0,-1,965,722,0,0
-252,302,0,0,0,0,0,0,0,0,0,-1,972,722,0,0
-245,302,0,0,0,0,0,0,0,0,0,-1,979,722,0,0
-238,302,0,0,0,0,0,0,0,0,0,-1,986,722,0,0
-231,302,0,0,0,0,0,0,0,0,0,-1,993,722,0,0
-224,302,0,0,0,0,0,0,0,0,0,-1,1000,722,0,0
-217,302,0,0,0,0,0,0,0,0,0,-1,1007,722,0,0
-210,302,0,0,0,0,0,0,0,0,0,-1,1014,722,0,0
-203,302,0,0,0,0,0,0,0,0,0,-1,1021,722,0,0
-196,302,0,0,0,0,0,0,0,0,0,-1,1028,722,0,0
-189,302,0,0,0,0,0,0,0,0,0,-1,1035,722,0,0
-182,302,0,0,0,0,0,0,0,0,0,-1,1042,722,0,0
-175,302,0,0,0,0,0,0,0,0,0,-1,1049,722,0,0
-168,302,0,0,0,0,0,0,0,0,0,-1,1056,722,0,0
-161,302,0,0,0,0,0,0,0,0,0,-1,1063,722,0,0
-154,302,0,0,0,0,0,0,0,0,0,-1,1070,722,0,0
-147,302,0,0,0,0,0,0,0,0,0,-1,1077,722,0,0
-140,302,0,0,0,0,0,0,0,0,0,-1,1084,722,0,0
-133,302,0,0,0,0,0,0,0,0,0,-1,1091,722,0,0
-126,302,0,0,0,0,0,0,0,0,0,-1,1098,722,0,0
-119,302,0,0,0,0,0,0,0,0,0,-1,1105,722,0,0
-112,302,0,0,0,0,0,0,0,0,0,-1,1112,722,0,0
-105,302,0,0,0,0,0,0,0,0,0,-1,1119,722,0,0
-98,302,0,0,0,0,0,0,0,0,0,-1,1126,722,0,0
-91,302,0,0,0,0,0,0,0,0,0,-1,1133,722,0,0
-84,302,0,0,0,0,0,0,0,0,0,-1,1140,722,0,0
-77,302,0,0,0,0,0,0,0,0,0,-1,1147,722,0,0
-70,302,0,0,0,0,0,0,0,0,0,-1,1154,722,0,0
-63,302,0,0,0,0,0,0,0,0,0,-1,1161,722,0,0
-56,302,0,0,0,0,0,0,0,0,0,-1,1168,722,0,0
-49,302,0,0,0,0,0,0,0,0,0,-1,1175,722,0,0
-42,302,0,0,0,0,0,0,0,0,0,-1,1182,722,0,0
-35,302,0,0,0,0,0,0,0,0,0,-1,1189,722,0,0
-28,302,0,0,0,0,0,0,0,0,0,-1,1196,722,0,0
-21,302,0,0,0,0,0,0,0,0,0,-1,1203,722,0,0
-14,302,0,0,0,0,0,0,0,0,0,-1,1210,722,0,0
-7,302,0,0,0,0,0,0,0,0,0,-1,1217,722,0,0
0,302,0,0,0,0,0,0,0,0,0,-1,1224,722,0,0
7,302,0,0,0,0,0,0,0,0,0,-1,1231,722,0,0
14,302,0,0,0,0,0,0,0,0,0,-1,1238,722,0,0
21,302,0,0,0,0,0,0,0,0,0,-1,1245,722,0,0
28,302,0,0,0,0,0,0,0,0,0,-1,1252,722,0,0
35,302,0,0,0,0,0,0,0,0,0,-1,1259,722,0,0
42,302,0,0,0,0,0,0,0,0,0,-1,1266,722,0,0
49,302,0,0,0,0,0,0,0,0,0,-1,1273,722,0,0
56,302,0,0,0,0,0,0,0,0,0,-1,1280,722,0,0
63,302,0,0,0,0,0,0,0,0,0,-1,1287,722,0,0
70,302,0,0,0,0,0,0,0,0,0,-1,1294,722,0,0
77,302,0,0,0,0,0,0,0,0,0,-1,1301,722,0,0
84,302,0,0,0,0,0,0,0,0,0,-1,1308,722,0,0
91,302,0,0,0,0,0,0,0,0,0,-1,1315,722,0,0
98,302,0,0,0,0,0,0,0,0,0,-1,1322,722,0,0
105,302,0,0,0,0,0,0,0,0,0,-1,1329,722,0,0
112,302,0,0,0,0,0,0,0,0,0,-1,1336,722,0,0
119,302,0,0,0,0,0,0,0,0,0,-1,1343,722,0,0
126,302,0,0,0,0,0,0,0,0,0,-1,1350,722,0,0
133,302,0,0,0,0,0,0,0,0,0,-1,1357,722,0,0
140,302,0,0,0,0,0,0,0,0,0,-1,1364,722,0,0
147,302,0,0,0,0,0,0,0,0,0,-1,1371,722,0,0
154,302,0,0,0,0,0,0,0,0,0,-1,1378,722,0,0
161,302,0,0,0,0,0,0,0,0,0,-1,1385,722,0,0
168,302,0,0,0,0,0,0,0,0,0,-1,1392,722,0,0
175,302,0,0,0,0,0,0,0,0,0,-1,1399,722,0,0
182,302,0,0,0,0,0,0,0,0,0,-1,1406,722,0,0
189,302,0,0,0,0,0,0,0,0,0,-1,1413,722,0,0
196,302,0,0,0,0,0,0,0,0,0,-1,1420,722,0,0
203,302,0,0,0,0,0,0,0,0,0,-1,1427,722,0,0
210,302,0,0,0,0,0,0,0,0,0,-1,1434,722,0,0
217,302,0,0,0,0,0,0,0,0,0,-1,1441,722,0,0
224,302,0,0,0,0,0,0,0,0,0,-1,1448,722,0,0
231,302,0,0,0,0,0,0,0,0,0,-1,1455,722,0,0
238,302,0,0,0,0,0,0,0,0,0,-1,1462,722,0,0
245,302,0,0,0,0,0,0,0,0,0,-1,1469,722,0,0
252,302,0,0,0,0,0,0,0,0,0,-1,1476,722,0,0
259,302,0,0,0,0,0,0,0,0,0,-1,1483,722,0,0
266,302,0,0,0,0,0,0,0,0,0,-1,1490,722,0,0
273,302,0,0,0,0,0,0,0,0,0,-1,1497,722,0,0
280,302,0,0,0,0,0,0,0,0,0,-1,1504,722,0,0
287,302,0,0,0,0,0,0,0,0,0,-1,1511,722,0,0
294,302,0,0,0,0,0,0,0,0,0,-1,1518,722,0,0
301,302,0,0,0,0,0,0,0,0,0,-1,1525,722,0,0
308,302,0,0,0,0,0,0,0,0,0,-1,1532,722,0,0
315,302,0,0,0,0,0,0,0,0,0,-1,1539,722,0,0
322,302,0,0,0,0,0,0,0,0,0,-1,1546,722,0,0
329,302,0,0,0,0,0,0,0,0,0,-1,1553,722,0,0
336,302,0,0,0,0,0,0,0,0,0,-1,1560,722,0,0
343,302,0,0,0,0,0,0,0,0,0,-1,1567,722,0,0
350,302,0,0,0,0,0,0,0,0,0,-1,1574,722,0,0
357,302,0,0,0,0,0,0,0,0,0,-1,1581,722,0,0
364,302,0,0,0,0,0,0,0,0,0,-1,1588,722,0,0
371,302,0,0,0,0,0,0,0,0,0,-1,1595,722,0,0
378,302,0,0,0,0,0,0,0,0,0,-1,1602,722,0,0
385,302,0,0,0,0,0,0,0,0,0,-1,1609,722,0,0
392,302,0,0,0,0,0,0,0,0,0,-1,1616,722,0,0
399,302,0,0,0,0,0,0,0,0,0,-1,1623,722,0,0
406,302,0,0,0,0,0,0,0,0,0,-1,1630,722,0,0
413,302,0,0,0,0,0,0,0,0,0,-1,1637,722,0,0
420,302,0,0,0,0,0,0,0,0,0,-1,1644,722,0,0
427,302,0,0,0,0,0,0,0,0,0,-1,1651,722,0,0
434,302,0,0,0,0,0,0,0,0,0,-1,1658,722,0,0
441,302,0,0,0,0,0,0,0,0,0,-1,1665,722,0,0
448,302,0,0,0,0,0,0,0,0,0,-1,1672,722,0,0
455,302,0,0,0,0,0,0,0,0,0,-1,1679,722,0,0
462,302,0,0,0,0,0,0,0,0,0,-1,1686,722,0,0
469,302,0,0,0,0,0,0,0,0,0,-1,1693,722,0,0
476,302,0,0,0,0,0,0,0,0,0,-1,1700,722,0,0
483,302,0,0,0,0,0,0,0,0,0,-1,1707,722,0,0
490,302,0,0,0,0,0,0,0,0,0,-1,1714,722,0,0
497,302,0,0,0,0,0,0,0,0,0,-1,1721,722,0,0
504,302,0,0,0,0,0,0,0,0,0,-1,1728,722,0,0
511,302,0,0,0,0,0,0,0,0,0,-1,1735,722,0,0
518,302,0,0,0,0,0,0,0,0,0,-1,1742,722,0,0
525,302,0,0,0,0,0,0,0,0,0,-1,1749,722,0,0
532,302,0,0,0,0,0,0,0,0,0,-1,1756,722,0,0
539,302,0,0,0,0,0,0,0,0,0,-1,1763,722,0,0
546,302,48.9873,1.50562,0,0,0,0,0,0,0,-1,1770,722,48.9873,-1.50562
553,302,56.7844,3.46533,0,0,0,0,0,0,0,-1,1777,722,56.7844,-3.4653
560,302,56.7115,3.84808,0,0,0,0,0,0,0,-1,1784,722,56.7116,-3.84806
567,302,55.9475,4.24542,0,0,0,0,0,0,0,-1,1791,722,55.9475,-4.24542
574,302,45.9537,6.00867,0,0,0,0,0,0,0,-1,1798,722,45.9537,-6.00864
581,302,45.137,7.38043,0,0,0,0,0,0,0,-1,1805,722,45.1369,-7.38044
588,302,26.9731,7.19983,0,0,0,0,0,0,0,-1,1812,722,26.9732,-7.19981
595,302,27.3826,8.13104,0,0,0,0,0,0,0,-1,1819,722,27.3825,-8.13102
602,302,14.7349,5.21246,0,0,0,0,0,0,0,-1,1826,722,14.7349,-5.21247
609,302,31.1039,-6.34253,0,0,0,0,0,0,0,-1,1833,722,31.1039,6.34254
616,302,50.3561,-12.0044,0,0,0,0,0,0,0,-1,1840,722,50.356,12.0044
623,302,50.2993,-10.9276,0.00259045,-0.000515842,0.00117717,0.00298615,-0.000911542,0.324278,0.00235419,0.0208471,1847,722,50.2994,10.9276
630,302,50.1738,-9.90588,0.00200058,-0.000423218,0.000821177,0.00225259,-0.000675229,0.297765,0.00177026,0.0121135,1854,722,50.1738,9.9059
637,302,50.0482,-8.87524,0.00161528,-0.000164808,0.000635157,0.00181867,-0.000368201,0.309906,0.001352,0.0157551,1861,722,50.0482,8.87522
644,302,50.0034,-7.83258,0.00144133,0.000215401,0.000575336,0.00166904,-1.23112e-05,0.376872,0.00111682,0.0169263,1868,722,50.0034,7.83256
651,302,49.9684,-6.77618,0.00146263,0.000695746,0.000629023,0.00181587,0.000342508,0.51168,0.0011141,0.0162948,1875,722,49.9684,6.77617
658,302,49.9241,-5.75635,0.00169261,0.00128321,0.000817929,0.00233107,0.000644759,0.662784,0.0013899,0.0177766,1882,722,49.924,5.75638
665,302,49.8505,-4.70984,0.00205567,0.0019913,0.00112823,0.00315218,0.000894794,0.771138,0.00187573,0.0163193,1889,722,49.8505,4.70981
672,302,49.7631,-3.6814,0.00263471,0.00283214,0.00158189,0.00431839,0.00114846,0.816559,0.00258267,0.0126391,1896,722,49.763,3.68142
679,302,49.6857,-2.61871,0.00339864,0.00383108,0.00219791,0.00582338,0.00140634,0.834428,0.00350871,0.0106039,1903,722,49.6856,2.61873
686,302,49.6388,-1.5177,0.00436904,0.00490893,0.00302247,0.00767348,0.00160449,0.829936,0.00467355,0.0284829,1910,722,49.6388,1.51771
693,302,49.5649,-0.417419,0,0,0,0,0,0,0,-1,1917,722,49.5649,0.417393
700,302,25.4069,1.97308,0,0,0,0,0,0,0,-1,1924,722,25.4068,-1.97311
707,302,16.7321,4.76685,0,0,0,0,0,0,0,-1,1931,722,16.7321,-4.76687
714,302,17.2,5.77594,0,0,0,0,0,0,0,-1,1938,722,17.2,-5.77595
721,302,17.7914,6.60394,0,0,0,0,0,0,0,-1,1945,722,17.7914,-6.60395
728,302,17.2798,4.81702,0,0,0,0,0,0,0,-1,1952,722,17.2798,-4.81703
735,302,0,0,0,0,0,0,0,0,0,-1,1959,722,0,0
742,302,0,0,0,0,0,0,0,0,0,-1,1966,722,0,0
749,302,0,0,0,0,0,0,0,0,0,-1,1973,722,0,0
756,302,0,0,0,0,0,0,0,0,0,-1,1980,722,0,0
763,302,0,0,0,0,0,0,0,0,0,-1,1987,722,0,0
770,302,0,0,0,0,0,0,0,0,0,-1,1994,722,0,0
777,302,0,0,0,0,0,0,0,0,0,-1,2001,722,0,0
784,302,0,0,0,0,0,0,0,0,0,-1,2008,722,0,0
791,302,0,0,0,0,0,0,0,0,0,-1,2015,722,0,0
798,302,0,0,0,0,0,0,0,0,0,-1,2022,722,0,0
805,302,0,0,0,0,0,0,0,0,0,-1,2029,722,0,0
812,302,0,0,0,0,0,0,0,0,0,-1,2036,722,0,0
-700,295,0,0,0,0,0,0,0,0,0,-1,524,729,0,0
-693,295,0,0,0,0,0,0,0,0,0,-1,531,729,0,0
-686,295,0,0,0,0,0,0,0,0,0,-1,538,729,0,0
-679,295,0,0,0,0,0,0,0,0,0,-1,545,729,0,0
-672,295,0,0,0,0,0,0,0,0,0,-1,552,729,0,0
-665,295,0,0,0,0,0,0,0,0,0,-1,559,729,0,0
-658,295,0,0,0,0,0,0,0,0,0,-1,566,729,0,0
-651,295,0,0,0,0,0,0,0,0,0,-1,573,729,0,0
-644,295,0,0,0,0,0,0,0,0,0,-1,580,729,0,0
-637,295,0,0,0,0,0,0,0,0,0,-1,587,729,0,0
-630,295,0,0,0,0,0,0,0,0,0,-1,594,729,0,0
-623,295,0,0,0,0,0,0,0,0,0,-1,601,729,0,0
-616,295,-13.4911,1.31738,0,0,0,0,0,0,0,-1,608,729,-13.4911,-1.3174
-609,295,-10.2864,0.832031,0,0,0,0,0,0,0,-1,615,729,-10.2863,-0.832034
-602,295,-8.19006,3.01587,0,0,0,0,0,0,0,-1,622,729,-8.19005,-3.01588
-595,295,-0.615479,-1.95447,0,0,0,0,0,0,0,-1,629,729,-0.615481,1.95445
-588,295,-7.98999,1.56903,0,0,0,0,0,0,0,-1,636,729,-7.98997,-1.56905
-581,295,-12.0404,0.150574,0,0,0,0,0,0,0,-1,643,729,-12.0404,-0.150604
-574,295,-12.1605,-0.0739746,0,0,0,0,0,0,0,-1,650,729,-12.1605,0.0739856
-567,295,-33.363,0.110168,0,0,0,0,0,0,0,-1,657,729,-33.363,-0.110148
-560,295,-33.6642,-1.14209,0.00192524,0.0063958,-0.000980948,0.00660157,0.00171947,-1.36403,0.00395453,0.0458844,664,729,-33.6642,1.14206
-553,295,-33.7045,-2.2395,0.001906,0.00429761,-0.0010114,0.00466797,0.00153564,-1.21977,0.00274711,0.0244439,671,729,-33.7045,2.23948
-546,295,-33.8594,-3.27332,0.00164186,0.00302165,-0.000932619,0.00349181,0.0011717,-1.10385,0.00205202,0.0222687,678,729,-33.8595,3.27334
-539,295,-33.9363,-4.28894,0.00128607,0.00179365,-0.000662098,0.00224893,0.000830785,-0.968419,0.0013131,0.0205516,685,729,-33.9363,4.28896
-532,295,-33.9977,-5.33716,0.000863236,0.000745386,-0.000320981,0.00113066,0.000477966,-0.694619,0.000655377,0.0172853,692,729,-33.9977,5.33717
-525,295,-34.046,-6.42834,0.000366948,-0.000228057,5.51663e-05,0.000372019,-0.000233129,0.0916744,0.000352436,0.0158219,699,729,-34.0459,6.42832
-518,295,-34.0944,-7.45667,-0.000115463,-0.000937376,0.000509795,0.00012839,-0.00118123,0.446167,0.000833585,0.0124473,706,729,-34.0944,7.45664
-511,295,-34.1816,-8.4809,-0.000638678,-0.00209173,0.000995677,-0.00013264,-0.00259777,0.470214,0.00168937,0.0106906,713,729,-34.1817,8.4809
-504,295,-34.2574,-9.52484,-0.00108896,-0.00360652,0.00149087,-0.000396531,-0.00429894,0.434803,0.00274336,0.0124205,720,729,-34.2574,9.52483
-497,295,-34.3568,-10.4935,-0.00146284,-0.00529095,0.00192453,-0.000662594,-0.00609119,0.394064,0.00385894,0.0288406,727,729,-34.3568,10.4935
-490,295,-34.4793,-11.4249,0,0,0,0,0,0,0,-1,734,729,-34.4793,11.4249
-483,295,-6.84503,-0.454651,0,0,0,0,0,0,0,-1,741,729,-6.84505,0.454639
-476,295,-13.1738,-0.836243,0,0,0,0,0,0,0,-1,748,729,-13.1738,0.836223
-469,295,-26.5608,-0.466187,0,0,0,0,0,0,0,-1,755,729,-26.5608,0.466162
-462,295,-29.7701,-0.792664,0,0,0,0,0,0,0,-1,762,729,-29.7701,0.792642
-455,295,-45.11,-2.79272,0,0,0,0,0,0,0,-1,769,729,-45.11,2.79272
-448,295,-48.0288,1.41229,0,0,0,0,0,0,0,-1,776,729,-48.0288,-1.41227
-441,295,-47.1089,1.03058,0,0,0,0,0,0,0,-1,783,729,-47.109,-1.0306
-434,295,-46.2319,1.10614,0,0,0,0,0,0,0,-1,790,729,-46.2319,-1.10612
-427,295,0,0,0,0,0,0,0,0,0,-1,797,729,0,0
-420,295,0,0,0,0,0,0,0,0,0,-1,804,729,0,0
-413,295,0,0,0,0,0,0,0,0,0,-1,811,729,0,0
-406,295,0,0,0,0,0,0,0,0,0,-1,818,729,0,0
-399,295,0,0,0,0,0,0,0,0,0,-1,825,729,0,0
-392,295,0,0,0,0,0,0,0,0,0,-1,832,729,0,0
-385,295,0,0,0,0,0,0,0,0,0,-1,839,729,0,0
-378,295,0,0,0,0,0,0,0,0,0,-1,846,729,0,0
-371,295,0,0,0,0,0,0,0,0,0,-1,853,729,0,0
-364,295,0,0,0,0,0,0,0,0,0,-1,860,729,0,0
-357,295,0,0,0,0,0,0,0,0,0,-1,867,729,0,0
-350,295,0,0,0,0,0,0,0,0,0,-1,874,729,0,0
-343,295,0,0,0,0,0,0,0,0,0,-1,881,729,0,0
-336,295,0,0,0,0,0,0,0,0,0,-1,888,729,0,0
-329,295,0,0,0,0,0,0,0,0,0,-1,895,729,0,0
-322,295,0,0,0,0,0,0,0,0,0,-1,902,729,0,0
-315,295,0,0,0,0,0,0,0,0,0,-1,909,729,0,0
-308,295,0,0,0,0,0,0,0,0,0,-1,916,729,0,0
-301,295,0,0,0,0,0,0,0,0,0,-1,923,729,0,0
-294,295,0,0,0,0,0,0,0,0,0,-1,930,729,0,0
-287,295,0,0,0,0,0,0,0,0,0,-1,937,729,0,0
-280,295,0,0,0,0,0,0,0,0,0,-1,944,729,0,0
-273,295,0,0,0,0,0,0,0,0,0,-1,951,729,0,0
-266,295,0,0,0,0,0,0,0,0,0,-1,958,729,0,0
-259,295,0,0,0,0,0,0,0,0,0,-1,965,729,0,0
-252,295,0,0,0,0,0,0,0,0,0,-1,972,729,0,0
-245,295,0,0,0,0,0,0,0,0,0,-1,979,729,0,0
-238,295,0,0,0,0,0,0,0,0,0,-1,986,729,0,0
-231,295,0,0,0,0,0,0,0,0,0,-1,993,729,0,0
-224,295,0,0,0,0,0,0,0,0,0,-1,1000,729,0,0
-217,295,0,0,0,0,0,0,0,0,0,-1,1007,729,0,0
-210,295,0,0,0,0,0,0,0,0,0,-1,1014,729,0,0
-203,295,0,0,0,0,0,0,0,0,0,-1,1021,729,0,0
-196,295,0,0,0,0,0,0,0,0,0,-1,1028,729,0,0
-189,295,0,0,0,0,0,0,0,0,0,-1,1035,729,0,0
-182,295,0,0,0,0,0,0,0,0,0,-1,1042,729,0,0
-175,295,0,0,0,0,0,0,0,0,0,-1,1049,729,0,0
-168,295,0,0,0,0,0,0,0,0,0,-1,1056,729,0,0
-161,295,0,0,0,0,0,0,0,0,0,-1,1063,729,0,0
-154,295,0,0,0,0,0,0,0,0,0,-1,1070,729,0,0
-147,295,0,0,0,0,0,0,0,0,0,-1,1077,729,0,0
-140,295,0,0,0,0,0,0,0,0,0,-1,1084,729,0,0
-133,295,0,0,0,0,0,0,0,0,0,-1,1091,729,0,0
-126,295,0,0,0,0,0,0,0,0,0,-1,1098,729,0,0
-119,295,0,0,0,0,0,0,0,0,0,-1,1105,729,0,0
-112,295,0,0,0,0,0,0,0,0,0,-1,1112,729,0,0
-105,295,0,0,0,0,0,0,0,0,0,-1,1119,729,0,0
-98,295,0,0,0,0,0,0,0,0,0,-1,1126,729,0,0
-91,295,0,0,0,0,0,0,0,0,0,-1,1133,729,0,0
-84,295,0,0,0,0,0,0,0,0,0,-1,1140,729,0,0
-77,295,0,0,0,0,0,0,0,0,0,-1,1147,729,0,0
-70,295,0,0,0,0,0,0,0,0,0,-1,1154,729,0,0
-63,295,0,0,0,0,0,0,0,0,0,-1,1161,729,0,0
-56,295,0,0,0,0,0,0,0,0,0,-1,1168,729,0,0
-49,295,0,0,0,0,0,0,0,0,0,-1,1175,729,0,0
-42,295,0,0,0,0,0,0,0,0,0,-1,1182,729,0,0
-35,295,0,0,0,0,0,0,0,0,0,-1,1189,729,0,0
-28,295,0,0,0,0,0,0,0,0,0,-1,1196,729,0,0
-21,295,0,0,0,0,0,0,0,0,0,-1,1203,729,0,0
-14,295,0,0,0,0,0,0,0,0,0,-1,1210,729,0,0
-7,295,0,0,0,0,0,0,0,0,0,-1,1217,729,0,0
0,295,0,0,0,0,0,0,0,0,0,-1,1224,729,0,0
7,295,0,0,0,0,0,0,0,0,0,-1,1231,729,0,0
14,295,0,0,0,0,0,0,0,0,0,-1,1238,729,0,0
21,295,0,0,0,0,0,0,0,0,0,-1,1245,729,0,0
28,295,0,0,0,0,0,0,0,0,0,-1,1252,729,0,0
35,295,0,0,0,0,0,0,0,0,0,-1,1259,729,0,0
42,295,0,0,0,0,0,0,0,0,0,-1,1266,729,0,0
49,295,0,0,0,0,0,0,0,0,0,-1,1273,729,0,0
56,295,0,0,0,0,0,0,0,0,0,-1,1280,729,0,0
63,295,0,0,0,0,0,0,0,0,0,-1,1287,729,0,0
70,295,0,0,0,0,0,0,0,0,0,-1,1294,729,0,0
77,295,0,0,0,0,0,0,0,0,0,-1,1301,729,0,0
84,295,0,0,0,0,0,0,0,0,0,-1,1308,729,0,0
91,295,0,0,0,0,0,0,0,0,0,-1,1315,729,0,0
98,295,0,0,0,0,0,0,0,0,0,-1,1322,729,0,0
105,295,0,0,0,0,0,0,0,0,0,-1,1329,729,0,0
112,295,0,0,0,0,0,0,0,0,0,-1,1336,729,0,0
119,295,0,0,0,0,0,0,0,0,0,-1,1343,729,0,0
126,295,0,0,0,0,0,0,0,0,0,-1,1350,729,0,0
133,295,0,0,0,0,0,0,0,0,0,-1,1357,729,0,0
140,295,0,0,0,0,0,0,0,0,0,-1,1364,729,0,0
147,295,0,0,0,0,0,0,0,0,0,-1,1371,729,0,0
154,295,0,0,0,0,0,0,0,0,0,-1,1378,729,0,0
161,295,0,0,0,0,0,0,0,0,0,-1,1385,729,0,0
168,295,0,0,0,0,0,0,0,0,0,-1,1392,729,0,0
175,295,0,0,0,0,0,0,0,0,0,-1,1399,729,0,0
182,295,0,0,0,0,0,0,0,0,0,-1,1406,729,0,0
189,295,0,0,0,0,0,0,0,0,0,-1,1413,729,0,0
196,295,0,0,0,0,0,0,0,0,0,-1,1420,729,0,0
203,295,0,0,0,0,0,0,0,0,0,-1,1427,729,0,0
210,295,0,0,0,0,0,0,0,0,0,-1,1434,729,0,0
217,295,0,0,0,0,0,0,0,0,0,-1,1441,729,0,0
224,295,0,0,0,0,0,0,0,0,0,-1,1448,729,0,0
231,295,0,0,0,0,0,0,0,0,0,-1,1455,729,0,0
238,295,0,0,0,0,0,0,0,0,0,-1,1462,729,0,0
245,295,0,0,0,0,0,0,0,0,0,-1,1469,729,0,0
252,295,0,0,0,0,0,0,0,0,0,-1,1476,729,0,0
259,295,0,0,0,0,0,0,0,0,0,-1,1483,729,0,0
266,295,0,0,0,0,0,0,0,0,0,-1,1490,729,0,0
273,295,0,0,0,0,0,0,0,0,0,-1,1497,729,0,0
280,295,0,0,0,0,0,0,0,0,0,-1,1504,729,0,0
287,295,0,0,0,0,0,0,0,0,0,-1,1511,729,0,0
294,295,0,0,0,0,0,0,0,0,0,-1,1518,729,0,0
301,295,0,0,0,0,0,0,0,0,0,-1,1525,729,0,0
308,295,0,0,0,0,0,0,0,0,0,-1,1532,729,0,0
315,295,0,0,0,0,0,0,0,0,0,-1,1539,729,0,0
322,295,0,0,0,0,0,0,0,0,0,-1,1546,729,0,0
329,295,0,0,0,0,0,0,0,0,0,-1,1553,729,0,0
336,295,0,0,0,0,0,0,0,0,0,-1,1560,729,0,0
343,295,0,0,0,0,0,0,0,0,0,-1,1567,729,0,0
350,295,0,0,0,0,0,0,0,0,0,-1,1574,729,0,0
357,295,0,0,0,0,0,0,0,0,0,-1,1581,729,0,0
364,295,0,0,0,0,0,0,0,0,0,-1,1588,729,0,0
371,295,0,0,0,0,0,0,0,0,0,-1,1595,729,0,0
378,295,0,0,0,0,0,0,0,0,0,-1,1602,729,0,0
385,295,0,0,0,0,0,0,0,0,0,-1,1609,729,0,0
392,295,0,0,0,0,0,0,0,0,0,-1,1616,729,0,0
399,295,0,0,0,0,0,0,0,0,0,-1,1623,729,0,0
406,295,0,0,0,0,0,0,0,0,0,-1,1630,729,0,0
413,295,0,0,0,0,0,0,0,0,0,-1,1637,729,0,0
420,295,0,0,0,0,0,0,0,0,0,-1,1644,729,0,0
427,295,0,0,0,0,0,0,0,0,0,-1,1651,729,0,0
434,295,0,0,0,0,0,0,0,0,0,-1,1658,729,0,0
441,295,0,0,0,0,0,0,0,0,0,-1,1665,729,0,0
448,295,0,0,0,0,0,0,0,0,0,-1,1672,729,0,0
455,295,0,0,0,0,0,0,0,0,0,-1,1679,729,0,0
462,295,0,0,0,0,0,0,0,0,0,-1,1686,729,0,0
469,295,0,0,0,0,0,0,0,0,0,-1,1693,729,0,0
476,295,0,0,0,0,0,0,0,0,0,-1,1700,729,0,0
483,295,0,0,0,0,0,0,0,0,0,-1,1707,729,0,0
490,295,0,0,0,0,0,0,0,0,0,-1,1714,729,0,0
497,295,0,0,0,0,0,0,0,0,0,-1,1721,729,0,0
504,295,0,0,0,0,0,0,0,0,0,-1,1728,729,0,0
511,295,0,0,0,0,0,0,0,0,0,-1,1735,729,0,0
518,295,0,0,0,0,0,0,0,0,0,-1,1742,729,0,0
525,295,0,0,0,0,0,0,0,0,0,-1,1749,729,0,0
532,295,0,0,0,0,0,0,0,0,0,-1,1756,729,0,0
539,295,0,0,0,0,0,0,0,0,0,-1,1763,729,0,0
546,295,57.4674,2.36884,0,0,0,0,0,0,0,-1,1770,729,57.4674,-2.36883
553,295,57.1969,2.73846,0,0,0,0,0,0,0,-1,1777,729,57.197,-2.73843
560,295,57.0291,3.27454,0,0,0,0,0,0,0,-1,1784,729,57.029,-3.27454
567,295,56.6243,3.88239,0,0,0,0,0,0,0,-1,1791,729,56.6242,-3.8824
574,295,56.5275,4.755,0,0,0,0,0,0,0,-1,1798,729,56.5274,-4.75501
581,295,37.8191,2.19592,0,0,0,0,0,0,0,-1,1805,729,37.8191,-2.19594
588,295,39.0542,2.45679,0,0,0,0,0,0,0,-1,1812,729,39.0542,-2.45676
595,295,27.2102,6.99121,0,0,0,0,0,0,0,-1,1819,729,27.2103,-6.99121
602,295,26.9065,7.82141,0,0,0,0,0,0,0,-1,1826,729,26.9064,-7.8214
609,295,11.7737,2.19989,0,0,0,0,0,0,0,-1,1833,729,11.7736,-2.19988
616,295,45.2537,-10.4867,0,0,0,0,0,0,0,-1,1840,729,45.2537,10.4867
623,295,51.3218,-10.8205,0,0,0,0,0,0,0,-1,1847,729,51.3218,10.8205
630,295,51.204,-9.78723,0.00270336,-0.000737972,0.00101245,0.00297913,-0.00101374,0.265925,0.00239656,0.0158722,1854,729,51.204,9.78725
637,295,51.1107,-8.76361,0.00183133,-0.000320229,0.000721652,0.00205096,-0.000539858,0.295435,0.00157834,0.0152053,1861,729,51.1107,8.76361
644,295,51.0704,-7.74023,0.00131975,0.000141204,0.000499883,0.00150321,-4.22631e-05,0.351755,0.00101652,0.0144495,1868,729,51.0704,7.74026
651,295,51.0315,-6.69727,0.00115215,0.000588354,0.000444905,0.00139695,0.000343557,0.503014,0.000840518,0.0150266,1875,729,51.0315,6.69726
658,295,50.9613,-5.65479,0.00132918,0.00110574,0.000601211,0.00182896,0.000605955,0.693534,0.0010758,0.0146359,1882,729,50.9613,5.65477
665,295,50.8739,-4.65179,0.0016163,0.00173241,0.000874316,0.0025506,0.000798113,0.818552,0.00150656,0.0135022,1889,729,50.8739,4.65177
672,295,50.7969,-3.64258,0.00212286,0.00246046,0.00127964,0.00358239,0.00100093,0.850976,0.00213434,0.0149796,1896,729,50.7968,3.64261
679,295,50.7174,-2.5813,0.00290399,0.00333567,0.00187286,0.00500509,0.00123457,0.842768,0.00301079,0.0111202,1903,729,50.7174,2.58132
686,295,50.6965,-1.52161,0.00386348,0.00428225,0.00261441,0.00669565,0.00145008,0.825357,0.0040675,0.0127252,1910,729,50.6965,1.52163
693,295,50.6984,-0.46582,0,0,0,0,0,0,0,-1,1917,729,50.6984,0.465815
700,295,31.3757,2.06982,0,0,0,0,0,0,0,-1,1924,729,31.3758,-2.0698
707,295,22.2661,3.05206,0,0,0,0,0,0,0,-1,1931,729,22.2662,-3.05207
714,295,17.4906,4.63068,0,0,0,0,0,0,0,-1,1938,729,17.4906,-4.63066
721,295,18.3792,5.32281,0,0,0,0,0,0,0,-1,1945,729,18.3791,-5.32283
728,295,17.379,3.74866,0,0,0,0,0,0,0,-1,1952,729,17.379,-3.74863
735,295,0,0,0,0,0,0,0,0,0,-1,1959,729,0,0
742,295,0,0,0,0,0,0,0,0,0,-1,1966,729,0,0
749,295,0,0,0,0,0,0,0,0,0,-1,1973,729,0,0
756,295,0,0,0,0,0,0,0,0,0,-1,1980,729,0,0
763,295,0,0,0,0,0,0,0,0,0,-1,1987,729,0,0
770,295,0,0,0,0,0,0,0,0,0,-1,1994,729,0,0
777,295,0,0,0,0,0,0,0,0,0,-1,2001,729,0,0
784,295,0,0,0,0,0,0,0,0,0,-1,2008,729,0,0
791,295,0,0,0,0,0,0,0,0,0,-1,2015,729,0,0
798,295,0,0,0,0,0,0,0,0,0,-1,2022,729,0,0
805,295,0,0,0,0,0,0,0,0,0,-1,2029,729,0,0
812,295,0,0,0,0,0,0,0,0,0,-1,2036,729,0,0
-700,288,0,0,0,0,0,0,0,0,0,-1,524,736,0,0
-693,288,0,0,0,0,0,0,0,0,0,-1,531,736,0,0
-686,288,0,0,0,0,0,0,0,0,0,-1,538,736,0,0
-679,288,0,0,0,0,0,0,0,0,0,-1,545,736,0,0
-672,288,0,0,0,0,0,0,0,0,0,-1,552,736,0,0
-665,288,0,0,0,0,0,0,0,0,0,-1,559,736,0,0
-658,288,0,0,0,0,0,0,0,0,0,-1,566,736,0,0
-651,288,0,0,0,0,0,0,0,0,0,-1,573,736,0,0
-644,288,0,0,0,0,0,0,0,0,0,-1,580,736,0,0
-637,288,0,0,0,0,0,0,0,0,0,-1,587,736,0,0
-630,288,0,0,0,0,0,0,0,0,0,-1,594,736,0,0
-623,288,0,0,0,0,0,0,0,0,0,-1,601,736,0,0
-616,288,-11.7584,2.4425,0,0,0,0,0,0,0,-1,608,736,-11.7584,-2.44251
-609,288,-10.3007,2.32178,0,0,0,0,0,0,0,-1,615,736,-10.3007,-2.32178
-602,288,-10.1458,-1.85559,0,0,0,0,0,0,0,-1,622,736,-10.1458,1.85556
-595,288,-7.63208,1.81769,0,0,0,0,0,0,0,-1,629,736,-7.63205,-1.81766
-588,288,-8.19269,1.50598,0,0,0,0,0,0,0,-1,636,736,-8.19268,-1.50601
-581,288,-13.1915,0.659241,0,0,0,0,0,0,0,-1,643,736,-13.1915,-0.659228
-574,288,-34.2844,1.06158,0,0,0,0,0,0,0,-1,650,736,-34.2844,-1.06157
-567,288,-34.4662,-0.034729,0.00155046,0.00806589,-0.00113453,0.0082578,0.00135855,-1.40323,0.00511287,0.0377363,657,736,-34.4662,0.0347082
-560,288,-34.7349,-1.16064,0.00140974,0.00559598,-0.000823624,0.00575219,0.00125353,-1.38335,0.00349276,0.0179874,664,736,-34.7349,1.16061
-553,288,-34.759,-2.14795,0.00129916,0.00367446,-0.000693414,0.00386207,0.00111156,-1.30657,0.00229572,0.0195935,671,736,-34.759,2.14794
-546,288,-34.8735,-3.2052,0.000995702,0.00238916,-0.000532666,0.00256945,0.00081541,-1.24443,0.00151611,0.0212881,678,736,-34.8735,3.20517
-539,288,-34.9686,-4.23676,0.000599533,0.00121753,-0.00024324,0.00130178,0.00051528,-1.23735,0.000757,0.0186727,685,736,-34.9686,4.23675
-532,288,-34.975,-5.25995,0.000132697,0.000259731,3.89167e-05,0.000270705,0.000121723,1.29594,0.000156555,0.0165061,692,736,-34.975,5.25994
-525,288,-35.0757,-6.31769,-0.000356279,-0.000590739,0.000350507,-0.000103917,-0.000843101,0.624017,0.00053083,0.0141741,699,736,-35.0757,6.31769
-518,288,-35.18,-7.37384,-0.000801497,-0.00108322,0.000815647,-0.000114636,-0.00177008,0.699893,0.00114376,0.0121687,706,736,-35.18,7.37385
-511,288,-35.2472,-8.39935,-0.00126413,-0.00231713,0.00133917,-0.000351685,-0.00322958,0.598103,0.00204592,0.01013,713,736,-35.2472,8.39938
-504,288,-35.3422,-9.42047,-0.00154793,-0.00394428,0.00191371,-0.000488252,-0.00500397,0.505703,0.00318572,0.0123952,720,736,-35.3422,9.4205
-497,288,-35.3506,-10.1875,-0.00170509,-0.00566396,0.00251768,-0.000481884,-0.00688716,0.452259,0.00443954,0.0394621,727,736,-35.3506,10.1875
-490,288,-35.1976,-10.861,0,0,0,0,0,0,0,-1,734,736,-35.1976,10.861
-483,288,-17.3287,0.564758,0,0,0,0,0,0,0,-1,741,736,-17.3287,-0.56477
-476,288,-26.136,0.452148,0,0,0,0,0,0,0,-1,748,736,-26.136,-0.452177
-469,288,-27.7904,0.649841,0,0,0,0,0,0,0,-1,755,736,-27.7904,-0.649854
-462,288,-44.999,-2.65112,0,0,0,0,0,0,0,-1,762,736,-44.999,2.65111
-455,288,-49.1631,1.86432,0,0,0,0,0,0,0,-1,769,736,-49.1632,-1.8643
-448,288,-55.5283,0.0455933,0,0,0,0,0,0,0,-1,776,736,-55.5284,-0.0456
-441,288,-55.0096,0.39325,0,0,0,0,0,0,0,-1,783,736,-55.0096,-0.393269
-434,288,-46.7119,1.66388,0,0,0,0,0,0,0,-1,790,736,-46.7119,-1.66385
-427,288,0,0,0,0,0,0,0,0,0,-1,797,736,0,0
-420,288,0,0,0,0,0,0,0,0,0,-1,804,736,0,0
-413,288,0,0,0,0,0,0,0,0,0,-1,811,736,0,0
-406,288,0,0,0,0,0,0,0,0,0,-1,818,736,0,0
-399,288,0,0,0,0,0,0,0,0,0,-1,825,736,0,0
-392,288,0,0,0,0,0,0,0,0,0,-1,832,736,0,0
-385,288,0,0,0,0,0,0,0,0,0,-1,839,736,0,0
-378,288,0,0,0,0,0,0,0,0,0,-1,846,736,0,0
-371,288,0,0,0,0,0,0,0,0,0,-1,853,736,0,0
-364,288,0,0,0,0,0,0,0,0,0,-1,860,736,0,0
-357,288,0,0,0,0,0,0,0,0,0,-1,867,736,0,0
-350,288,0,0,0,0,0,0,0,0,0,-1,874,736,0,0
-343,288,0,0,0,0,0,0,0,0,0,-1,881,736,0,0
-336,288,0,0,0,0,0,0,0,0,0,-1,888,736,0,0
-329,288,0,0,0,0,0,0,0,0,0,-1,895,736,0,0
-322,288,0,0,0,0,0,0,0,0,0,-1,902,736,0,0
-315,288,0,0,0,0,0,0,0,0,0,-1,909,736,0,0
-308,288,0,0,0,0,0,0,0,0,0,-1,916,736,0,0
-301,288,0,0,0,0,0,0,0,0,0,-1,923,736,0,0
-294,288,0,0,0,0,0,0,0,0,0,-1,930,736,0,0
-287,288,0,0,0,0,0,0,0,0,0,-1,937,736,0,0
-280,288,0,0,0,0,0,0,0,0,0,-1,944,736,0,0
-273,288,0,0,0,0,0,0,0,0,0,-1,951,736,0,0
-266,288,0,0,0,0,0,0,0,0,0,-1,958,736,0,0
-259,288,0,0,0,0,0,0,0,0,0,-1,965,736,0,0
-252,288,0,0,0,0,0,0,0,0,0,-1,972,736,0,0
-245,288,0,0,0,0,0,0,0,0,0,-1,979,736,0,0
-238,288,0,0,0,0,0,0,0,0,0,-1,986,736,0,0
-231,288,0,0,0,0,0,0,0,0,0,-1,993,736,0,0
-224,288,0,0,0,0,0,0,0,0,0,-1,1000,736,0,0
-217,288,0,0,0,0,0,0,0,0,0,-1,1007,736,0,0
-210,288,0,0,0,0,0,0,0,0,0,-1,1014,736,0,0
-203,288,0,0,0,0,0,0,0,0,0,-1,1021,736,0,0
-196,288,0,0,0,0,0,0,0,0,0,-1,1028,736,0,0
-189,288,0,0,0,0,0,0,0,0,0,-1,1035,736,0,0
-182,288,0,0,0,0,0,0,0,0,0,-1,1042,736,0,0
-175,288,0,0,0,0,0,0,0,0,0,-1,1049,736,0,0
-168,288,0,0,0,0,0,0,0,0,0,-1,1056,736,0,0
-161,288,0,0,0,0,0,0,0,0,0,-1,1063,736,0,0
-154,288,0,0,0,0,0,0,0,0,0,-1,1070,736,0,0
-147,288,0,0,0,0,0,0,0,0,0,-1,1077,736,0,0
-140,288,0,0,0,0,0,0,0,0,0,-1,1084,736,0,0
-133,288,0,0,0,0,0,0,0,0,0,-1,1091,736,0,0
-126,288,0,0,0,0,0,0,0,0,0,-1,1098,736,0,0
-119,288,0,0,0,0,0,0,0,0,0,-1,1105,736,0,0
-112,288,0,0,0,0,0,0,0,0,0,-1,1112,736,0,0
-105,288,0,0,0,0,0,0,0,0,0,-1,1119,736,0,0
-98,288,0,0,0,0,0,0,0,0,0,-1,1126,736,0,0
-91,288,0,0,0,0,0,0,0,0,0,-1,1133,736,0,0
-84,288,0,0,0,0,0,0,0,0,0,-1,1140,736,0,0
-77,288,0,0,0,0,0,0,0,0,0,-1,1147,736,0,0
-70,288,0,0,0,0,0,0,0,0,0,-1,1154,736,0,0
-63,288,0,0,0,0,0,0,0,0,0,-1,1161,736,0,0
-56,288,0,0,0,0,0,0,0,0,0,-1,1168,736,0,0
-49,288,0,0,0,0,0,0,0,0,0,-1,1175,736,0,0
-42,288,0,0,0,0,0,0,0,0,0,-1,1182,736,0,0
-35,288,0,0,0,0,0,0,0,0,0,-1,1189,736,0,0
-28,288,0,0,0,0,0,0,0,0,0,-1,1196,736,0,0
-21,288,0,0,0,0,0,0,0,0,0,-1,1203,736,0,0
-14,288,0,0,0,0,0,0,0,0,0,-1,1210,736,0,0
-7,288,0,0,0,0,0,0,0,0,0,-1,1217,736,0,0
0,288,0,0,0,0,0,0,0,0,0,-1,1224,736,0,0
7,288,0,0,0,0,0,0,0,0,0,-1,1231,736,0,0
14,288,0,0,0,0,0,0,0,0,0,-1,1238,736,0,0
21,288,0,0,0,0,0,0,0,0,0,-1,1245,736,0,0
28,288,0,0,0,0,0,0,0,0,0,-1,1252,736,0,0
35,288,0,0,0,0,0,0,0,0,0,-1,1259,736,0,0
42,288,0,0,0,0,0,0,0,0,0,-1,1266,736,0,0
49,288,0,0,0,0,0,0,0,0,0,-1,1273,736,0,0
56,288,0,0,0,0,0,0,0,0,0,-1,1280,736,0,0
63,288,0,0,0,0,0,0,0,0,0,-1,1287,736,0,0
70,288,0,0,0,0,0,0,0,0,0,-1,1294,736,0,0
77,288,0,0,0,0,0,0,0,0,0,-1,1301,736,0,0
84,288,0,0,0,0,0,0,0,0,0,-1,1308,736,0,0
91,288,0,0,0,0,0,0,0,0,0,-1,1315,736,0,0
98,288,0,0,0,0,0,0,0,0,0,-1,1322,736,0,0
105,288,0,0,0,0,0,0,0,0,0,-1,1329,736,0,0
112,288,0,0,0,0,0,0,0,0,0,-1,1336,736,0,0
119,288,0,0,0,0,0,0,0,0,0,-1,1343,736,0,0
126,288,0,0,0,0,0,0,0,0,0,-1,1350,736,0,0
133,288,0,0,0,0,0,0,0,0,0,-1,1357,736,0,0
140,288,0,0,0,0,0,0,0,0,0,-1,1364,736,0,0
147,288,0,0,0,0,0,0,0,0,0,-1,1371,736,0,0
154,288,0,0,0,0,0,0,0,0,0,-1,1378,736,0,0
161,288,0,0,0,0,0,0,0,0,0,-1,1385,736,0,0
168,288,0,0,0,0,0,0,0,0,0,-1,1392,736,0,0
175,288,0,0,0,0,0,0,0,0,0,-1,1399,736,0,0
182,288,0,0,0,0,0,0,0,0,0,-1,1406,736,0,0
189,288,0,0,0,0,0,0,0,0,0,-1,1413,736,0,0
196,288,0,0,0,0,0,0,0,0,0,-1,1420,736,0,0
203,288,0,0,0,0,0,0,0,0,0,-1,1427,736,0,0
210,288,0,0,0,0,0,0,0,0,0,-1,1434,736,0,0
217,288,0,0,0,0,0,0,0,0,0,-1,1441,736,0,0
224,288,0,0,0,0,0,0,0,0,0,-1,1448,736,0,0
231,288,0,0,0,0,0,0,0,0,0,-1,1455,736,0,0
238,288,0,0,0,0,0,0,0,0,0,-1,1462,736,0,0
245,288,0,0,0,0,0,0,0,0,0,-1,1469,736,0,0
252,288,0,0,0,0,0,0,0,0,0,-1,1476,736,0,0
259,288,0,0,0,0,0,0,0,0,0,-1,1483,736,0,0
266,288,0,0,0,0,0,0,0,0,0,-1,1490,736,0,0
273,288,0,0,0,0,0,0,0,0,0,-1,1497,736,0,0
280,288,0,0,0,0,0,0,0,0,0,-1,1504,736,0,0
287,288,0,0,0,0,0,0,0,0,0,-1,1511,736,0,0
294,288,0,0,0,0,0,0,0,0,0,-1,1518,736,0,0
301,288,0,0,0,0,0,0,0,0,0,-1,1525,736,0,0
308,288,0,0,0,0,0,0,0,0,0,-1,1532,736,0,0
315,288,0,0,0,0,0,0,0,0,0,-1,1539,736,0,0
322,288,0,0,0,0,0,0,0,0,0,-1,1546,736,0,0
329,288,0,0,0,0,0,0,0,0,0,-1,1553,736,0,0
336,288,0,0,0,0,0,0,0,0,0,-1,1560,736,0,0
343,288,0,0,0,0,0,0,0,0,0,-1,1567,736,0,0
350,288,0,0,0,0,0,0,0,0,0,-1,1574,736,0,0
357,288,0,0,0,0,0,0,0,0,0,-1,1581,736,0,0
364,288,0,0,0,0,0,0,0,0,0,-1,1588,736,0,0
371,288,0,0,0,0,0,0,0,0,0,-1,1595,736,0,0
378,288,0,0,0,0,0,0,0,0,0,-1,1602,736,0,0
385,288,0,0,0,0,0,0,0,0,0,-1,1609,736,0,0
392,288,0,0,0,0,0,0,0,0,0,-1,1616,736,0,0
399,288,0,0,0,0,0,0,0,0,0,-1,1623,736,0,0
406,288,0,0,0,0,0,0,0,0,0,-1,1630,736,0,0
413,288,0,0,0,0,0,0,0,0,0,-1,1637,736,0,0
420,288,0,0,0,0,0,0,0,0,0,-1,1644,736,0,0
427,288,0,0,0,0,0,0,0,0,0,-1,1651,736,0,0
434,288,0,0,0,0,0,0,0,0,0,-1,1658,736,0,0
441,288,0,0,0,0,0,0,0,0,0,-1,1665,736,0,0
448,288,0,0,0,0,0,0,0,0,0,-1,1672,736,0,0
455,288,0,0,0,0,0,0,0,0,0,-1,1679,736,0,0
462,288,0,0,0,0,0,0,0,0,0,-1,1686,736,0,0
469,288,0,0,0,0,0,0,0,0,0,-1,1693,736,0,0
476,288,0,0,0,0,0,0,0,0,0,-1,1700,736,0,0
483,288,0,0,0,0,0,0,0,0,0,-1,1707,736,0,0
490,288,0,0,0,0,0,0,0,0,0,-1,1714,736,0,0
497,288,0,0,0,0,0,0,0,0,0,-1,1721,736,0,0
504,288,0,0,0,0,0,0,0,0,0,-1,1728,736,0,0
511,288,0,0,0,0,0,0,0,0,0,-1,1735,736,0,0
518,288,0,0,0,0,0,0,0,0,0,-1,1742,736,0,0
525,288,0,0,0,0,0,0,0,0,0,-1,1749,736,0,0
532,288,0,0,0,0,0,0,0,0,0,-1,1756,736,0,0
539,288,0,0,0,0,0,0,0,0,0,-1,1763,736,0,0
546,288,0,0,0,0,0,0,0,0,0,-1,1770,736,0,0
553,288,57.4934,2.28064,0,0,0,0,0,0,0,-1,1777,736,57.4934,-2.28064
560,288,57.3807,3.02881,0,0,0,0,0,0,0,-1,1784,736,57.3808,-3.0288
567,288,57.2081,3.74274,0,0,0,0,0,0,0,-1,1791,736,57.2081,-3.74273
574,288,56.9817,4.36981,0,0,0,0,0,0,0,-1,1798,736,56.9816,-4.36984
581,288,53.4904,5.33215,0,0,0,0,0,0,0,-1,1805,736,53.4904,-5.33218
588,288,54.9313,3.29852,0,0,0,0,0,0,0,-1,1812,736,54.9313,-3.29849
595,288,47.035,3.35156,0,0,0,0,0,0,0,-1,1819,736,47.035,-3.35157
602,288,26.7634,7.61279,0,0,0,0,0,0,0,-1,1826,736,26.7635,-7.61279
609,288,17.5223,4.86414,0,0,0,0,0,0,0,-1,1833,736,17.5223,-4.86412
616,288,13.4886,0.801331,0,0,0,0,0,0,0,-1,1840,736,13.4886,-0.80132
623,288,52.2202,-10.6534,0,0,0,0,0,0,0,-1,1847,736,52.2202,10.6534
630,288,52.1897,-9.65942,0.0033094,-0.000432025,0.00136971,0.00375724,-0.000879864,0.316002,0.00284385,0.0442074,1854,736,52.1897,9.6594
637,288,52.1842,-8.67639,0.00214538,-7.68278e-05,0.000954992,0.00249939,-0.000430838,0.354991,0.00182689,0.0139134,1861,736,52.1842,8.6764
644,288,52.1313,-7.65521,0.00128568,0.000273657,0.000542877,0.0015218,3.75336e-05,0.410266,0.00100226,0.0115369,1868,736,52.1313,7.65524
651,288,52.0675,-6.61725,0.000875577,0.000554015,0.000305238,0.00105979,0.000369803,0.542993,0.000621108,0.0127862,1875,736,52.0675,6.61726
658,288,52,-5.54645,0.000983325,0.000893919,0.000406732,0.0013478,0.000529441,0.730664,0.000784092,0.0175317,1882,736,52,5.54645
665,288,51.9373,-4.54907,0.00123037,0.001409,0.000661549,0.00198724,0.000652134,0.852497,0.0011697,0.0182888,1889,736,51.9373,4.54909
672,288,51.8478,-3.57001,0.00168832,0.00202247,0.00103144,0.00290029,0.000810507,0.865692,0.00172792,0.0177836,1896,736,51.8478,3.57001
679,288,51.7561,-2.50397,0.0024553,0.00281803,0.00160311,0.00425,0.00102333,0.841725,0.0025613,0.0146371,1903,736,51.7561,2.50394
686,288,51.6898,-1.474,0.00334188,0.00370123,0.00226431,0.00579298,0.00125013,0.824991,0.00352007,0.0121401,1910,736,51.6898,1.47398
693,288,51.6715,-0.339111,0.00463558,0.00496942,0.00316974,0.00797662,0.00162837,0.811704,0.00486663,0.0285971,1917,736,51.6715,0.33913
700,288,51.649,0.858276,0,0,0,0,0,0,0,-1,1924,736,51.649,-0.858273
707,288,30.9496,3.07977,0,0,0,0,0,0,0,-1,1931,736,30.9496,-3.07975
714,288,23.0149,3.82544,0,0,0,0,0,0,0,-1,1938,736,23.0149,-3.82541
721,288,18.0732,3.69385,0,0,0,0,0,0,0,-1,1945,736,18.0732,-3.69387
728,288,19.3208,3.91455,0,0,0,0,0,0,0,-1,1952,736,19.3209,-3.91455
735,288,18.7712,3.51312,0,0,0,0,0,0,0,-1,1959,736,18.7713,-3.51309
742,288,0,0,0,0,0,0,0,0,0,-1,1966,736,0,0
749,288,0,0,0,0,0,0,0,0,0,-1,1973,736,0,0
756,288,0,0,0,0,0,0,0,0,0,-1,1980,736,0,0
763,288,0,0,0,0,0,0,0,0,0,-1,1987,736,0,0
770,288,0,0,0,0,0,0,0,0,0,-1,1994,736,0,0
777,288,0,0,0,0,0,0,0,0,0,-1,2001,736,0,0
784,288,0,0,0,0,0,0,0,0,0,-1,2008,736,0,0
791,288,0,0,0,0,0,0,0,0,0,-1,2015,736,0,0
798,288,0,0,0,0,0,0,0,0,0,-1,2022,736,0,0
805,288,0,0,0,0,0,0,0,0,0,-1,2029,736,0,0
812,288,0,0,0,0,0,0,0,0,0,-1,2036,736,0,0
-700,281,0,0,0,0,0,0,0,0,0,-1,524,743,0,0
-693,281,0,0,0,0,0,0,0,0,0,-1,531,743,0,0
-686,281,0,0,0,0,0,0,0,0,0,-1,538,743,0,0
-679,281,0,0,0,0,0,0,0,0,0,-1,545,743,0,0
-672,281,0,0,0,0,0,0,0,0,0,-1,552,743,0,0
-665,281,0,0,0,0,0,0,0,0,0,-1,559,743,0,0
-658,281,0,0,0,0,0,0,0,0,0,-1,566,743,0,0
-651,281,0,0,0,0,0,0,0,0,0,-1,573,743,0,0
-644,281,0,0,0,0,0,0,0,0,0,-1,580,743,0,0
-637,281,0,0,0,0,0,0,0,0,0,-1,587,743,0,0
-630,281,0,0,0,0,0,0,0,0,0,-1,594,743,0,0
-623,281,-19.1697,5.67017,0,0,0,0,0,0,0,-1,601,743,-19.1697,-5.67019
-616,281,-11.5906,2.6853,0,0,0,0,0,0,0,-1,608,743,-11.5906,-2.68529
-609,281,-16.1972,4.14838,0,0,0,0,0,0,0,-1,615,743,-16.1972,-4.14837
-602,281,-21.9772,6.77417,0,0,0,0,0,0,0,-1,622,743,-21.9771,-6.77415
-595,281,-10.4797,-1.07404,0,0,0,0,0,0,0,-1,629,743,-10.4798,1.07402
-588,281,-13.277,1.49817,0,0,0,0,0,0,0,-1,636,743,-13.2771,-1.49817
-581,281,-35.2015,1.84143,0,0,0,0,0,0,0,-1,643,743,-35.2015,-1.84145
-574,281,-35.5749,1.18414,0,0,0,0,0,0,0,-1,650,743,-35.5749,-1.18412
-567,281,-35.6964,0.0353394,0.00117387,0.00767651,-0.00130955,0.00793033,0.000920048,-1.37935,0.00500845,0.0227269,657,743,-35.6964,-0.0353533
-560,281,-35.7988,-1.03345,0.0009456,0.0051615,-0.00076603,0.00529638,0.000810727,-1.39652,0.0032941,0.00940407,664,743,-35.7987,1.03347
-553,281,-35.8505,-2.06409,0.000741627,0.00327093,-0.000480342,0.00335908,0.000653477,-1.3893,0.00205647,0.0152595,671,743,-35.8505,2.06411
-546,281,-35.926,-3.08075,0.000386953,0.00191634,-0.000235291,0.00195172,0.000351573,-1.42155,0.00120123,0.0165006,678,743,-35.926,3.08074
-539,281,-35.9959,-4.13635,-6.95818e-05,0.000726346,8.34798e-05,0.000735008,-7.82433e-05,1.46741,0.000518059,0.0146633,685,743,-35.9959,4.13633
-532,281,-36.0442,-5.14069,-0.000568247,-0.000143526,0.000297011,9.23345e-06,-0.000721006,1.09576,0.000483778,0.0158444,692,743,-36.0442,5.14068
-525,281,-36.1741,-6.19891,-0.000956722,-0.000833066,0.000510585,-0.000380579,-0.00140921,0.845651,0.000841796,0.0184891,699,743,-36.1741,6.19893
-518,281,-36.2507,-7.28174,-0.00123501,-0.00100994,0.000912523,-0.000203041,-0.00204191,0.846749,0.00129889,0.0141271,706,743,-36.2507,7.28176
-511,281,-36.3005,-8.34021,-0.00156335,-0.00230131,0.00136312,-0.000520151,-0.00334451,0.653221,0.0020781,0.015111,713,743,-36.3005,8.34018
-504,281,-36.4393,-9.34357,-0.00163638,-0.00396057,0.00188018,-0.000588153,-0.0050088,0.508596,0.00316144,0.0198689,720,743,-36.4393,9.34354
-497,281,-36.3377,-10.1306,0,0,0,0,0,0,0,-1,727,743,-36.3377,10.1306
-490,281,-27.6985,-9.63165,0,0,0,0,0,0,0,-1,734,743,-27.6986,9.63165
-483,281,-22.1078,-2.34973,0,0,0,0,0,0,0,-1,741,743,-22.1078,2.3497
-476,281,-28.0016,2.17786,0,0,0,0,0,0,0,-1,748,743,-28.0016,-2.17786
-469,281,-34.6448,0.171692,0,0,0,0,0,0,0,-1,755,743,-34.6448,-0.171685
-462,281,-46.6214,0.0193481,0,0,0,0,0,0,0,-1,762,743,-46.6214,-0.0193665
-455,281,-56.0239,-0.1521,0,0,0,0,0,0,0,-1,769,743,-56.024,0.152123
-448,281,-55.8145,0.304321,0,0,0,0,0,0,0,-1,776,743,-55.8145,-0.304294
-441,281,-55.4486,0.766052,0,0,0,0,0,0,0,-1,783,743,-55.4486,-0.766078
-434,281,0,0,0,0,0,0,0,0,0,-1,790,743,0,0
-427,281,0,0,0,0,0,0,0,0,0,-1,797,743,0,0
-420,281,0,0,0,0,0,0,0,0,0,-1,804,743,0,0
-413,281,0,0,0,0,0,0,0,0,0,-1,811,743,0,0
-406,281,0,0,0,0,0,0,0,0,0,-1,818,743,0,0
-399,281,0,0,0,0,0,0,0,0,0,-1,825,743,0,0
-392,281,0,0,0,0,0,0,0,0,0,-1,832,743,0,0
-385,281,0,0,0,0,0,0,0,0,0,-1,839,743,0,0
-378,281,0,0,0,0,0,0,0,0,0,-1,846,743,0,0
-371,281,0,0,0,0,0,0,0,0,0,-1,853,743,0,0
-364,281,0,0,0,0,0,0,0,0,0,-1,860,743,0,0
-357,281,0,0,0,0,0,0,0,0,0,-1,867,743,0,0
-350,281,0,0,0,0,0,0,0,0,0,-1,874,743,0,0
-343,281,0,0,0,0,0,0,0,0,0,-1,881,743,0,0
-336,281,0,0,0,0,0,0,0,0,0,-1,888,743,0,0
-329,281,0,0,0,0,0,0,0,0,0,-1,895,743,0,0
-322,281,0,0,0,0,0,0,0,0,0,-1,902,743,0,0
-315,281,0,0,0,0,0,0,0,0,0,-1,909,743,0,0
-308,281,0,0,0,0,0,0,0,0,0,-1,916,743,0,0
-301,281,0,0,0,0,0,0,0,0,0,-1,923,743,0,0
-294,281,0,0,0,0,0,0,0,0,0,-1,930,743,0,0
-287,281,0,0,0,0,0,0,0,0,0,-1,937,743,0,0
-280,281,0,0,0,0,0,0,0,0,0,-1,944,743,0,0
-273,281,0,0,0,0,0,0,0,0,0,-1,951,743,0,0
-266,281,0,0,0,0,0,0,0,0,0,-1,958,743,0,0
-259,281,0,0,0,0,0,0,0,0,0,-1,965,743,0,0
-252,281,0,0,0,0,0,0,0,0,0,-1,972,743,0,0
-245,281,0,0,0,0,0,0,0,0,0,-1,979,743,0,0
-238,281,0,0,0,0,0,0,0,0,0,-1,986,743,0,0
-231,281,0,0,0,0,0,0,0,0,0,-1,993,743,0,0
-224,281,0,0,0,0,0,0,0,0,0,-1,1000,743,0,0
-217,281,0,0,0,0,0,0,0,0,0,-1,1007,743,0,0
-210,281,0,0,0,0,0,0,0,0,0,-1,1014,743,0,0
-203,281,0,0,0,0,0,0,0,0,0,-1,1021,743,0,0
-196,281,0,0,0,0,0,0,0,0,0,-1,1028,743,0,0
-189,281,0,0,0,0,0,0,0,0,0,-1,1035,743,0,0
-182,281,0,0,0,0,0,0,0,0,0,-1,1042,743,0,0
-175,281,0,0,0,0,0,0,0,0,0,-1,1049,743,0,0
-168,281,0,0,0,0,0,0,0,0,0,-1,1056,743,0,0
-161,281,0,0,0,0,0,0,0,0,0,-1,1063,743,0,0
-154,281,0,0,0,0,0,0,0,0,0,-1,1070,743,0,0
-147,281,0,0,0,0,0,0,0,0,0,-1,1077,743,0,0
-140,281,0,0,0,0,0,0,0,0,0,-1,1084,743,0,0
-133,281,0,0,0,0,0,0,0,0,0,-1,1091,743,0,0
-126,281,0,0,0,0,0,0,0,0,0,-1,1098,743,0,0
-119,281,0,0,0,0,0,0,0,0,0,-1,1105,743,0,0
-112,281,0,0,0,0,0,0,0,0,0,-1,1112,743,0,0
-105,281,0,0,0,0,0,0,0,0,0,-1,1119,743,0,0
-98,281,0,0,0,0,0,0,0,0,0,-1,1126,743,0,0
-91,281,0,0,0,0,0,0,0,0,0,-1,1133,743,0,0
-84,281,0,0,0,0,0,0,0,0,0,-1,1140,743,0,0
-77,281,0,0,0,0,0,0,0,0,0,-1,1147,743,0,0
-70,281,0,0,0,0,0,0,0,0,0,-1,1154,743,0,0
-63,281,0,0,0,0,0,0,0,0,0,-1,1161,743,0,0
-56,281,0,0,0,0,0,0,0,0,0,-1,1168,743,0,0
-49,281,0,0,0,0,0,0,0,0,0,-1,1175,743,0,0
-42,281,0,0,0,0,0,0,0,0,0,-1,1182,743,0,0
-35,281,0,0,0,0,0,0,0,0,0,-1,1189,743,0,0
-28,281,0,0,0,0,0,0,0,0,0,-1,1196,743,0,0
-21,281,0,0,0,0,0,0,0,0,0,-1,1203,743,0,0
-14,281,0,0,0,0,0,0,0,0,0,-1,1210,743,0,0
-7,281,0,0,0,0,0,0,0,0,0,-1,1217,743,0,0
0,281,0,0,0,0,0,0,0,0,0,-1,1224,743,0,0
7,281,0,0,0,0,0,0,0,0,0,-1,1231,743,0,0
14,281,0,0,0,0,0,0,0,0,0,-1,1238,743,0,0
21,281,0,0,0,0,0,0,0,0,0,-1,1245,743,0,0
28,281,0,0,0,0,0,0,0,0,0,-1,1252,743,0,0
35,281,0,0,0,0,0,0,0,0,0,-1,1259,743,0,0
42,281,0,0,0,0,0,0,0,0,0,-1,1266,743,0,0
49,281,0,0,0,0,0,0,0,0,0,-1,1273,743,0,0
56,281,0,0,0,0,0,0,0,0,0,-1,1280,743,0,0
63,281,0,0,0,0,0,0,0,0,0,-1,1287,743,0,0
70,281,0,0,0,0,0,0,0,0,0,-1,1294,743,0,0
77,281,0,0,0,0,0,0,0,0,0,-1,1301,743,0,0
84,281,0,0,0,0,0,0,0,0,0,-1,1308,743,0,0
91,281,0,0,0,0,0,0,0,0,0,-1,1315,743,0,0
98,281,0,0,0,0,0,0,0,0,0,-1,1322,743,0,0
105,281,0,0,0,0,0,0,0,0,0,-1,1329,743,0,0
112,281,0,0,0,0,0,0,0,0,0,-1,1336,743,0,0
119,281,0,0,0,0,0,0,0,0,0,-1,1343,743,0,0
126,281,0,0,0,0,0,0,0,0,0,-1,1350,743,0,0
133,281,0,0,0,0,0,0,0,0,0,-1,1357,743,0,0
140,281,0,0,0,0,0,0,0,0,0,-1,1364,743,0,0
147,281,0,0,0,0,0,0,0,0,0,-1,1371,743,0,0
154,281,0,0,0,0,0,0,0,0,0,-1,1378,743,0,0
161,281,0,0,0,0,0,0,0,0,0,-1,1385,743,0,0
168,281,0,0,0,0,0,0,0,0,0,-1,1392,743,0,0
175,281,0,0,0,0,0,0,0,0,0,-1,1399,743,0,0
182,281,0,0,0,0,0,0,0,0,0,-1,1406,743,0,0
189,281,0,0,0,0,0,0,0,0,0,-1,1413,743,0,0
196,281,0,0,0,0,0,0,0,0,0,-1,1420,743,0,0
203,281,0,0,0,0,0,0,0,0,0,-1,1427,743,0,0
210,281,0,0,0,0,0,0,0,0,0,-1,1434,743,0,0
217,281,0,0,0,0,0,0,0,0,0,-1,1441,743,0,0
224,281,0,0,0,0,0,0,0,0,0,-1,1448,743,0,0
231,281,0,0,0,0,0,0,0,0,0,-1,1455,743,0,0
238,281,0,0,0,0,0,0,0,0,0,-1,1462,743,0,0
245,281,0,0,0,0,0,0,0,0,0,-1,1469,743,0,0
252,281,0,0,0,0,0,0,0,0,0,-1,1476,743,0,0
259,281,0,0,0,0,0,0,0,0,0,-1,1483,743,0,0
266,281,0,0,0,0,0,0,0,0,0,-1,1490,743,0,0
273,281,0,0,0,0,0,0,0,0,0,-1,1497,743,0,0
280,281,0,0,0,0,0,0,0,0,0,-1,1504,743,0,0
287,281,0,0,0,0,0,0,0,0,0,-1,1511,743,0,0
294,281,0,0,0,0,0,0,0,0,0,-1,1518,743,0,0
301,281,0,0,0,0,0,0,0,0,0,-1,1525,743,0,0
308,281,0,0,0,0,0,0,0,0,0,-1,1532,743,0,0
315,281,0,0,0,0,0,0,0,0,0,-1,1539,743,0,0
322,281,0,0,0,0,0,0,0,0,0,-1,1546,743,0,0
329,281,0,0,0,0,0,0,0,0,0,-1,1553,743,0,0
336,281,0,0,0,0,0,0,0,0,0,-1,1560,743,0,0
343,281,0,0,0,0,0,0,0,0,0,-1,1567,743,0,0
350,281,0,0,0,0,0,0,0,0,0,-1,1574,743,0,0
357,281,0,0,0,0,0,0,0,0,0,-1,1581,743,0,0
364,281,0,0,0,0,0,0,0,0,0,-1,1588,743,0,0
371,281,0,0,0,0,0,0,0,0,0,-1,1595,743,0,0
378,281,0,0,0,0,0,0,0,0,0,-1,1602,743,0,0
385,281,0,0,0,0,0,0,0,0,0,-1,1609,743,0,0
392,281,0,0,0,0,0,0,0,0,0,-1,1616,743,0,0
399,281,0,0,0,0,0,0,0,0,0,-1,1623,743,0,0
406,281,0,0,0,0,0,0,0,0,0,-1,1630,743,0,0
413,281,0,0,0,0,0,0,0,0,0,-1,1637,743,0,0
420,281,0,0,0,0,0,0,0,0,0,-1,1644,743,0,0
427,281,0,0,0,0,0,0,0,0,0,-1,1651,743,0,0
434,281,0,0,0,0,0,0,0,0,0,-1,1658,743,0,0
441,281,0,0,0,0,0,0,0,0,0,-1,1665,743,0,0
448,281,0,0,0,0,0,0,0,0,0,-1,1672,743,0,0
455,281,0,0,0,0,0,0,0,0,0,-1,1679,743,0,0
462,281,0,0,0,0,0,0,0,0,0,-1,1686,743,0,0
469,281,0,0,0,0,0,0,0,0,0,-1,1693,743,0,0
476,281,0,0,0,0,0,0,0,0,0,-1,1700,743,0,0
483,281,0,0,0,0,0,0,0,0,0,-1,1707,743,0,0
490,281,0,0,0,0,0,0,0,0,0,-1,1714,743,0,0
497,281,0,0,0,0,0,0,0,0,0,-1,1721,743,0,0
504,281,0,0,0,0,0,0,0,0,0,-1,1728,743,0,0
511,281,0,0,0,0,0,0,0,0,0,-1,1735,743,0,0
518,281,0,0,0,0,0,0,0,0,0,-1,1742,743,0,0
525,281,0,0,0,0,0,0,0,0,0,-1,1749,743,0,0
532,281,0,0,0,0,0,0,0,0,0,-1,1756,743,0,0
539,281,0,0,0,0,0,0,0,0,0,-1,1763,743,0,0
546,281,0,0,0,0,0,0,0,0,0,-1,1770,743,0,0
553,281,0,0,0,0,0,0,0,0,0,-1,1777,743,0,0
560,281,57.8354,3.06482,0,0,0,0,0,0,0,-1,1784,743,57.8354,-3.06479
567,281,57.6156,3.64508,0,0,0,0,0,0,0,-1,1791,743,57.6156,-3.64511
574,281,57.3431,4.17767,0,0,0,0,0,0,0,-1,1798,743,57.3431,-4.17769
581,281,57.0648,4.53906,0,0,0,0,0,0,0,-1,1805,743,57.0648,-4.53908
588,281,53.5422,6.00092,0,0,0,0,0,0,0,-1,1812,743,53.5422,-6.00092
595,281,54.8569,3.32269,0,0,0,0,0,0,0,-1,1819,743,54.857,-3.32269
602,281,45.9985,3.98254,0,0,0,0,0,0,0,-1,1826,743,45.9985,-3.98254
609,281,32.7925,1.28723,0,0,0,0,0,0,0,-1,1833,743,32.7925,-1.28722
616,281,21.3191,-0.253906,0,0,0,0,0,0,0,-1,1840,743,21.3191,0.253931
623,281,31.8741,-4.74182,0,0,0,0,0,0,0,-1,1847,743,31.8741,4.74184
630,281,53.0988,-9.52094,0,0,0,0,0,0,0,-1,1854,743,53.0988,9.52092
637,281,53.1425,-8.61725,0.00234567,0.000450384,0.00102982,0.00279751,-1.45799e-06,0.413466,0.00186549,0.0297241,1861,743,53.1424,8.61723
644,281,53.1384,-7.57343,0.00118064,0.000603567,0.00053129,0.00149669,0.000287519,0.53664,0.000917099,0.0121588,1868,743,53.1385,7.57342
651,281,53.1071,-6.52026,0.000446281,0.000661104,9.51674e-05,0.000697199,0.000410187,1.20828,0.000404617,0.0129422,1875,743,53.1071,6.52027
658,281,53.0587,-5.49329,0.000437338,0.000746158,0.000102445,0.000777051,0.000406444,1.27791,0.00044879,0.0222305,1882,743,53.0587,5.49327
665,281,52.9907,-4.49658,0.000628641,0.00111019,0.000319219,0.00126925,0.000469573,1.10851,0.00074102,0.0228341,1889,743,52.9907,4.49657
672,281,52.8711,-3.47095,0.00102461,0.00161813,0.000645015,0.00203138,0.000611366,1.001,0.0012034,0.0145287,1896,743,52.8711,3.47095
679,281,52.8138,-2.45508,0.00173275,0.00235797,0.00117601,0.00326221,0.000828508,0.915306,0.00195797,0.0231052,1903,743,52.8138,2.45506
686,281,52.6659,-1.4447,0.00252088,0.00319362,0.00175719,0.00464634,0.00106815,0.879966,0.00281002,0.0190857,1910,743,52.6659,1.4447
693,281,52.6093,-0.376465,0.00360469,0.00432673,0.00251419,0.00650569,0.00142573,0.856707,0.00394863,0.0142129,1917,743,52.6093,0.376492
700,281,52.5753,0.704102,0,0,0,0,0,0,0,-1,1924,743,52.5753,-0.704104
707,281,51.9894,1.76056,0,0,0,0,0,0,0,-1,1931,743,51.9893,-1.76056
714,281,25.0125,2.5105,0,0,0,0,0,0,0,-1,1938,743,25.0124,-2.51053
721,281,16.9656,3.22174,0,0,0,0,0,0,0,-1,1945,743,16.9656,-3.22172
728,281,19.0251,3.63934,0,0,0,0,0,0,0,-1,1952,743,19.0252,-3.63932
735,281,19.0869,2.50311,0,0,0,0,0,0,0,-1,1959,743,19.0869,-2.5031
742,281,0,0,0,0,0,0,0,0,0,-1,1966,743,0,0
749,281,0,0,0,0,0,0,0,0,0,-1,1973,743,0,0
756,281,0,0,0,0,0,0,0,0,0,-1,1980,743,0,0
763,281,0,0,0,0,0,0,0,0,0,-1,1987,743,0,0
770,281,0,0,0,0,0,0,0,0,0,-1,1994,743,0,0
777,281,0,0,0,0,0,0,0,0,0,-1,2001,743,0,0
784,281,0,0,0,0,0,0,0,0,0,-1,2008,743,0,0
791,281,0,0,0,0,0,0,0,0,0,-1,2015,743,0,0
798,281,0,0,0,0,0,0,0,0,0,-1,2022,743,0,0
805,281,0,0,0,0,0,0,0,0,0,-1,2029,743,0,0
812,281,0,0,0,0,0,0,0,0,0,-1,2036,743,0,0
-700,274,0,0,0,0,0,0,0,0,0,-1,524,750,0,0
-693,274,0,0,0,0,0,0,0,0,0,-1,531,750,0,0
-686,274,0,0,0,0,0,0,0,0,0,-1,538,750,0,0
-679,274,0,0,0,0,0,0,0,0,0,-1,545,750,0,0
-672,274,0,0,0,0,0,0,0,0,0,-1,552,750,0,0
-665,274,0,0,0,0,0,0,0,0,0,-1,559,750,0,0
-658,274,0,0,0,0,0,0,0,0,0,-1,566,750,0,0
-651,274,0,0,0,0,0,0,0,0,0,-1,573,750,0,0
-644,274,0,0,0,0,0,0,0,0,0,-1,580,750,0,0
-637,274,0,0,0,0,0,0,0,0,0,-1,587,750,0,0
-630,274,0,0,0,0,0,0,0,0,0,-1,594,750,0,0
-623,274,-19.6909,5.12701,0,0,0,0,0,0,0,-1,601,750,-19.6908,-5.12703
-616,274,-17.9133,3.9024,0,0,0,0,0,0,0,-1,608,750,-17.9133,-3.90239
-609,274,-26.0861,5.57306,0,0,0,0,0,0,0,-1,615,750,-26.0861,-5.57307
-602,274,-25.7372,3.73846,0,0,0,0,0,0,0,-1,622,750,-25.7372,-3.73849
-595,274,-25.258,2.53473,0,0,0,0,0,0,0,-1,629,750,-25.258,-2.53474
-588,274,-24.9805,2.2334,0,0,0,0,0,0,0,-1,636,750,-24.9805,-2.23341
-581,274,-36.4299,2.66113,0,0,0,0,0,0,0,-1,643,750,-36.43,-2.66111
-574,274,-36.6747,1.20465,0,0,0,0,0,0,0,-1,650,750,-36.6747,-1.20468
-567,274,-36.7506,0.0639038,0.00147064,0.00677207,-0.00109593,0.00698969,0.00125302,-1.37477,0.00430336,0.0306791,657,750,-36.7506,-0.0638763
-560,274,-36.8212,-0.955994,0.000928576,0.00451575,-0.00051875,0.00458927,0.000855065,-1.43003,0.00281807,0.0161234,664,750,-36.8211,0.955996
-553,274,-36.9047,-2.01019,0.000495017,0.00283576,-0.000195676,0.002852,0.000478772,-1.48797,0.00176354,0.0107577,671,750,-36.9047,2.01022
-546,274,-36.9917,-3.02856,-5.40139e-05,0.00159514,6.15288e-05,0.00159743,-5.63063e-05,1.53356,0.00108421,0.0119467,678,750,-36.9917,3.02858
-539,274,-37.0601,-4.06567,-0.000611335,0.000436766,0.000330004,0.000532014,-0.000706584,1.2898,0.000717469,0.0120278,685,750,-37.0601,4.06566
-532,274,-37.13,-5.08496,-0.00111627,-0.000331677,0.000436864,-0.000136822,-0.00131112,1.15125,0.000832233,0.0139818,692,750,-37.13,5.08495
-525,274,-37.2179,-6.08832,-0.00132638,-0.000872525,0.000531926,-0.000521142,-0.00167776,0.987015,0.000991545,0.0153583,699,750,-37.2179,6.08829
-518,274,-37.2855,-7.172,-0.0014,-0.000807806,0.000841099,-0.000212209,-0.0019956,0.954642,0.00126561,0.0149599,706,750,-37.2855,7.17198
-511,274,-37.3433,-8.27081,-0.00162412,-0.00220372,0.00119503,-0.00068425,-0.00314359,0.666442,0.00190897,0.0259206,713,750,-37.3433,8.27082
-504,274,-37.4876,-9.40009,-0.00157629,-0.00387598,0.00162877,-0.00073239,-0.00471988,0.478041,0.0029331,0.0467407,720,750,-37.4876,9.4001
-497,274,-37.729,-10.5359,0,0,0,0,0,0,0,-1,727,750,-37.729,10.5359
-490,274,-13.6545,-3.58826,0,0,0,0,0,0,0,-1,734,750,-13.6546,3.58825
-483,274,-27.8608,1.30981,0,0,0,0,0,0,0,-1,741,750,-27.8608,-1.30979
-476,274,-33.7561,-0.508606,0,0,0,0,0,0,0,-1,748,750,-33.7561,0.508636
-469,274,-41.1387,0.907715,0,0,0,0,0,0,0,-1,755,750,-41.1387,-0.907744
-462,274,-56.4362,0.240723,0,0,0,0,0,0,0,-1,762,750,-56.4362,-0.240732
-455,274,-67.0597,-0.160278,0,0,0,0,0,0,0,-1,769,750,-67.0597,0.160256
-448,274,-56.1052,0.421143,0,0,0,0,0,0,0,-1,776,750,-56.1052,-0.421134
-441,274,0,0,0,0,0,0,0,0,0,-1,783,750,0,0
-434,274,0,0,0,0,0,0,0,0,0,-1,790,750,0,0
-427,274,0,0,0,0,0,0,0,0,0,-1,797,750,0,0
-420,274,0,0,0,0,0,0,0,0,0,-1,804,750,0,0
-413,274,0,0,0,0,0,0,0,0,0,-1,811,750,0,0
-406,274,0,0,0,0,0,0,0,0,0,-1,818,750,0,0
-399,274,0,0,0,0,0,0,0,0,0,-1,825,750,0,0
-392,274,0,0,0,0,0,0,0,0,0,-1,832,750,0,0
-385,274,0,0,0,0,0,0,0,0,0,-1,839,750,0,0
-378,274,0,0,0,0,0,0,0,0,0,-1,846,750,0,0
-371,274,0,0,0,0,0,0,0,0,0,-1,853,750,0,0
-364,274,0,0,0,0,0,0,0,0,0,-1,860,750,0,0
-357,274,0,0,0,0,0,0,0,0,0,-1,867,750,0,0
-350,274,0,0,0,0,0,0,0,0,0,-1,874,750,0,0
-343,274,0,0,0,0,0,0,0,0,0,-1,881,750,0,0
-336,274,0,0,0,0,0,0,0,0,0,-1,888,750,0,0
-329,274,0,0,0,0,0,0,0,0,0,-1,895,750,0,0
-322,274,0,0,0,0,0,0,0,0,0,-1,902,750,0,0
-315,274,0,0,0,0,0,0,0,0,0,-1,909,750,0,0
-308,274,0,0,0,0,0,0,0,0,0,-1,916,750,0,0
-301,274,0,0,0,0,0,0,0,0,0,-1,923,750,0,0
-294,274,0,0,0,0,0,0,0,0,0,-1,930,750,0,0
-287,274,0,0,0,0,0,0,0,0,0,-1,937,750,0,0
-280,274,0,0,0,0,0,0,0,0,0,-1,944,750,0,0
-273,274,0,0,0,0,0,0,0,0,0,-1,951,750,0,0
-266,274,0,0,0,0,0,0,0,0,0,-1,958,750,0,0
-259,274,0,0,0,0,0,0,0,0,0,-1,965,750,0,0
-252,274,0,0,0,0,0,0,0,0,0,-1,972,750,0,0
-245,274,0,0,0,0,0,0,0,0,0,-1,979,750,0,0
-238,274,0,0,0,0,0,0,0,0,0,-1,986,750,0,0
-231,274,0,0,0,0,0,0,0,0,0,-1,993,750,0,0
-224,274,0,0,0,0,0,0,0,0,0,-1,1000,750,0,0
-217,274,0,0,0,0,0,0,0,0,0,-1,1007,750,0,0
-210,274,0,0,0,0,0,0,0,0,0,-1,1014,750,0,0
-203,274,0,0,0,0,0,0,0,0,0,-1,1021,750,0,0
-196,274,0,0,0,0,0,0,0,0,0,-1,1028,750,0,0
-189,274,0,0,0,0,0,0,0,0,0,-1,1035,750,0,0
-182,274,0,0,0,0,0,0,0,0,0,-1,1042,750,0,0
-175,274,0,0,0,0,0,0,0,0,0,-1,1049,750,0,0
-168,274,0,0,0,0,0,0,0,0,0,-1,1056,750,0,0
-161,274,0,0,0,0,0,0,0,0,0,-1,1063,750,0,0
-154,274,0,0,0,0,0,0,0,0,0,-1,1070,750,0,0
-147,274,0,0,0,0,0,0,0,0,0,-1,1077,750,0,0
-140,274,0,0,0,0,0,0,0,0,0,-1,1084,750,0,0
-133,274,0,0,0,0,0,0,0,0,0,-1,1091,750,0,0
-126,274,0,0,0,0,0,0,0,0,0,-1,1098,750,0,0
-119,274,0,0,0,0,0,0,0,0,0,-1,1105,750,0,0
-112,274,0,0,0,0,0,0,0,0,0,-1,1112,750,0,0
-105,274,0,0,0,0,0,0,0,0,0,-1,1119,750,0,0
-98,274,0,0,0,0,0,0,0,0,0,-1,1126,750,0,0
-91,274,0,0,0,0,0,0,0,0,0,-1,1133,750,0,0
-84,274,0,0,0,0,0,0,0,0,0,-1,1140,750,0,0
-77,274,0,0,0,0,0,0,0,0,0,-1,1147,750,0,0
-70,274,0,0,0,0,0,0,0,0,0,-1,1154,750,0,0
-63,274,0,0,0,0,0,0,0,0,0,-1,1161,750,0,0
-56,274,0,0,0,0,0,0,0,0,0,-1,1168,750,0,0
-49,274,0,0,0,0,0,0,0,0,0,-1,1175,750,0,0
-42,274,0,0,0,0,0,0,0,0,0,-1,1182,750,0,0
-35,274,0,0,0,0,0,0,0,0,0,-1,1189,750,0,0
-28,274,0,0,0,0,0,0,0,0,0,-1,1196,750,0,0
-21,274,0,0,0,0,0,0,0,0,0,-1,1203,750,0,0
-14,274,0,0,0,0,0,0,0,0,0,-1,1210,750,0,0
-7,274,0,0,0,0,0,0,0,0,0,-1,1217,750,0,0
0,274,0,0,0,0,0,0,0,0,0,-1,1224,750,0,0
7,274,0,0,0,0,0,0,0,0,0,-1,1231,750,0,0
14,274,0,0,0,0,0,0,0,0,0,-1,1238,750,0,0
21,274,0,0,0,0,0,0,0,0,0,-1,1245,750,0,0
28,274,0,0,0,0,0,0,0,0,0,-1,1252,750,0,0
35,274,0,0,0,0,0,0,0,0,0,-1,1259,750,0,0
42,274,0,0,0,0,0,0,0,0,0,-1,1266,750,0,0
49,274,0,0,0,0,0,0,0,0,0,-1,1273,750,0,0
56,274,0,0,0,0,0,0,0,0,0,-1,1280,750,0,0
63,274,0,0,0,0,0,0,0,0,0,-1,1287,750,0,0
70,274,0,0,0,0,0,0,0,0,0,-1,1294,750,0,0
77,274,0,0,0,0,0,0,0,0,0,-1,1301,750,0,0
84,274,0,0,0,0,0,0,0,0,0,-1,1308,750,0,0
91,274,0,0,0,0,0,0,0,0,0,-1,1315,750,0,0
98,274,0,0,0,0,0,0,0,0,0,-1,1322,750,0,0
105,274,0,0,0,0,0,0,0,0,0,-1,1329,750,0,0
112,274,0,0,0,0,0,0,0,0,0,-1,1336,750,0,0
119,274,0,0,0,0,0,0,0,0,0,-1,1343,750,0,0
126,274,0,0,0,0,0,0,0,0,0,-1,1350,750,0,0
133,274,0,0,0,0,0,0,0,0,0,-1,1357,750,0,0
140,274,0,0,0,0,0,0,0,0,0,-1,1364,750,0,0
147,274,0,0,0,0,0,0,0,0,0,-1,1371,750,0,0
154,274,0,0,0,0,0,0,0,0,0,-1,1378,750,0,0
161,274,0,0,0,0,0,0,0,0,0,-1,1385,750,0,0
168,274,0,0,0,0,0,0,0,0,0,-1,1392,750,0,0
175,274,0,0,0,0,0,0,0,0,0,-1,1399,750,0,0
182,274,0,0,0,0,0,0,0,0,0,-1,1406,750,0,0
189,274,0,0,0,0,0,0,0,0,0,-1,1413,750,0,0
196,274,0,0,0,0,0,0,0,0,0,-1,1420,750,0,0
203,274,0,0,0,0,0,0,0,0,0,-1,1427,750,0,0
210,274,0,0,0,0,0,0,0,0,0,-1,1434,750,0,0
217,274,0,0,0,0,0,0,0,0,0,-1,1441,750,0,0
224,274,0,0,0,0,0,0,0,0,0,-1,1448,750,0,0
231,274,0,0,0,0,0,0,0,0,0,-1,1455,750,0,0
238,274,0,0,0,0,0,0,0,0,0,-1,1462,750,0,0
245,274,0,0,0,0,0,0,0,0,0,-1,1469,750,0,0
252,274,0,0,0,0,0,0,0,0,0,-1,1476,750,0,0
259,274,0,0,0,0,0,0,0,0,0,-1,1483,750,0,0
266,274,0,0,0,0,0,0,0,0,0,-1,1490,750,0,0
273,274,0,0,0,0,0,0,0,0,0,-1,1497,750,0,0
280,274,0,0,0,0,0,0,0,0,0,-1,1504,750,0,0
287,274,0,0,0,0,0,0,0,0,0,-1,1511,750,0,0
294,274,0,0,0,0,0,0,0,0,0,-1,1518,750,0,0
301,274,0,0,0,0,0,0,0,0,0,-1,1525,750,0,0
308,274,0,0,0,0,0,0,0,0,0,-1,1532,750,0,0
315,274,0,0,0,0,0,0,0,0,0,-1,1539,750,0,0
322,274,0,0,0,0,0,0,0,0,0,-1,1546,750,0,0
329,274,0,0,0,0,0,0,0,0,0,-1,1553,750,0,0
336,274,0,0,0,0,0,0,0,0,0,-1,1560,750,0,0
343,274,0,0,0,0,0,0,0,0,0,-1,1567,750,0,0
350,274,0,0,0,0,0,0,0,0,0,-1,1574,750,0,0
357,274,0,0,0,0,0,0,0,0,0,-1,1581,750,0,0
364,274,0,0,0,0,0,0,0,0,0,-1,1588,750,0,0
371,274,0,0,0,0,0,0,0,0,0,-1,1595,750,0,0
378,274,0,0,0,0,0,0,0,0,0,-1,1602,750,0,0
385,274,0,0,0,0,0,0,0,0,0,-1,1609,750,0,0
392,274,0,0,0,0,0,0,0,0,0,-1,1616,750,0,0
399,274,0,0,0,0,0,0,0,0,0,-1,1623,750,0,0
406,274,0,0,0,0,0,0,0,0,0,-1,1630,750,0,0
413,274,0,0,0,0,0,0,0,0,0,-1,1637,750,0,0
420,274,0,0,0,0,0,0,0,0,0,-1,1644,750,0,0
427,274,0,0,0,0,0,0,0,0,0,-1,1651,750,0,0
434,274,0,0,0,0,0,0,0,0,0,-1,1658,750,0,0
441,274,0,0,0,0,0,0,0,0,0,-1,1665,750,0,0
448,274,0,0,0,0,0,0,0,0,0,-1,1672,750,0,0
455,274,0,0,0,0,0,0,0,0,0,-1,1679,750,0,0
462,274,0,0,0,0,0,0,0,0,0,-1,1686,750,0,0
469,274,0,0,0,0,0,0,0,0,0,-1,1693,750,0,0
476,274,0,0,0,0,0,0,0,0,0,-1,1700,750,0,0
483,274,0,0,0,0,0,0,0,0,0,-1,1707,750,0,0
490,274,0,0,0,0,0,0,0,0,0,-1,1714,750,0,0
497,274,0,0,0,0,0,0,0,0,0,-1,1721,750,0,0
504,274,0,0,0,0,0,0,0,0,0,-1,1728,750,0,0
511,274,0,0,0,0,0,0,0,0,0,-1,1735,750,0,0
518,274,0,0,0,0,0,0,0,0,0,-1,1742,750,0,0
525,274,0,0,0,0,0,0,0,0,0,-1,1749,750,0,0
532,274,0,0,0,0,0,0,0,0,0,-1,1756,750,0,0
539,274,0,0,0,0,0,0,0,0,0,-1,1763,750,0,0
546,274,0,0,0,0,0,0,0,0,0,-1,1770,750,0,0
553,274,0,0,0,0,0,0,0,0,0,-1,1777,750,0,0
560,274,57.9182,3.24518,0,0,0,0,0,0,0,-1,1784,750,57.9182,-3.24516
567,274,57.8315,3.4137,0,0,0,0,0,0,0,-1,1791,750,57.8315,-3.41368
574,274,58.2571,3.11115,0,0,0,0,0,0,0,-1,1798,750,58.2571,-3.11114
581,274,54.4941,4.68127,0,0,0,0,0,0,0,-1,1805,750,54.4941,-4.68125
588,274,53.9908,5.6676,0,0,0,0,0,0,0,-1,1812,750,53.9908,-5.66763
595,274,66.2316,2.66986,0,0,0,0,0,0,0,-1,1819,750,66.2315,-2.66988
602,274,55.6321,2.56519,0,0,0,0,0,0,0,-1,1826,750,55.6321,-2.56521
609,274,44.6676,3.10461,0,0,0,0,0,0,0,-1,1833,750,44.6676,-3.1046
616,274,32.7869,1.78436,0,0,0,0,0,0,0,-1,1840,750,32.7868,-1.78437
623,274,24.8231,-1.80353,0,0,0,0,0,0,0,-1,1847,750,24.8232,1.80351
630,274,54.4012,-9.61914,0,0,0,0,0,0,0,-1,1854,750,54.4012,9.61917
637,274,54.1415,-8.66193,0.00203431,0.000491734,0.00110137,0.0026076,-8.15563e-05,0.479933,0.00176622,0.0396706,1861,750,54.1415,8.6619
644,274,54.125,-7.54065,0.000837691,0.000682077,0.000641668,0.00140625,0.000113516,0.725064,0.000902046,0.0182351,1868,750,54.125,7.54065
651,274,54.1107,-6.4585,-9.83884e-05,0.000732561,-4.68367e-06,0.000732587,-9.84148e-05,-1.56516,0.000524284,0.0150771,1875,750,54.1107,6.45848
658,274,54.0591,-5.43121,-0.000189053,0.000635292,-0.000174019,0.000670522,-0.000224283,-1.37105,0.000537603,0.0182267,1882,750,54.0591,5.43123
665,274,53.9768,-4.42957,-1.11312e-05,0.00086112,-5.84606e-05,0.000865021,-1.5032e-05,-1.50417,0.000581756,0.0187633,1889,750,53.9769,4.42954
672,274,53.8842,-3.40637,0.000354706,0.00127923,0.000192573,0.00131774,0.000316198,1.37343,0.000794354,0.0155901,1896,750,53.8841,3.40637
679,274,53.8232,-2.36292,0.00101035,0.00194678,0.000670276,0.00229618,0.000660952,1.09027,0.0013649,0.0168918,1903,750,53.8233,2.36291
686,274,53.7238,-1.33087,0.00172554,0.00271859,0.00117986,0.00350215,0.000941979,0.984565,0.00209268,0.0194464,1910,750,53.7237,1.33085
693,274,53.6249,-0.287476,0.00265702,0.00369746,0.0018152,0.00506551,0.00128897,0.924953,0.00303985,0.0137776,1917,750,53.6249,0.287464
700,274,53.5708,0.782349,0.00387259,0.00494331,0.00266829,0.00712942,0.00168648,0.884403,0.00430241,0.021515,1924,750,53.5709,-0.782337
707,274,53.5317,1.86224,0,0,0,0,0,0,0,-1,1931,750,53.5317,-1.86222
714,274,49.125,2.56622,0,0,0,0,0,0,0,-1,1938,750,49.1251,-2.5662
721,274,25.6215,3.91144,0,0,0,0,0,0,0,-1,1945,750,25.6214,-3.91141
728,274,19.2209,3.95154,0,0,0,0,0,0,0,-1,1952,750,19.221,-3.95151
735,274,20.6608,4.10931,0,0,0,0,0,0,0,-1,1959,750,20.6607,-4.10932
742,274,11.7815,-0.740234,0,0,0,0,0,0,0,-1,1966,750,11.7815,0.740253
749,274,0,0,0,0,0,0,0,0,0,-1,1973,750,0,0
756,274,0,0,0,0,0,0,0,0,0,-1,1980,750,0,0
763,274,0,0,0,0,0,0,0,0,0,-1,1987,750,0,0
770,274,0,0,0,0,0,0,0,0,0,-1,1994,750,0,0
777,274,0,0,0,0,0,0,0,0,0,-1,2001,750,0,0
784,274,0,0,0,0,0,0,0,0,0,-1,2008,750,0,0
791,274,0,0,0,0,0,0,0,0,0,-1,2015,750,0,0
798,274,0,0,0,0,0,0,0,0,0,-1,2022,750,0,0
805,274,0,0,0,0,0,0,0,0,0,-1,2029,750,0,0
812,274,0,0,0,0,0,0,0,0,0,-1,2036,750,0,0
-700,267,0,0,0,0,0,0,0,0,0,-1,524,757,0,0
-693,267,0,0,0,0,0,0,0,0,0,-1,531,757,0,0
-686,267,0,0,0,0,0,0,0,0,0,-1,538,757,0,0
-679,267,0,0,0,0,0,0,0,0,0,-1,545,757,0,0
-672,267,0,0,0,0,0,0,0,0,0,-1,552,757,0,0
-665,267,0,0,0,0,0,0,0,0,0,-1,559,757,0,0
-658,267,0,0,0,0,0,0,0,0,0,-1,566,757,0,0
-651,267,0,0,0,0,0,0,0,0,0,-1,573,757,0,0
-644,267,0,0,0,0,0,0,0,0,0,-1,580,757,0,0
-637,267,0,0,0,0,0,0,0,0,0,-1,587,757,0,0
-630,267,-21.3979,5.17529,0,0,0,0,0,0,0,-1,594,757,-21.3979,-5.17529
-623,267,-20.043,4.43115,0,0,0,0,0,0,0,-1,601,757,-20.043,-4.43116
-616,267,-27.1628,5.9325,0,0,0,0,0,0,0,-1,608,757,-27.1629,-5.93249
-609,267,-26.9868,4.99658,0,0,0,0,0,0,0,-1,615,757,-26.9868,-4.99656
-602,267,-26.6637,3.74072,0,0,0,0,0,0,0,-1,622,757,-26.6637,-3.74075
-595,267,-32.7299,2.1203,0,0,0,0,0,0,0,-1,629,757,-32.7299,-2.12028
-588,267,-37.4795,3.68719,0,0,0,0,0,0,0,-1,636,757,-37.4795,-3.6872
-581,267,-37.4943,2.44855,0.00303014,0.0111938,-0.00379212,0.0126834,0.00154047,-1.19648,0.00799178,0.0493841,643,757,-37.4942,-2.44857
-574,267,-37.5536,1.23212,0.00231408,0.00828921,-0.0022318,0.00903079,0.00157251,-1.25,0.00557084,0.0289055,650,757,-37.5536,-1.23212
-567,267,-37.7755,0.171204,0.00171434,0.00569589,-0.00111931,0.00598898,0.00142125,-1.3147,0.00361331,0.0320483,657,757,-37.7755,-0.171206
-560,267,-37.877,-0.81604,0.000959418,0.00381853,-0.000470822,0.00389407,0.000883882,-1.41172,0.00235732,0.0251674,664,757,-37.877,0.816035
-553,267,-37.9446,-1.91486,0.000297022,0.00243889,-8.47754e-05,0.00244224,0.000293672,-1.5313,0.00153963,0.0200498,671,757,-37.9446,1.91483
-546,267,-38.022,-2.95715,-0.000458232,0.00140323,0.000213249,0.00142735,-0.00048235,1.45818,0.00114668,0.0128415,678,757,-38.022,2.95713
-539,267,-38.0781,-4.01172,-0.00118197,0.000364724,0.000449588,0.000485913,-0.00130316,1.3075,0.00106824,0.0125257,685,757,-38.0781,4.01171
-532,267,-38.1149,-5.04681,-0.00173201,-0.000324135,0.000452616,-0.000191181,-0.00186497,1.28509,0.00118474,0.0143273,692,757,-38.1149,5.0468
-525,267,-38.2335,-6.04248,-0.00174396,-0.000797793,0.000463141,-0.000608828,-0.00193292,1.18341,0.00114116,0.0141351,699,757,-38.2335,6.0425
-518,267,-38.35,-7.09546,-0.00164118,-0.000639764,0.000747764,-0.00024055,-0.00204039,1.08042,0.00128759,0.0197384,706,757,-38.35,7.09543
-511,267,-38.3321,-8.20447,-0.00176275,-0.00219326,0.00104862,-0.000907522,-0.00304849,0.684167,0.00180743,0.0422285,713,757,-38.3321,8.20447
-504,267,-38.2525,-9.29724,0,0,0,0,0,0,0,-1,720,757,-38.2525,9.29724
-497,267,-31.5913,-8.72119,0,0,0,0,0,0,0,-1,727,757,-31.5913,8.72117
-490,267,-23.4949,-0.494995,0,0,0,0,0,0,0,-1,734,757,-23.4949,0.494981
-483,267,-33.2785,-0.448425,0,0,0,0,0,0,0,-1,741,757,-33.2785,0.448407
-476,267,-40.2954,0.52002,0,0,0,0,0,0,0,-1,748,757,-40.2954,-0.520037
-469,267,-52.9857,0.187744,0,0,0,0,0,0,0,-1,755,757,-52.9857,-0.187726
-462,267,-66.8421,-0.0263062,0,0,0,0,0,0,0,-1,762,757,-66.8421,0.0263204
-455,267,-66.9923,0.284973,0,0,0,0,0,0,0,-1,769,757,-66.9923,-0.284981
-448,267,-66.5237,0.618652,0,0,0,0,0,0,0,-1,776,757,-66.5238,-0.618642
-441,267,0,0,0,0,0,0,0,0,0,-1,783,757,0,0
-434,267,0,0,0,0,0,0,0,0,0,-1,790,757,0,0
-427,267,0,0,0,0,0,0,0,0,0,-1,797,757,0,0
-420,267,0,0,0,0,0,0,0,0,0,-1,804,757,0,0
-413,267,0,0,0,0,0,0,0,0,0,-1,811,757,0,0
-406,267,0,0,0,0,0,0,0,0,0,-1,818,757,0,0
-399,267,0,0,0,0,0,0,0,0,0,-1,825,757,0,0
-392,267,0,0,0,0,0,0,0,0,0,-1,832,757,0,0
-385,267,0,0,0,0,0,0,0,0,0,-1,839,757,0,0
-378,267,0,0,0,0,0,0,0,0,0,-1,846,757,0,0
-371,267,0,0,0,0,0,0,0,0,0,-1,853,757,0,0
-364,267,0,0,0,0,0,0,0,0,0,-1,860,757,0,0
-357,267,0,0,0,0,0,0,0,0,0,-1,867,757,0,0
-350,267,0,0,0,0,0,0,0,0,0,-1,874,757,0,0
-343,267,0,0,0,0,0,0,0,0,0,-1,881,757,0,0
-336,267,0,0,0,0,0,0,0,0,0,-1,888,757,0,0
-329,267,0,0,0,0,0,0,0,0,0,-1,895,757,0,0
-322,267,0,0,0,0,0,0,0,0,0,-1,902,757,0,0
-315,267,0,0,0,0,0,0,0,0,0,-1,909,757,0,0
-308,267,0,0,0,0,0,0,0,0,0,-1,916,757,0,0
-301,267,0,0,0,0,0,0,0,0,0,-1,923,757,0,0
-294,267,0,0,0,0,0,0,0,0,0,-1,930,757,0,0
-287,267,0,0,0,0,0,0,0,0,0,-1,937,757,0,0
-280,267,0,0,0,0,0,0,0,0,0,-1,944,757,0,0
-273,267,0,0,0,0,0,0,0,0,0,-1,951,757,0,0
-266,267,0,0,0,0,0,0,0,0,0,-1,958,757,0,0
-259,267,0,0,0,0,0,0,0,0,0,-1,965,757,0,0
-252,267,0,0,0,0,0,0,0,0,0,-1,972,757,0,0
-245,267,0,0,0,0,0,0,0,0,0,-1,979,757,0,0
-238,267,0,0,0,0,0,0,0,0,0,-1,986,757,0,0
-231,267,0,0,0,0,0,0,0,0,0,-1,993,757,0,0
-224,267,0,0,0,0,0,0,0,0,0,-1,1000,757,0,0
-217,267,0,0,0,0,0,0,0,0,0,-1,1007,757,0,0
-210,267,0,0,0,0,0,0,0,0,0,-1,1014,757,0,0
-203,267,0,0,0,0,0,0,0,0,0,-1,1021,757,0,0
-196,267,0,0,0,0,0,0,0,0,0,-1,1028,757,0,0
-189,267,0,0,0,0,0,0,0,0,0,-1,1035,757,0,0
-182,267,0,0,0,0,0,0,0,0,0,-1,1042,757,0,0
-175,267,0,0,0,0,0,0,0,0,0,-1,1049,757,0,0
-168,267,0,0,0,0,0,0,0,0,0,-1,1056,757,0,0
-161,267,0,0,0,0,0,0,0,0,0,-1,1063,757,0,0
-154,267,0,0,0,0,0,0,0,0,0,-1,1070,757,0,0
-147,267,0,0,0,0,0,0,0,0,0,-1,1077,757,0,0
-140,267,0,0,0,0,0,0,0,0,0,-1,1084,757,0,0
-133,267,0,0,0,0,0,0,0,0,0,-1,1091,757,0,0
-126,267,0,0,0,0,0,0,0,0,0,-1,1098,757,0,0
-119,267,0,0,0,0,0,0,0,0,0,-1,1105,757,0,0
-112,267,0,0,0,0,0,0,0,0,0,-1,1112,757,0,0
-105,267,0,0,0,0,0,0,0,0,0,-1,1119,757,0,0
-98,267,0,0,0,0,0,0,0,0,0,-1,1126,757,0,0
-91,267,0,0,0,0,0,0,0,0,0,-1,1133,757,0,0
-84,267,0,0,0,0,0,0,0,0,0,-1,1140,757,0,0
-77,267,0,0,0,0,0,0,0,0,0,-1,1147,757,0,0
-70,267,0,0,0,0,0,0,0,0,0,-1,1154,757,0,0
-63,267,0,0,0,0,0,0,0,0,0,-1,1161,757,0,0
-56,267,0,0,0,0,0,0,0,0,0,-1,1168,757,0,0
-49,267,0,0,0,0,0,0,0,0,0,-1,1175,757,0,0
-42,267,0,0,0,0,0,0,0,0,0,-1,1182,757,0,0
-35,267,0,0,0,0,0,0,0,0,0,-1,1189,757,0,0
-28,267,0,0,0,0,0,0,0,0,0,-1,1196,757,0,0
-21,267,0,0,0,0,0,0,0,0,0,-1,1203,757,0,0
-14,267,0,0,0,0,0,0,0,0,0,-1,1210,757,0,0
-7,267,0,0,0,0,0,0,0,0,0,-1,1217,757,0,0
0,267,0,0,0,0,0,0,0,0,0,-1,1224,757,0,0
7,267,0,0,0,0,0,0,0,0,0,-1,1231,757,0,0
14,267,0,0,0,0,0,0,0,0,0,-1,1238,757,0,0
21,267,0,0,0,0,0,0,0,0,0,-1,1245,757,0,0
28,267,0,0,0,0,0,0,0,0,0,-1,1252,757,0,0
35,267,0,0,0,0,0,0,0,0,0,-1,1259,757,0,0
42,267,0,0,0,0,0,0,0,0,0,-1,1266,757,0,0
49,267,0,0,0,0,0,0,0,0,0,-1,1273,757,0,0
56,267,0,0,0,0,0,0,0,0,0,-1,1280,757,0,0
63,267,0,0,0,0,0,0,0,0,0,-1,1287,757,0,0
70,267,0,0,0,0,0,0,0,0,0,-1,1294,757,0,0
77,267,0,0,0,0,0,0,0,0,0,-1,1301,757,0,0
84,267,0,0,0,0,0,0,0,0,0,-1,1308,757,0,0
91,267,0,0,0,0,0,0,0,0,0,-1,1315,757,0,0
98,267,0,0,0,0,0,0,0,0,0,-1,1322,757,0,0
105,267,0,0,0,0,0,0,0,0,0,-1,1329,757,0,0
112,267,0,0,0,0,0,0,0,0,0,-1,1336,757,0,0
119,267,0,0,0,0,0,0,0,0,0,-1,1343,757,0,0
126,267,0,0,0,0,0,0,0,0,0,-1,1350,757,0,0
133,267,0,0,0,0,0,0,0,0,0,-1,1357,757,0,0
140,267,0,0,0,0,0,0,0,0,0,-1,1364,757,0,0
147,267,0,0,0,0,0,0,0,0,0,-1,1371,757,0,0
154,267,0,0,0,0,0,0,0,0,0,-1,1378,757,0,0
161,267,0,0,0,0,0,0,0,0,0,-1,1385,757,0,0
168,267,0,0,0,0,0,0,0,0,0,-1,1392,757,0,0
175,267,0,0,0,0,0,0,0,0,0,-1,1399,757,0,0
182,267,0,0,0,0,0,0,0,0,0,-1,1406,757,0,0
189,267,0,0,0,0,0,0,0,0,0,-1,1413,757,0,0
196,267,0,0,0,0,0,0,0,0,0,-1,1420,757,0,0
203,267,0,0,0,0,0,0,0,0,0,-1,1427,757,0,0
210,267,0,0,0,0,0,0,0,0,0,-1,1434,757,0,0
217,267,0,0,0,0,0,0,0,0,0,-1,1441,757,0,0
224,267,0,0,0,0,0,0,0,0,0,-1,1448,757,0,0
231,267,0,0,0,0,0,0,0,0,0,-1,1455,757,0,0
238,267,0,0,0,0,0,0,0,0,0,-1,1462,757,0,0
245,267,0,0,0,0,0,0,0,0,0,-1,1469,757,0,0
252,267,0,0,0,0,0,0,0,0,0,-1,1476,757,0,0
259,267,0,0,0,0,0,0,0,0,0,-1,1483,757,0,0
266,267,0,0,0,0,0,0,0,0,0,-1,1490,757,0,0
273,267,0,0,0,0,0,0,0,0,0,-1,1497,757,0,0
280,267,0,0,0,0,0,0,0,0,0,-1,1504,757,0,0
287,267,0,0,0,0,0,0,0,0,0,-1,1511,757,0,0
294,267,0,0,0,0,0,0,0,0,0,-1,1518,757,0,0
301,267,0,0,0,0,0,0,0,0,0,-1,1525,757,0,0
308,267,0,0,0,0,0,0,0,0,0,-1,1532,757,0,0
315,267,0,0,0,0,0,0,0,0,0,-1,1539,757,0,0
322,267,0,0,0,0,0,0,0,0,0,-1,1546,757,0,0
329,267,0,0,0,0,0,0,0,0,0,-1,1553,757,0,0
336,267,0,0,0,0,0,0,0,0,0,-1,1560,757,0,0
343,267,0,0,0,0,0,0,0,0,0,-1,1567,757,0,0
350,267,0,0,0,0,0,0,0,0,0,-1,1574,757,0,0
357,267,0,0,0,0,0,0,0,0,0,-1,1581,757,0,0
364,267,0,0,0,0,0,0,0,0,0,-1,1588,757,0,0
371,267,0,0,0,0,0,0,0,0,0,-1,1595,757,0,0
378,267,0,0,0,0,0,0,0,0,0,-1,1602,757,0,0
385,267,0,0,0,0,0,0,0,0,0,-1,1609,757,0,0
392,267,0,0,0,0,0,0,0,0,0,-1,1616,757,0,0
399,267,0,0,0,0,0,0,0,0,0,-1,1623,757,0,0
406,267,0,0,0,0,0,0,0,0,0,-1,1630,757,0,0
413,267,0,0,0,0,0,0,0,0,0,-1,1637,757,0,0
420,267,0,0,0,0,0,0,0,0,0,-1,1644,757,0,0
427,267,0,0,0,0,0,0,0,0,0,-1,1651,757,0,0
434,267,0,0,0,0,0,0,0,0,0,-1,1658,757,0,0
441,267,0,0,0,0,0,0,0,0,0,-1,1665,757,0,0
448,267,0,0,0,0,0,0,0,0,0,-1,1672,757,0,0
455,267,0,0,0,0,0,0,0,0,0,-1,1679,757,0,0
462,267,0,0,0,0,0,0,0,0,0,-1,1686,757,0,0
469,267,0,0,0,0,0,0,0,0,0,-1,1693,757,0,0
476,267,0,0,0,0,0,0,0,0,0,-1,1700,757,0,0
483,267,0,0,0,0,0,0,0,0,0,-1,1707,757,0,0
490,267,0,0,0,0,0,0,0,0,0,-1,1714,757,0,0
497,267,0,0,0,0,0,0,0,0,0,-1,1721,757,0,0
504,267,0,0,0,0,0,0,0,0,0,-1,1728,757,0,0
511,267,0,0,0,0,0,0,0,0,0,-1,1735,757,0,0
518,267,0,0,0,0,0,0,0,0,0,-1,1742,757,0,0
525,267,0,0,0,0,0,0,0,0,0,-1,1749,757,0,0
532,267,0,0,0,0,0,0,0,0,0,-1,1756,757,0,0
539,267,0,0,0,0,0,0,0,0,0,-1,1763,757,0,0
546,267,0,0,0,0,0,0,0,0,0,-1,1770,757,0,0
553,267,0,0,0,0,0,0,0,0,0,-1,1777,757,0,0
560,267,0,0,0,0,0,0,0,0,0,-1,1784,757,0,0
567,267,58.0104,3.24304,0,0,0,0,0,0,0,-1,1791,757,58.0104,-3.24306
574,267,64.5414,2.91858,0,0,0,0,0,0,0,-1,1798,757,64.5414,-2.91855
581,267,58.374,2.95636,0,0,0,0,0,0,0,-1,1805,757,58.3741,-2.95639
588,267,65.9681,2.6438,0,0,0,0,0,0,0,-1,1812,757,65.9682,-2.64382
595,267,66.191,2.60791,0,0,0,0,0,0,0,-1,1819,757,66.191,-2.60792
602,267,66.4139,2.57202,0,0,0,0,0,0,0,-1,1826,757,66.4139,-2.57203
609,267,54.5498,3.24054,0,0,0,0,0,0,0,-1,1833,757,54.5498,-3.24052
616,267,44.2543,3.28918,0,0,0,0,0,0,0,-1,1840,757,44.2542,-3.28918
623,267,24.1475,-1.1391,0,0,0,0,0,0,0,-1,1847,757,24.1475,1.13913
630,267,40.7198,-5.42108,0,0,0,0,0,0,0,-1,1854,757,40.7198,5.4211
637,267,55.0813,-8.4118,0,0,0,0,0,0,0,-1,1861,757,55.0813,8.41179
644,267,55.1414,-7.56226,0.00048119,0.000778016,0.000607487,0.00125496,4.24997e-06,0.905205,0.000835224,0.0326814,1868,757,55.1414,7.56223
651,267,55.0819,-6.3493,-0.000535895,0.00086052,-8.62589e-05,0.000865828,-0.000541203,-1.50934,0.000819525,0.0224044,1875,757,55.0819,6.34931
658,267,55.0648,-5.37463,-0.000692507,0.000604791,-0.000382316,0.000709077,-0.000796793,-1.3045,0.000869906,0.0157668,1882,757,55.0648,5.37464
665,267,54.9761,-4.35779,-0.000501872,0.000669066,-0.000373558,0.000778089,-0.000610895,-1.28683,0.000803865,0.0164629,1889,757,54.9761,4.35778
672,267,54.9148,-3.33563,-0.000150784,0.000976025,-0.000208457,0.00101335,-0.000188111,-1.39361,0.000746217,0.0151953,1896,757,54.9149,3.33565
679,267,54.8656,-2.29321,0.000446923,0.00155312,0.000206575,0.00159044,0.000409605,1.39207,0.000953548,0.0144315,1903,757,54.8655,2.29322
686,267,54.771,-1.23615,0.00110713,0.00225423,0.000656219,0.00255222,0.000809137,1.14454,0.00150605,0.0190128,1910,757,54.7709,1.23615
693,267,54.6559,-0.237671,0.00191514,0.00309128,0.00119177,0.00383217,0.00117425,1.01459,0.00226711,0.0184589,1917,757,54.6558,0.237671
700,267,54.6,0.792603,0.0029519,0.00415865,0.00189373,0.0055428,0.00156774,0.939622,0.00329921,0.0164271,1924,757,54.5999,-0.792585
707,267,54.5902,1.83514,0.00399443,0.00536468,0.00248328,0.00725561,0.0021035,0.919998,0.00431052,0.0291155,1931,757,54.5903,-1.83515
714,267,54.5875,2.96558,0,0,0,0,0,0,0,-1,1938,757,54.5876,-2.96556
721,267,47.0829,3.73804,0,0,0,0,0,0,0,-1,1945,757,47.0828,-3.73803
728,267,26.7886,3.90027,0,0,0,0,0,0,0,-1,1952,757,26.7886,-3.90028
735,267,24.6713,2.82483,0,0,0,0,0,0,0,-1,1959,757,24.6713,-2.82483
742,267,18.1177,3.56561,0,0,0,0,0,0,0,-1,1966,757,18.1176,-3.56564
749,267,0,0,0,0,0,0,0,0,0,-1,1973,757,0,0
756,267,0,0,0,0,0,0,0,0,0,-1,1980,757,0,0
763,267,0,0,0,0,0,0,0,0,0,-1,1987,757,0,0
770,267,0,0,0,0,0,0,0,0,0,-1,1994,757,0,0
777,267,0,0,0,0,0,0,0,0,0,-1,2001,757,0,0
784,267,0,0,0,0,0,0,0,0,0,-1,2008,757,0,0
791,267,0,0,0,0,0,0,0,0,0,-1,2015,757,0,0
798,267,0,0,0,0,0,0,0,0,0,-1,2022,757,0,0
805,267,0,0,0,0,0,0,0,0,0,-1,2029,757,0,0
812,267,0,0,0,0,0,0,0,0,0,-1,2036,757,0,0
-700,260,0,0,0,0,0,0,0,0,0,-1,524,764,0,0
-693,260,0,0,0,0,0,0,0,0,0,-1,531,764,0,0
-686,260,0,0,0,0,0,0,0,0,0,-1,538,764,0,0
-679,260,0,0,0,0,0,0,0,0,0,-1,545,764,0,0
-672,260,0,0,0,0,0,0,0,0,0,-1,552,764,0,0
-665,260,0,0,0,0,0,0,0,0,0,-1,559,764,0,0
-658,260,0,0,0,0,0,0,0,0,0,-1,566,764,0,0
-651,260,0,0,0,0,0,0,0,0,0,-1,573,764,0,0
-644,260,0,0,0,0,0,0,0,0,0,-1,580,764,0,0
-637,260,0,0,0,0,0,0,0,0,0,-1,587,764,0,0
-630,260,-21.8905,4.49341,0,0,0,0,0,0,0,-1,594,764,-21.8905,-4.49342
-623,260,-20.3127,3.53546,0,0,0,0,0,0,0,-1,601,764,-20.3127,-3.53544
-616,260,-23.4346,3.65009,0,0,0,0,0,0,0,-1,608,764,-23.4345,-3.65008
-609,260,-27.8874,4.42004,0,0,0,0,0,0,0,-1,615,764,-27.8874,-4.42005
-602,260,-32.8671,3.61243,0,0,0,0,0,0,0,-1,622,764,-32.867,-3.61241
-595,260,-39.8142,7.04388,0,0,0,0,0,0,0,-1,629,764,-39.8142,-7.04389
-588,260,-38.9718,3.27618,0,0,0,0,0,0,0,-1,636,764,-38.9718,-3.27619
-581,260,-38.7569,2.21741,0.00330551,0.00957729,-0.00406699,0.011577,0.00130582,-1.11382,0.00732163,0.0353284,643,764,-38.7569,-2.21743
-574,260,-38.7363,1.26941,0.00241141,0.00715524,-0.00243353,0.00818157,0.00138508,-1.17169,0.00505632,0.0233251,650,764,-38.7363,-1.26944
-567,260,-38.8088,0.31488,0.0016423,0.00497269,-0.00121219,0.00536717,0.00124782,-1.25617,0.0032432,0.0199589,657,764,-38.8088,-0.314856
-560,260,-38.9078,-0.731689,0.000827749,0.0033273,-0.000435835,0.00340112,0.000753935,-1.40302,0.00206256,0.0224305,664,764,-38.9078,0.731718
-553,260,-38.9872,-1.81958,7.57072e-05,0.00212934,7.41811e-05,0.00213202,7.30312e-05,1.53474,0.00139764,0.0191336,671,764,-38.9872,1.81956
-546,260,-39.0508,-2.87415,-0.000732575,0.00122652,0.000498746,0.00134618,-0.000852236,1.33532,0.00127989,0.012585,678,764,-39.0508,2.87416
-539,260,-39.0936,-3.91943,-0.00142852,0.000284305,0.000810428,0.000606975,-0.00175119,1.19189,0.0014139,0.0146751,685,764,-39.0937,3.91943
-532,260,-39.1326,-4.88745,-0.00182037,-0.000374223,0.000801339,-1.7955e-05,-0.00217664,1.15245,0.00144515,0.0195928,692,764,-39.1325,4.88743
-525,260,-39.2437,-5.86591,-0.00155108,-0.000803504,0.000774668,-0.00031716,-0.00203742,1.01018,0.00126588,0.0234766,699,764,-39.2436,5.86593
-518,260,-39.5734,-6.97565,-0.00129849,-0.000561538,0.00103622,0.000169769,-0.0020298,0.956225,0.00141319,0.0329913,706,764,-39.5734,6.97562
-511,260,-39.3628,-8.09204,0,0,0,0,0,0,0,-1,713,764,-39.3628,8.09205
-504,260,-34.7117,-8.67163,0,0,0,0,0,0,0,-1,720,764,-34.7117,8.6716
-497,260,-16.6542,-3.67334,0,0,0,0,0,0,0,-1,727,764,-16.6542,3.67331
-490,260,-29.4557,0.921387,0,0,0,0,0,0,0,-1,734,764,-29.4557,-0.921369
-483,260,-40.8972,1.04193,0,0,0,0,0,0,0,-1,741,764,-40.8972,-1.04193
-476,260,-53.8282,0.00378418,0,0,0,0,0,0,0,-1,748,764,-53.8283,-0.00378825
-469,260,-66.8239,0.147705,0,0,0,0,0,0,0,-1,755,764,-66.8239,-0.147712
-462,260,-66.8391,0.257751,-0.00751517,-0.0254343,0.00625828,-0.00554588,-0.0274036,0.30486,0.0167297,0.0462022,762,764,-66.8391,-0.257733
-455,260,-66.912,0.41803,-0.00992364,-0.0321062,0.00654241,-0.00813783,-0.0338921,0.266468,0.0204297,0.0481599,769,764,-66.9121,-0.418021
-448,260,0,0,0,0,0,0,0,0,0,-1,776,764,0,0
-441,260,0,0,0,0,0,0,0,0,0,-1,783,764,0,0
-434,260,0,0,0,0,0,0,0,0,0,-1,790,764,0,0
-427,260,0,0,0,0,0,0,0,0,0,-1,797,764,0,0
-420,260,0,0,0,0,0,0,0,0,0,-1,804,764,0,0
-413,260,0,0,0,0,0,0,0,0,0,-1,811,764,0,0
-406,260,0,0,0,0,0,0,0,0,0,-1,818,764,0,0
-399,260,0,0,0,0,0,0,0,0,0,-1,825,764,0,0
-392,260,0,0,0,0,0,0,0,0,0,-1,832,764,0,0
-385,260,0,0,0,0,0,0,0,0,0,-1,839,764,0,0
-378,260,0,0,0,0,0,0,0,0,0,-1,846,764,0,0
-371,260,0,0,0,0,0,0,0,0,0,-1,853,764,0,0
-364,260,0,0,0,0,0,0,0,0,0,-1,860,764,0,0
-357,260,0,0,0,0,0,0,0,0,0,-1,867,764,0,0
-350,260,0,0,0,0,0,0,0,0,0,-1,874,764,0,0
-343,260,0,0,0,0,0,0,0,0,0,-1,881,764,0,0
-336,260,0,0,0,0,0,0,0,0,0,-1,888,764,0,0
-329,260,0,0,0,0,0,0,0,0,0,-1,895,764,0,0
-322,260,0,0,0,0,0,0,0,0,0,-1,902,764,0,0
-315,260,0,0,0,0,0,0,0,0,0,-1,909,764,0,0
-308,260,0,0,0,0,0,0,0,0,0,-1,916,764,0,0
-301,260,0,0,0,0,0,0,0,0,0,-1,923,764,0,0
-294,260,0,0,0,0,0,0,0,0,0,-1,930,764,0,0
-287,260,0,0,0,0,0,0,0,0,0,-1,937,764,0,0
-280,260,0,0,0,0,0,0,0,0,0,-1,944,764,0,0
-273,260,0,0,0,0,0,0,0,0,0,-1,951,764,0,0
-266,260,0,0,0,0,0,0,0,0,0,-1,958,764,0,0
-259,260,0,0,0,0,0,0,0,0,0,-1,965,764,0,0
-252,260,0,0,0,0,0,0,0,0,0,-1,972,764,0,0
-245,260,0,0,0,0,0,0,0,0,0,-1,979,764,0,0
-238,260,0,0,0,0,0,0,0,0,0,-1,986,764,0,0
-231,260,0,0,0,0,0,0,0,0,0,-1,993,764,0,0
-224,260,0,0,0,0,0,0,0,0,0,-1,1000,764,0,0
-217,260,0,0,0,0,0,0,0,0,0,-1,1007,764,0,0
-210,260,0,0,0,0,0,0,0,0,0,-1,1014,764,0,0
-203,260,0,0,0,0,0,0,0,0,0,-1,1021,764,0,0
-196,260,0,0,0,0,0,0,0,0,0,-1,1028,764,0,0
-189,260,0,0,0,0,0,0,0,0,0,-1,1035,764,0,0
-182,260,0,0,0,0,0,0,0,0,0,-1,1042,764,0,0
-175,260,0,0,0,0,0,0,0,0,0,-1,1049,764,0,0
-168,260,0,0,0,0,0,0,0,0,0,-1,1056,764,0,0
-161,260,0,0,0,0,0,0,0,0,0,-1,1063,764,0,0
-154,260,0,0,0,0,0,0,0,0,0,-1,1070,764,0,0
-147,260,0,0,0,0,0,0,0,0,0,-1,1077,764,0,0
-140,260,0,0,0,0,0,0,0,0,0,-1,1084,764,0,0
-133,260,0,0,0,0,0,0,0,0,0,-1,1091,764,0,0
-126,260,0,0,0,0,0,0,0,0,0,-1,1098,764,0,0
-119,260,0,0,0,0,0,0,0,0,0,-1,1105,764,0,0
-112,260,0,0,0,0,0,0,0,0,0,-1,1112,764,0,0
-105,260,0,0,0,0,0,0,0,0,0,-1,1119,764,0,0
-98,260,0,0,0,0,0,0,0,0,0,-1,1126,764,0,0
-91,260,0,0,0,0,0,0,0,0,0,-1,1133,764,0,0
-84,260,0,0,0,0,0,0,0,0,0,-1,1140,764,0,0
-77,260,0,0,0,0,0,0,0,0,0,-1,1147,764,0,0
-70,260,0,0,0,0,0,0,0,0,0,-1,1154,764,0,0
-63,260,0,0,0,0,0,0,0,0,0,-1,1161,764,0,0
-56,260,0,0,0,0,0,0,0,0,0,-1,1168,764,0,0
-49,260,0,0,0,0,0,0,0,0,0,-1,1175,764,0,0
-42,260,0,0,0,0,0,0,0,0,0,-1,1182,764,0,0
-35,260,0,0,0,0,0,0,0,0,0,-1,1189,764,0,0
-28,260,0,0,0,0,0,0,0,0,0,-1,1196,764,0,0
-21,260,0,0,0,0,0,0,0,0,0,-1,1203,764,0,0
-14,260,0,0,0,0,0,0,0,0,0,-1,1210,764,0,0
-7,260,0,0,0,0,0,0,0,0,0,-1,1217,764,0,0
0,260,0,0,0,0,0,0,0,0,0,-1,1224,764,0,0
7,260,0,0,0,0,0,0,0,0,0,-1,1231,764,0,0
14,260,0,0,0,0,0,0,0,0,0,-1,1238,764,0,0
21,260,0,0,0,0,0,0,0,0,0,-1,1245,764,0,0
28,260,0,0,0,0,0,0,0,0,0,-1,1252,764,0,0
35,260,0,0,0,0,0,0,0,0,0,-1,1259,764,0,0
42,260,0,0,0,0,0,0,0,0,0,-1,1266,764,0,0
49,260,0,0,0,0,0,0,0,0,0,-1,1273,764,0,0
56,260,0,0,0,0,0,0,0,0,0,-1,1280,764,0,0
63,260,0,0,0,0,0,0,0,0,0,-1,1287,764,0,0
70,260,0,0,0,0,0,0,0,0,0,-1,1294,764,0,0
77,260,0,0,0,0,0,0,0,0,0,-1,1301,764,0,0
84,260,0,0,0,0,0,0,0,0,0,-1,1308,764,0,0
91,260,0,0,0,0,0,0,0,0,0,-1,1315,764,0,0
98,260,0,0,0,0,0,0,0,0,0,-1,1322,764,0,0
105,260,0,0,0,0,0,0,0,0,0,-1,1329,764,0,0
112,260,0,0,0,0,0,0,0,0,0,-1,1336,764,0,0
119,260,0,0,0,0,0,0,0,0,0,-1,1343,764,0,0
126,260,0,0,0,0,0,0,0,0,0,-1,1350,764,0,0
133,260,0,0,0,0,0,0,0,0,0,-1,1357,764,0,0
140,260,0,0,0,0,0,0,0,0,0,-1,1364,764,0,0
147,260,0,0,0,0,0,0,0,0,0,-1,1371,764,0,0
154,260,0,0,0,0,0,0,0,0,0,-1,1378,764,0,0
161,260,0,0,0,0,0,0,0,0,0,-1,1385,764,0,0
168,260,0,0,0,0,0,0,0,0,0,-1,1392,764,0,0
175,260,0,0,0,0,0,0,0,0,0,-1,1399,764,0,0
182,260,0,0,0,0,0,0,0,0,0,-1,1406,764,0,0
189,260,0,0,0,0,0,0,0,0,0,-1,1413,764,0,0
196,260,0,0,0,0,0,0,0,0,0,-1,1420,764,0,0
203,260,0,0,0,0,0,0,0,0,0,-1,1427,764,0,0
210,260,0,0,0,0,0,0,0,0,0,-1,1434,764,0,0
217,260,0,0,0,0,0,0,0,0,0,-1,1441,764,0,0
224,260,0,0,0,0,0,0,0,0,0,-1,1448,764,0,0
231,260,0,0,0,0,0,0,0,0,0,-1,1455,764,0,0
238,260,0,0,0,0,0,0,0,0,0,-1,1462,764,0,0
245,260,0,0,0,0,0,0,0,0,0,-1,1469,764,0,0
252,260,0,0,0,0,0,0,0,0,0,-1,1476,764,0,0
259,260,0,0,0,0,0,0,0,0,0,-1,1483,764,0,0
266,260,0,0,0,0,0,0,0,0,0,-1,1490,764,0,0
273,260,0,0,0,0,0,0,0,0,0,-1,1497,764,0,0
280,260,0,0,0,0,0,0,0,0,0,-1,1504,764,0,0
287,260,0,0,0,0,0,0,0,0,0,-1,1511,764,0,0
294,260,0,0,0,0,0,0,0,0,0,-1,1518,764,0,0
301,260,0,0,0,0,0,0,0,0,0,-1,1525,764,0,0
308,260,0,0,0,0,0,0,0,0,0,-1,1532,764,0,0
315,260,0,0,0,0,0,0,0,0,0,-1,1539,764,0,0
322,260,0,0,0,0,0,0,0,0,0,-1,1546,764,0,0
329,260,0,0,0,0,0,0,0,0,0,-1,1553,764,0,0
336,260,0,0,0,0,0,0,0,0,0,-1,1560,764,0,0
343,260,0,0,0,0,0,0,0,0,0,-1,1567,764,0,0
350,260,0,0,0,0,0,0,0,0,0,-1,1574,764,0,0
357,260,0,0,0,0,0,0,0,0,0,-1,1581,764,0,0
364,260,0,0,0,0,0,0,0,0,0,-1,1588,764,0,0
371,260,0,0,0,0,0,0,0,0,0,-1,1595,764,0,0
378,260,0,0,0,0,0,0,0,0,0,-1,1602,764,0,0
385,260,0,0,0,0,0,0,0,0,0,-1,1609,764,0,0
392,260,0,0,0,0,0,0,0,0,0,-1,1616,764,0,0
399,260,0,0,0,0,0,0,0,0,0,-1,1623,764,0,0
406,260,0,0,0,0,0,0,0,0,0,-1,1630,764,0,0
413,260,0,0,0,0,0,0,0,0,0,-1,1637,764,0,0
420,260,0,0,0,0,0,0,0,0,0,-1,1644,764,0,0
427,260,0,0,0,0,0,0,0,0,0,-1,1651,764,0,0
434,260,0,0,0,0,0,0,0,0,0,-1,1658,764,0,0
441,260,0,0,0,0,0,0,0,0,0,-1,1665,764,0,0
448,260,0,0,0,0,0,0,0,0,0,-1,1672,764,0,0
455,260,0,0,0,0,0,0,0,0,0,-1,1679,764,0,0
462,260,0,0,0,0,0,0,0,0,0,-1,1686,764,0,0
469,260,0,0,0,0,0,0,0,0,0,-1,1693,764,0,0
476,260,0,0,0,0,0,0,0,0,0,-1,1700,764,0,0
483,260,0,0,0,0,0,0,0,0,0,-1,1707,764,0,0
490,260,0,0,0,0,0,0,0,0,0,-1,1714,764,0,0
497,260,0,0,0,0,0,0,0,0,0,-1,1721,764,0,0
504,260,0,0,0,0,0,0,0,0,0,-1,1728,764,0,0
511,260,0,0,0,0,0,0,0,0,0,-1,1735,764,0,0
518,260,0,0,0,0,0,0,0,0,0,-1,1742,764,0,0
525,260,0,0,0,0,0,0,0,0,0,-1,1749,764,0,0
532,260,0,0,0,0,0,0,0,0,0,-1,1756,764,0,0
539,260,0,0,0,0,0,0,0,0,0,-1,1763,764,0,0
546,260,0,0,0,0,0,0,0,0,0,-1,1770,764,0,0
553,260,0,0,0,0,0,0,0,0,0,-1,1777,764,0,0
560,260,0,0,0,0,0,0,0,0,0,-1,1784,764,0,0
567,260,0,0,0,0,0,0,0,0,0,-1,1791,764,0,0
574,260,83.473,2.35754,0,0,0,0,0,0,0,-1,1798,764,83.473,-2.35757
581,260,83.4689,2.38916,0,0,0,0,0,0,0,-1,1805,764,83.4689,-2.38916
588,260,78.047,2.81091,0,0,0,0,0,0,0,-1,1812,764,78.047,-2.81091
595,260,66.1678,2.56989,0,0,0,0,0,0,0,-1,1819,764,66.1678,-2.56989
602,260,65.9274,2.69824,0,0,0,0,0,0,0,-1,1826,764,65.9274,-2.69825
609,260,65.4674,3.08105,0,0,0,0,0,0,0,-1,1833,764,65.4673,-3.08107
616,260,46.0709,2.74542,0,0,0,0,0,0,0,-1,1840,764,46.0709,-2.74545
623,260,32.2268,3.25836,0,0,0,0,0,0,0,-1,1847,764,32.2268,-3.25833
630,260,24.3739,-0.536316,0,0,0,0,0,0,0,-1,1854,764,24.3739,0.536343
637,260,42.7155,-5.35486,0,0,0,0,0,0,0,-1,1861,764,42.7154,5.35488
644,260,56.2173,-7.70581,0,0,0,0,0,0,0,-1,1868,764,56.2172,7.70582
651,260,56.4811,-6.27618,-0.000723824,0.00122062,-0.000181792,0.00123747,-0.000740674,-1.47837,0.00115403,0.0340533,1875,764,56.4811,6.27618
658,260,56.1678,-5.19531,-0.000966676,0.000805724,-0.000508116,0.000941058,-0.00110201,-1.31049,0.00118079,0.0222794,1882,764,56.1678,5.1953
665,260,55.9967,-4.24329,-0.000809611,0.000626253,-0.000584199,0.00083391,-0.00101727,-1.22927,0.00107052,0.0170329,1889,764,55.9967,4.24328
672,260,55.9457,-3.23431,-0.000489774,0.000743913,-0.00048953,0.000914557,-0.000660417,-1.23538,0.000913249,0.0146304,1896,764,55.9456,3.2343
679,260,55.8468,-2.19806,2.54738e-05,0.00117106,-0.000140028,0.00118793,8.60618e-06,-1.45092,0.000789098,0.0138739,1903,764,55.8468,2.19806
686,260,55.7487,-1.14539,0.00067783,0.00178625,0.000282953,0.0018543,0.000609777,1.33477,0.00109129,0.0241202,1910,764,55.7486,1.14538
693,260,55.6335,-0.185486,0.00144735,0.002509,0.000759682,0.00290494,0.00105141,1.09034,0.00169835,0.0237269,1917,764,55.6336,0.18546
700,260,55.5695,0.8125,0.00241811,0.00344344,0.00136085,0.00438499,0.00147656,0.965539,0.00257627,0.0172735,1924,764,55.5695,-0.81253
707,260,55.5873,1.87048,0.00346624,0.0045403,0.00194244,0.00601858,0.00198796,0.920266,0.00354091,0.0198993,1931,764,55.5873,-1.87047
714,260,55.4801,2.90894,0.00441442,0.00555129,0.00251261,0.00755896,0.00240675,0.896642,0.00445909,0.045741,1938,764,55.4802,-2.90892
721,260,55.3591,3.9715,0,0,0,0,0,0,0,-1,1945,764,55.3591,-3.9715
728,260,33.4344,5.75409,0,0,0,0,0,0,0,-1,1952,764,33.4345,-5.75408
735,260,26.9788,4.85681,0,0,0,0,0,0,0,-1,1959,764,26.9787,-4.85678
742,260,32.1443,1.73688,0,0,0,0,0,0,0,-1,1966,764,32.1442,-1.73688
749,260,33.6013,2.94733,0,0,0,0,0,0,0,-1,1973,764,33.6013,-2.9473
756,260,0,0,0,0,0,0,0,0,0,-1,1980,764,0,0
763,260,0,0,0,0,0,0,0,0,0,-1,1987,764,0,0
770,260,0,0,0,0,0,0,0,0,0,-1,1994,764,0,0
777,260,0,0,0,0,0,0,0,0,0,-1,2001,764,0,0
784,260,0,0,0,0,0,0,0,0,0,-1,2008,764,0,0
791,260,0,0,0,0,0,0,0,0,0,-1,2015,764,0,0
798,260,0,0,0,0,0,0,0,0,0,-1,2022,764,0,0
805,260,0,0,0,0,0,0,0,0,0,-1,2029,764,0,0
812,260,0,0,0,0,0,0,0,0,0,-1,2036,764,0,0
-700,253,0,0,0,0,0,0,0,0,0,-1,524,771,0,0
-693,253,0,0,0,0,0,0,0,0,0,-1,531,771,0,0
-686,253,0,0,0,0,0,0,0,0,0,-1,538,771,0,0
-679,253,0,0,0,0,0,0,0,0,0,-1,545,771,0,0
-672,253,0,0,0,0,0,0,0,0,0,-1,552,771,0,0
-665,253,0,0,0,0,0,0,0,0,0,-1,559,771,0,0
-658,253,0,0,0,0,0,0,0,0,0,-1,566,771,0,0
-651,253,0,0,0,0,0,0,0,0,0,-1,573,771,0,0
-644,253,0,0,0,0,0,0,0,0,0,-1,580,771,0,0
-637,253,-24.7979,-0.491394,0,0,0,0,0,0,0,-1,587,771,-24.7978,0.491371
-630,253,-25.156,0.540405,0,0,0,0,0,0,0,-1,594,771,-25.156,-0.540421
-623,253,-20.808,2.84314,0,0,0,0,0,0,0,-1,601,771,-20.8081,-2.84312
-616,253,-25.0877,2.96875,0,0,0,0,0,0,0,-1,608,771,-25.0877,-2.96876
-609,253,-24.28,2.08228,0,0,0,0,0,0,0,-1,615,771,-24.2801,-2.08227
-602,253,-40.3041,8.40619,0,0,0,0,0,0,0,-1,622,771,-40.3041,-8.40617
-595,253,-40.3247,6.30823,0,0,0,0,0,0,0,-1,629,771,-40.3247,-6.30824
-588,253,-40.3453,4.21033,0,0,0,0,0,0,0,-1,636,771,-40.3452,-4.21031
-581,253,-39.7322,2.26727,0.00349339,0.00833446,-0.00397042,0.010564,0.00126385,-1.05914,0.00666147,0.0318073,643,771,-39.7322,-2.26728
-574,253,-39.7773,1.30444,0.00242879,0.00624421,-0.00235162,0.00736461,0.00130839,-1.12618,0.00453694,0.0251474,650,771,-39.7773,-1.30442
-567,253,-39.8649,0.271362,0.00149297,0.00438699,-0.00111492,0.0047667,0.00111327,-1.24255,0.00287936,0.0190089,657,771,-39.865,-0.271352
-560,253,-39.9064,-0.688232,0.000605839,0.00294945,-0.000282134,0.00298293,0.000572353,-1.45266,0.00182795,0.015154,664,771,-39.9064,0.688229
-553,253,-40.002,-1.73285,-0.000233127,0.00191561,0.000286583,0.00195318,-0.000270692,1.44046,0.00140109,0.0131579,671,771,-40.002,1.73287
-546,253,-40.0859,-2.77045,-0.00104667,0.00118039,0.000812728,0.00144544,-0.00131172,1.25555,0.00159247,0.0119454,678,771,-40.0859,2.77046
-539,253,-40.1703,-3.80328,-0.00162636,0.000371877,0.00121945,0.000949238,-0.00220372,1.1286,0.00186778,0.013758,685,771,-40.1704,3.80331
-532,253,-40.2324,-4.76978,-0.00173783,-0.000291708,0.00129105,0.000464966,-0.0024945,1.04066,0.0018377,0.0219026,692,771,-40.2323,4.76976
-525,253,-40.3407,-5.73145,-0.00119991,-0.000728143,0.00131774,0.000374663,-0.00230271,0.873962,0.00167406,0.0343572,699,771,-40.3407,5.73147
-518,253,-40.6307,-6.97876,-0.000825179,-0.000455345,0.00162665,0.000996861,-0.00227739,0.841995,0.00193798,0.047079,706,771,-40.6307,6.97876
-511,253,-41.2044,-8.1532,0,0,0,0,0,0,0,-1,713,771,-41.2044,8.15321
-504,253,-19.317,-4.1723,0,0,0,0,0,0,0,-1,720,771,-19.317,4.1723
-497,253,-21.7737,-1.76837,0,0,0,0,0,0,0,-1,727,771,-21.7738,1.7684
-490,253,-29.7674,0.438354,0,0,0,0,0,0,0,-1,734,771,-29.7674,-0.438339
-483,253,-45.4489,1.59302,0,0,0,0,0,0,0,-1,741,771,-45.4489,-1.59303
-476,253,-64.2688,0.0551758,0,0,0,0,0,0,0,-1,748,771,-64.2688,-0.0552001
-469,253,-66.4102,0.917114,0,0,0,0,0,0,0,-1,755,771,-66.4102,-0.917118
-462,253,-66.8672,0.624695,-0.00593443,-0.0215176,0.00494535,-0.00449751,-0.0229545,0.282773,0.0140459,0.0444712,762,771,-66.8672,-0.624691
-455,253,-66.8677,0.676208,-0.00811028,-0.0269257,0.00487655,-0.00692149,-0.0281145,0.239112,0.0169147,0.0359638,769,771,-66.8677,-0.676206
-448,253,0,0,0,0,0,0,0,0,0,-1,776,771,0,0
-441,253,0,0,0,0,0,0,0,0,0,-1,783,771,0,0
-434,253,0,0,0,0,0,0,0,0,0,-1,790,771,0,0
-427,253,0,0,0,0,0,0,0,0,0,-1,797,771,0,0
-420,253,0,0,0,0,0,0,0,0,0,-1,804,771,0,0
-413,253,0,0,0,0,0,0,0,0,0,-1,811,771,0,0
-406,253,0,0,0,0,0,0,0,0,0,-1,818,771,0,0
-399,253,0,0,0,0,0,0,0,0,0,-1,825,771,0,0
-392,253,0,0,0,0,0,0,0,0,0,-1,832,771,0,0
-385,253,0,0,0,0,0,0,0,0,0,-1,839,771,0,0
-378,253,0,0,0,0,0,0,0,0,0,-1,846,771,0,0
-371,253,0,0,0,0,0,0,0,0,0,-1,853,771,0,0
-364,253,0,0,0,0,0,0,0,0,0,-1,860,771,0,0
-357,253,0,0,0,0,0,0,0,0,0,-1,867,771,0,0
-350,253,0,0,0,0,0,0,0,0,0,-1,874,771,0,0
-343,253,0,0,0,0,0,0,0,0,0,-1,881,771,0,0
-336,253,0,0,0,0,0,0,0,0,0,-1,888,771,0,0
-329,253,0,0,0,0,0,0,0,0,0,-1,895,771,0,0
-322,253,0,0,0,0,0,0,0,0,0,-1,902,771,0,0
-315,253,0,0,0,0,0,0,0,0,0,-1,909,771,0,0
-308,253,0,0,0,0,0,0,0,0,0,-1,916,771,0,0
-301,253,0,0,0,0,0,0,0,0,0,-1,923,771,0,0
-294,253,0,0,0,0,0,0,0,0,0,-1,930,771,0,0
-287,253,0,0,0,0,0,0,0,0,0,-1,937,771,0,0
-280,253,0,0,0,0,0,0,0,0,0,-1,944,771,0,0
-273,253,0,0,0,0,0,0,0,0,0,-1,951,771,0,0
-266,253,0,0,0,0,0,0,0,0,0,-1,958,771,0,0
-259,253,0,0,0,0,0,0,0,0,0,-1,965,771,0,0
-252,253,0,0,0,0,0,0,0,0,0,-1,972,771,0,0
-245,253,0,0,0,0,0,0,0,0,0,-1,979,771,0,0
-238,253,0,0,0,0,0,0,0,0,0,-1,986,771,0,0
-231,253,0,0,0,0,0,0,0,0,0,-1,993,771,0,0
-224,253,0,0,0,0,0,0,0,0,0,-1,1000,771,0,0
-217,253,0,0,0,0,0,0,0,0,0,-1,1007,771,0,0
-210,253,0,0,0,0,0,0,0,0,0,-1,1014,771,0,0
-203,253,0,0,0,0,0,0,0,0,0,-1,1021,771,0,0
-196,253,0,0,0,0,0,0,0,0,0,-1,1028,771,0,0
-189,253,0,0,0,0,0,0,0,0,0,-1,1035,771,0,0
-182,253,0,0,0,0,0,0,0,0,0,-1,1042,771,0,0
-175,253,0,0,0,0,0,0,0,0,0,-1,1049,771,0,0
-168,253,0,0,0,0,0,0,0,0,0,-1,1056,771,0,0
-161,253,0,0,0,0,0,0,0,0,0,-1,1063,771,0,0
-154,253,0,0,0,0,0,0,0,0,0,-1,1070,771,0,0
-147,253,0,0,0,0,0,0,0,0,0,-1,1077,771,0,0
-140,253,0,0,0,0,0,0,0,0,0,-1,1084,771,0,0
-133,253,0,0,0,0,0,0,0,0,0,-1,1091,771,0,0
-126,253,0,0,0,0,0,0,0,0,0,-1,1098,771,0,0
-119,253,0,0,0,0,0,0,0,0,0,-1,1105,771,0,0
-112,253,0,0,0,0,0,0,0,0,0,-1,1112,771,0,0
-105,253,0,0,0,0,0,0,0,0,0,-1,1119,771,0,0
-98,253,0,0,0,0,0,0,0,0,0,-1,1126,771,0,0
-91,253,0,0,0,0,0,0,0,0,0,-1,1133,771,0,0
-84,253,0,0,0,0,0,0,0,0,0,-1,1140,771,0,0
-77,253,0,0,0,0,0,0,0,0,0,-1,1147,771,0,0
-70,253,0,0,0,0,0,0,0,0,0,-1,1154,771,0,0
-63,253,0,0,0,0,0,0,0,0,0,-1,1161,771,0,0
-56,253,0,0,0,0,0,0,0,0,0,-1,1168,771,0,0
-49,253,0,0,0,0,0,0,0,0,0,-1,1175,771,0,0
-42,253,0,0,0,0,0,0,0,0,0,-1,1182,771,0,0
-35,253,0,0,0,0,0,0,0,0,0,-1,1189,771,0,0
-28,253,0,0,0,0,0,0,0,0,0,-1,1196,771,0,0
-21,253,0,0,0,0,0,0,0,0,0,-1,1203,771,0,0
-14,253,0,0,0,0,0,0,0,0,0,-1,1210,771,0,0
-7,253,0,0,0,0,0,0,0,0,0,-1,1217,771,0,0
0,253,0,0,0,0,0,0,0,0,0,-1,1224,771,0,0
7,253,0,0,0,0,0,0,0,0,0,-1,1231,771,0,0
14,253,0,0,0,0,0,0,0,0,0,-1,1238,771,0,0
21,253,0,0,0,0,0,0,0,0,0,-1,1245,771,0,0
28,253,0,0,0,0,0,0,0,0,0,-1,1252,771,0,0
35,253,0,0,0,0,0,0,0,0,0,-1,1259,771,0,0
42,253,0,0,0,0,0,0,0,0,0,-1,1266,771,0,0
49,253,0,0,0,0,0,0,0,0,0,-1,1273,771,0,0
56,253,0,0,0,0,0,0,0,0,0,-1,1280,771,0,0
63,253,0,0,0,0,0,0,0,0,0,-1,1287,771,0,0
70,253,0,0,0,0,0,0,0,0,0,-1,1294,771,0,0
77,253,0,0,0,0,0,0,0,0,0,-1,1301,771,0,0
84,253,0,0,0,0,0,0,0,0,0,-1,1308,771,0,0
91,253,0,0,0,0,0,0,0,0,0,-1,1315,771,0,0
98,253,0,0,0,0,0,0,0,0,0,-1,1322,771,0,0
105,253,0,0,0,0,0,0,0,0,0,-1,1329,771,0,0
112,253,0,0,0,0,0,0,0,0,0,-1,1336,771,0,0
119,253,0,0,0,0,0,0,0,0,0,-1,1343,771,0,0
126,253,0,0,0,0,0,0,0,0,0,-1,1350,771,0,0
133,253,0,0,0,0,0,0,0,0,0,-1,1357,771,0,0
140,253,0,0,0,0,0,0,0,0,0,-1,1364,771,0,0
147,253,0,0,0,0,0,0,0,0,0,-1,1371,771,0,0
154,253,0,0,0,0,0,0,0,0,0,-1,1378,771,0,0
161,253,0,0,0,0,0,0,0,0,0,-1,1385,771,0,0
168,253,0,0,0,0,0,0,0,0,0,-1,1392,771,0,0
175,253,0,0,0,0,0,0,0,0,0,-1,1399,771,0,0
182,253,0,0,0,0,0,0,0,0,0,-1,1406,771,0,0
189,253,0,0,0,0,0,0,0,0,0,-1,1413,771,0,0
196,253,0,0,0,0,0,0,0,0,0,-1,1420,771,0,0
203,253,0,0,0,0,0,0,0,0,0,-1,1427,771,0,0
210,253,0,0,0,0,0,0,0,0,0,-1,1434,771,0,0
217,253,0,0,0,0,0,0,0,0,0,-1,1441,771,0,0
224,253,0,0,0,0,0,0,0,0,0,-1,1448,771,0,0
231,253,0,0,0,0,0,0,0,0,0,-1,1455,771,0,0
238,253,0,0,0,0,0,0,0,0,0,-1,1462,771,0,0
245,253,0,0,0,0,0,0,0,0,0,-1,1469,771,0,0
252,253,0,0,0,0,0,0,0,0,0,-1,1476,771,0,0
259,253,0,0,0,0,0,0,0,0,0,-1,1483,771,0,0
266,253,0,0,0,0,0,0,0,0,0,-1,1490,771,0,0
273,253,0,0,0,0,0,0,0,0,0,-1,1497,771,0,0
280,253,0,0,0,0,0,0,0,0,0,-1,1504,771,0,0
287,253,0,0,0,0,0,0,0,0,0,-1,1511,771,0,0
294,253,0,0,0,0,0,0,0,0,0,-1,1518,771,0,0
301,253,0,0,0,0,0,0,0,0,0,-1,1525,771,0,0
308,253,0,0,0,0,0,0,0,0,0,-1,1532,771,0,0
315,253,0,0,0,0,0,0,0,0,0,-1,1539,771,0,0
322,253,0,0,0,0,0,0,0,0,0,-1,1546,771,0,0
329,253,0,0,0,0,0,0,0,0,0,-1,1553,771,0,0
336,253,0,0,0,0,0,0,0,0,0,-1,1560,771,0,0
343,253,0,0,0,0,0,0,0,0,0,-1,1567,771,0,0
350,253,0,0,0,0,0,0,0,0,0,-1,1574,771,0,0
357,253,0,0,0,0,0,0,0,0,0,-1,1581,771,0,0
364,253,0,0,0,0,0,0,0,0,0,-1,1588,771,0,0
371,253,0,0,0,0,0,0,0,0,0,-1,1595,771,0,0
378,253,0,0,0,0,0,0,0,0,0,-1,1602,771,0,0
385,253,0,0,0,0,0,0,0,0,0,-1,1609,771,0,0
392,253,0,0,0,0,0,0,0,0,0,-1,1616,771,0,0
399,253,0,0,0,0,0,0,0,0,0,-1,1623,771,0,0
406,253,0,0,0,0,0,0,0,0,0,-1,1630,771,0,0
413,253,0,0,0,0,0,0,0,0,0,-1,1637,771,0,0
420,253,0,0,0,0,0,0,0,0,0,-1,1644,771,0,0
427,253,0,0,0,0,0,0,0,0,0,-1,1651,771,0,0
434,253,0,0,0,0,0,0,0,0,0,-1,1658,771,0,0
441,253,0,0,0,0,0,0,0,0,0,-1,1665,771,0,0
448,253,0,0,0,0,0,0,0,0,0,-1,1672,771,0,0
455,253,0,0,0,0,0,0,0,0,0,-1,1679,771,0,0
462,253,0,0,0,0,0,0,0,0,0,-1,1686,771,0,0
469,253,0,0,0,0,0,0,0,0,0,-1,1693,771,0,0
476,253,0,0,0,0,0,0,0,0,0,-1,1700,771,0,0
483,253,0,0,0,0,0,0,0,0,0,-1,1707,771,0,0
490,253,0,0,0,0,0,0,0,0,0,-1,1714,771,0,0
497,253,0,0,0,0,0,0,0,0,0,-1,1721,771,0,0
504,253,0,0,0,0,0,0,0,0,0,-1,1728,771,0,0
511,253,0,0,0,0,0,0,0,0,0,-1,1735,771,0,0
518,253,0,0,0,0,0,0,0,0,0,-1,1742,771,0,0
525,253,0,0,0,0,0,0,0,0,0,-1,1749,771,0,0
532,253,0,0,0,0,0,0,0,0,0,-1,1756,771,0,0
539,253,0,0,0,0,0,0,0,0,0,-1,1763,771,0,0
546,253,0,0,0,0,0,0,0,0,0,-1,1770,771,0,0
553,253,0,0,0,0,0,0,0,0,0,-1,1777,771,0,0
560,253,0,0,0,0,0,0,0,0,0,-1,1784,771,0,0
567,253,0,0,0,0,0,0,0,0,0,-1,1791,771,0,0
574,253,83.4689,2.36389,0,0,0,0,0,0,0,-1,1798,771,83.4689,-2.36389
581,253,83.4189,2.43732,0,0,0,0,0,0,0,-1,1805,771,83.419,-2.4373
588,253,83.6614,2.27344,0,0,0,0,0,0,0,-1,1812,771,83.6614,-2.27342
595,253,84.0753,2.32043,0,0,0,0,0,0,0,-1,1819,771,84.0753,-2.32046
602,253,66.4502,2.6098,0,0,0,0,0,0,0,-1,1826,771,66.4502,-2.60979
609,253,65.2542,3.18195,0,0,0,0,0,0,0,-1,1833,771,65.2541,-3.18193
616,253,58.416,2.69031,0,0,0,0,0,0,0,-1,1840,771,58.4161,-2.69031
623,253,48.8328,3.01001,0,0,0,0,0,0,0,-1,1847,771,48.8328,-3.01002
630,253,33.561,2.96838,0,0,0,0,0,0,0,-1,1854,771,33.561,-2.96836
637,253,22.3192,-0.604004,0,0,0,0,0,0,0,-1,1861,771,22.3192,0.603986
644,253,48.2843,-5.22784,0,0,0,0,0,0,0,-1,1868,771,48.2843,5.22783
651,253,58.04,-6.24164,0,0,0,0,0,0,0,-1,1875,771,58.04,6.24164
658,253,57.3026,-5.04163,-0.00127394,0.00117772,-0.000546721,0.00129412,-0.00139033,-1.36104,0.0015502,0.0359377,1882,771,57.3026,5.04165
665,253,57.0341,-4.13293,-0.00111344,0.000805105,-0.000742951,0.00105917,-0.0013675,-1.2413,0.0014048,0.0234195,1889,771,57.034,4.13294
672,253,56.9438,-3.17419,-0.000788059,0.000667594,-0.000772108,0.00100084,-0.00112131,-1.16334,0.00122588,0.017364,1896,771,56.9439,3.17418
679,253,56.8879,-2.1087,-0.000365362,0.000844376,-0.000534397,0.00104663,-0.000567616,-1.20899,0.000945564,0.0138177,1903,771,56.888,2.10869
686,253,56.7556,-1.08087,0.000255473,0.0013218,-0.000139443,0.00133973,0.000237539,-1.44289,0.000825446,0.0270645,1910,771,56.7557,1.0809
693,253,56.6594,-0.117554,0.00099548,0.00193516,0.000314737,0.00203084,0.000899804,1.27568,0.00117504,0.0257014,1917,771,56.6595,0.117575
700,253,56.6154,0.883667,0.00191442,0.0027631,0.000869791,0.00330654,0.00137098,1.01234,0.00191829,0.0178118,1924,771,56.6154,-0.883677
707,253,56.5978,1.93628,0.00295195,0.00377072,0.00147697,0.00489399,0.00182868,0.920595,0.00285546,0.0163798,1931,771,56.5978,-1.93625
714,253,56.5082,2.92987,0.0039531,0.0047832,0.00209551,0.00650437,0.00223193,0.883166,0.0038164,0.0283114,1938,771,56.5082,-2.92985
721,253,56.3313,3.88422,0.00540958,0.00613965,0.00306586,0.00886213,0.0026871,0.844652,0.00524698,0.0490077,1945,771,56.3313,-3.88419
728,253,56.1981,4.88977,0,0,0,0,0,0,0,-1,1952,771,56.1981,-4.88976
735,253,34.5735,6.15118,0,0,0,0,0,0,0,-1,1959,771,34.5734,-6.1512
742,253,31.0571,5.7337,0,0,0,0,0,0,0,-1,1966,771,31.0571,-5.73373
749,253,33.7754,3.21533,0,0,0,0,0,0,0,-1,1973,771,33.7754,-3.21533
756,253,0,0,0,0,0,0,0,0,0,-1,1980,771,0,0
763,253,0,0,0,0,0,0,0,0,0,-1,1987,771,0,0
770,253,0,0,0,0,0,0,0,0,0,-1,1994,771,0,0
777,253,0,0,0,0,0,0,0,0,0,-1,2001,771,0,0
784,253,0,0,0,0,0,0,0,0,0,-1,2008,771,0,0
791,253,0,0,0,0,0,0,0,0,0,-1,2015,771,0,0
798,253,0,0,0,0,0,0,0,0,0,-1,2022,771,0,0
805,253,0,0,0,0,0,0,0,0,0,-1,2029,771,0,0
812,253,0,0,0,0,0,0,0,0,0,-1,2036,771,0,0
-700,246,0,0,0,0,0,0,0,0,0,-1,524,778,0,0
-693,246,0,0,0,0,0,0,0,0,0,-1,531,778,0,0
-686,246,0,0,0,0,0,0,0,0,0,-1,538,778,0,0
-679,246,0,0,0,0,0,0,0,0,0,-1,545,778,0,0
-672,246,0,0,0,0,0,0,0,0,0,-1,552,778,0,0
-665,246,0,0,0,0,0,0,0,0,0,-1,559,778,0,0
-658,246,0,0,0,0,0,0,0,0,0,-1,566,778,0,0
-651,246,0,0,0,0,0,0,0,0,0,-1,573,778,0,0
-644,246,0,0,0,0,0,0,0,0,0,-1,580,778,0,0
-637,246,-24.1234,0.130432,0,0,0,0,0,0,0,-1,587,778,-24.1234,-0.130438
-630,246,-24.0781,1.38916,0,0,0,0,0,0,0,-1,594,778,-24.0781,-1.38913
-623,246,-23.9183,2.49573,0,0,0,0,0,0,0,-1,601,778,-23.9183,-2.49575
-616,246,-26.8182,2.0705,0,0,0,0,0,0,0,-1,608,778,-26.8182,-2.07052
-609,246,-26.0615,1.16388,0,0,0,0,0,0,0,-1,615,778,-26.0615,-1.16388
-602,246,-40.3609,7.58899,0,0,0,0,0,0,0,-1,622,778,-40.3609,-7.58898
-595,246,-40.5826,5.65015,0,0,0,0,0,0,0,-1,629,778,-40.5826,-5.65015
-588,246,-40.8043,3.7113,0,0,0,0,0,0,0,-1,636,778,-40.8043,-3.71132
-581,246,-40.7956,2.46814,0.00357929,0.00711112,-0.00356426,0.00932295,0.00136746,-1.0154,0.00581334,0.0214226,643,778,-40.7956,-2.46812
-574,246,-40.8032,1.31897,0.00246175,0.00534911,-0.0020394,0.0064041,0.00140676,-1.0934,0.0038863,0.0202782,650,778,-40.8032,-1.31899
-567,246,-40.8599,0.311218,0.00145125,0.00381524,-0.000848225,0.00408809,0.00117839,-1.25957,0.00242979,0.0271431,657,778,-40.8599,-0.31121
-560,246,-40.9716,-0.652466,0.000540686,0.00260498,6.9711e-06,0.00260501,0.000540663,1.56742,0.00158744,0.0211477,664,778,-40.9716,0.652456
-553,246,-41.0347,-1.62347,-0.000352635,0.00175831,0.000610669,0.00192224,-0.000516564,1.30854,0.00148396,0.0141272,671,778,-41.0347,1.6235
-546,246,-41.1234,-2.6557,-0.00111569,0.00120029,0.00124615,0.00174343,-0.00165882,1.15977,0.00196449,0.01229,678,778,-41.1234,2.65568
-539,246,-41.1778,-3.72931,-0.00152429,0.000544561,0.00173812,0.00153278,-0.00251251,1.05382,0.00235827,0.0147579,685,778,-41.1778,3.72934
-532,246,-41.285,-4.71826,-0.00133819,-0.000148949,0.00190081,0.00124807,-0.00273521,0.936989,0.00235257,0.0335325,692,778,-41.285,4.71826
-525,246,-41.5325,-5.70453,0,0,0,0,0,0,0,-1,699,778,-41.5325,5.70452
-518,246,-41.7504,-7.27008,0,0,0,0,0,0,0,-1,706,778,-41.7505,7.27007
-511,246,-28.5886,-5.38635,0,0,0,0,0,0,0,-1,713,778,-28.5886,5.38633
-504,246,-20.0047,-2.88214,0,0,0,0,0,0,0,-1,720,778,-20.0047,2.88216
-497,246,-29.4669,1.82684,0,0,0,0,0,0,0,-1,727,778,-29.4669,-1.82687
-490,246,-40.4299,1.04309,0,0,0,0,0,0,0,-1,734,778,-40.4299,-1.04308
-483,246,-55.5514,-0.0795898,0,0,0,0,0,0,0,-1,741,778,-55.5514,0.0795595
-476,246,-66.9499,0.549316,0,0,0,0,0,0,0,-1,748,778,-66.9499,-0.549329
-469,246,-66.5205,0.904663,-0.00197665,-0.0139545,0.00410602,-0.00070427,-0.0152269,0.300499,0.00992484,0.0465275,755,778,-66.5205,-0.904634
-462,246,-66.7106,0.83905,-0.00405983,-0.0180464,0.00428808,-0.00284985,-0.0192564,0.275024,0.012001,0.0475709,762,778,-66.7106,-0.839077
-455,246,0,0,0,0,0,0,0,0,0,-1,769,778,0,0
-448,246,0,0,0,0,0,0,0,0,0,-1,776,778,0,0
-441,246,0,0,0,0,0,0,0,0,0,-1,783,778,0,0
-434,246,0,0,0,0,0,0,0,0,0,-1,790,778,0,0
-427,246,0,0,0,0,0,0,0,0,0,-1,797,778,0,0
-420,246,0,0,0,0,0,0,0,0,0,-1,804,778,0,0
-413,246,0,0,0,0,0,0,0,0,0,-1,811,778,0,0
-406,246,0,0,0,0,0,0,0,0,0,-1,818,778,0,0
-399,246,0,0,0,0,0,0,0,0,0,-1,825,778,0,0
-392,246,0,0,0,0,0,0,0,0,0,-1,832,778,0,0
-385,246,0,0,0,0,0,0,0,0,0,-1,839,778,0,0
-378,246,0,0,0,0,0,0,0,0,0,-1,846,778,0,0
-371,246,0,0,0,0,0,0,0,0,0,-1,853,778,0,0
-364,246,0,0,0,0,0,0,0,0,0,-1,860,778,0,0
-357,246,0,0,0,0,0,0,0,0,0,-1,867,778,0,0
-350,246,0,0,0,0,0,0,0,0,0,-1,874,778,0,0
-343,246,0,0,0,0,0,0,0,0,0,-1,881,778,0,0
-336,246,0,0,0,0,0,0,0,0,0,-1,888,778,0,0
-329,246,0,0,0,0,0,0,0,0,0,-1,895,778,0,0
-322,246,0,0,0,0,0,0,0,0,0,-1,902,778,0,0
-315,246,0,0,0,0,0,0,0,0,0,-1,909,778,0,0
-308,246,0,0,0,0,0,0,0,0,0,-1,916,778,0,0
-301,246,0,0,0,0,0,0,0,0,0,-1,923,778,0,0
-294,246,0,0,0,0,0,0,0,0,0,-1,930,778,0,0
-287,246,0,0,0,0,0,0,0,0,0,-1,937,778,0,0
-280,246,0,0,0,0,0,0,0,0,0,-1,944,778,0,0
-273,246,0,0,0,0,0,0,0,0,0,-1,951,778,0,0
-266,246,0,0,0,0,0,0,0,0,0,-1,958,778,0,0
-259,246,0,0,0,0,0,0,0,0,0,-1,965,778,0,0
-252,246,0,0,0,0,0,0,0,0,0,-1,972,778,0,0
-245,246,0,0,0,0,0,0,0,0,0,-1,979,778,0,0
-238,246,0,0,0,0,0,0,0,0,0,-1,986,778,0,0
-231,246,0,0,0,0,0,0,0,0,0,-1,993,778,0,0
-224,246,0,0,0,0,0,0,0,0,0,-1,1000,778,0,0
-217,246,0,0,0,0,0,0,0,0,0,-1,1007,778,0,0
-210,246,0,0,0,0,0,0,0,0,0,-1,1014,778,0,0
-203,246,0,0,0,0,0,0,0,0,0,-1,1021,778,0,0
-196,246,0,0,0,0,0,0,0,0,0,-1,1028,778,0,0
-189,246,0,0,0,0,0,0,0,0,0,-1,1035,778,0,0
-182,246,0,0,0,0,0,0,0,0,0,-1,1042,778,0,0
-175,246,0,0,0,0,0,0,0,0,0,-1,1049,778,0,0
-168,246,0,0,0,0,0,0,0,0,0,-1,1056,778,0,0
-161,246,0,0,0,0,0,0,0,0,0,-1,1063,778,0,0
-154,246,0,0,0,0,0,0,0,0,0,-1,1070,778,0,0
-147,246,0,0,0,0,0,0,0,0,0,-1,1077,778,0,0
-140,246,0,0,0,0,0,0,0,0,0,-1,1084,778,0,0
-133,246,0,0,0,0,0,0,0,0,0,-1,1091,778,0,0
-126,246,0,0,0,0,0,0,0,0,0,-1,1098,778,0,0
-119,246,0,0,0,0,0,0,0,0,0,-1,1105,778,0,0
-112,246,0,0,0,0,0,0,0,0,0,-1,1112,778,0,0
-105,246,0,0,0,0,0,0,0,0,0,-1,1119,778,0,0
-98,246,0,0,0,0,0,0,0,0,0,-1,1126,778,0,0
-91,246,0,0,0,0,0,0,0,0,0,-1,1133,778,0,0
-84,246,0,0,0,0,0,0,0,0,0,-1,1140,778,0,0
-77,246,0,0,0,0,0,0,0,0,0,-1,1147,778,0,0
-70,246,0,0,0,0,0,0,0,0,0,-1,1154,778,0,0
-63,246,0,0,0,0,0,0,0,0,0,-1,1161,778,0,0
-56,246,0,0,0,0,0,0,0,0,0,-1,1168,778,0,0
-49,246,0,0,0,0,0,0,0,0,0,-1,1175,778,0,0
-42,246,0,0,0,0,0,0,0,0,0,-1,1182,778,0,0
-35,246,0,0,0,0,0,0,0,0,0,-1,1189,778,0,0
-28,246,0,0,0,0,0,0,0,0,0,-1,1196,778,0,0
-21,246,0,0,0,0,0,0,0,0,0,-1,1203,778,0,0
-14,246,0,0,0,0,0,0,0,0,0,-1,1210,778,0,0
-7,246,0,0,0,0,0,0,0,0,0,-1,1217,778,0,0
0,246,0,0,0,0,0,0,0,0,0,-1,1224,778,0,0
7,246,0,0,0,0,0,0,0,0,0,-1,1231,778,0,0
14,246,0,0,0,0,0,0,0,0,0,-1,1238,778,0,0
21,246,0,0,0,0,0,0,0,0,0,-1,1245,778,0,0
28,246,0,0,0,0,0,0,0,0,0,-1,1252,778,0,0
35,246,0,0,0,0,0,0,0,0,0,-1,1259,778,0,0
42,246,0,0,0,0,0,0,0,0,0,-1,1266,778,0,0
49,246,0,0,0,0,0,0,0,0,0,-1,1273,778,0,0
56,246,0,0,0,0,0,0,0,0,0,-1,1280,778,0,0
63,246,0,0,0,0,0,0,0,0,0,-1,1287,778,0,0
70,246,0,0,0,0,0,0,0,0,0,-1,1294,778,0,0
77,246,0,0,0,0,0,0,0,0,0,-1,1301,778,0,0
84,246,0,0,0,0,0,0,0,0,0,-1,1308,778,0,0
91,246,0,0,0,0,0,0,0,0,0,-1,1315,778,0,0
98,246,0,0,0,0,0,0,0,0,0,-1,1322,778,0,0
105,246,0,0,0,0,0,0,0,0,0,-1,1329,778,0,0
112,246,0,0,0,0,0,0,0,0,0,-1,1336,778,0,0
119,246,0,0,0,0,0,0,0,0,0,-1,1343,778,0,0
126,246,0,0,0,0,0,0,0,0,0,-1,1350,778,0,0
133,246,0,0,0,0,0,0,0,0,0,-1,1357,778,0,0
140,246,0,0,0,0,0,0,0,0,0,-1,1364,778,0,0
147,246,0,0,0,0,0,0,0,0,0,-1,1371,778,0,0
154,246,0,0,0,0,0,0,0,0,0,-1,1378,778,0,0
161,246,0,0,0,0,0,0,0,0,0,-1,1385,778,0,0
168,246,0,0,0,0,0,0,0,0,0,-1,1392,778,0,0
175,246,0,0,0,0,0,0,0,0,0,-1,1399,778,0,0
182,246,0,0,0,0,0,0,0,0,0,-1,1406,778,0,0
189,246,0,0,0,0,0,0,0,0,0,-1,1413,778,0,0
196,246,0,0,0,0,0,0,0,0,0,-1,1420,778,0,0
203,246,0,0,0,0,0,0,0,0,0,-1,1427,778,0,0
210,246,0,0,0,0,0,0,0,0,0,-1,1434,778,0,0
217,246,0,0,0,0,0,0,0,0,0,-1,1441,778,0,0
224,246,0,0,0,0,0,0,0,0,0,-1,1448,778,0,0
231,246,0,0,0,0,0,0,0,0,0,-1,1455,778,0,0
238,246,0,0,0,0,0,0,0,0,0,-1,1462,778,0,0
245,246,0,0,0,0,0,0,0,0,0,-1,1469,778,0,0
252,246,0,0,0,0,0,0,0,0,0,-1,1476,778,0,0
259,246,0,0,0,0,0,0,0,0,0,-1,1483,778,0,0
266,246,0,0,0,0,0,0,0,0,0,-1,1490,778,0,0
273,246,0,0,0,0,0,0,0,0,0,-1,1497,778,0,0
280,246,0,0,0,0,0,0,0,0,0,-1,1504,778,0,0
287,246,0,0,0,0,0,0,0,0,0,-1,1511,778,0,0
294,246,0,0,0,0,0,0,0,0,0,-1,1518,778,0,0
301,246,0,0,0,0,0,0,0,0,0,-1,1525,778,0,0
308,246,0,0,0,0,0,0,0,0,0,-1,1532,778,0,0
315,246,0,0,0,0,0,0,0,0,0,-1,1539,778,0,0
322,246,0,0,0,0,0,0,0,0,0,-1,1546,778,0,0
329,246,0,0,0,0,0,0,0,0,0,-1,1553,778,0,0
336,246,0,0,0,0,0,0,0,0,0,-1,1560,778,0,0
343,246,0,0,0,0,0,0,0,0,0,-1,1567,778,0,0
350,246,0,0,0,0,0,0,0,0,0,-1,1574,778,0,0
357,246,0,0,0,0,0,0,0,0,0,-1,1581,778,0,0
364,246,0,0,0,0,0,0,0,0,0,-1,1588,778,0,0
371,246,0,0,0,0,0,0,0,0,0,-1,1595,778,0,0
378,246,0,0,0,0,0,0,0,0,0,-1,1602,778,0,0
385,246,0,0,0,0,0,0,0,0,0,-1,1609,778,0,0
392,246,0,0,0,0,0,0,0,0,0,-1,1616,778,0,0
399,246,0,0,0,0,0,0,0,0,0,-1,1623,778,0,0
406,246,0,0,0,0,0,0,0,0,0,-1,1630,778,0,0
413,246,0,0,0,0,0,0,0,0,0,-1,1637,778,0,0
420,246,0,0,0,0,0,0,0,0,0,-1,1644,778,0,0
427,246,0,0,0,0,0,0,0,0,0,-1,1651,778,0,0
434,246,0,0,0,0,0,0,0,0,0,-1,1658,778,0,0
441,246,0,0,0,0,0,0,0,0,0,-1,1665,778,0,0
448,246,0,0,0,0,0,0,0,0,0,-1,1672,778,0,0
455,246,0,0,0,0,0,0,0,0,0,-1,1679,778,0,0
462,246,0,0,0,0,0,0,0,0,0,-1,1686,778,0,0
469,246,0,0,0,0,0,0,0,0,0,-1,1693,778,0,0
476,246,0,0,0,0,0,0,0,0,0,-1,1700,778,0,0
483,246,0,0,0,0,0,0,0,0,0,-1,1707,778,0,0
490,246,0,0,0,0,0,0,0,0,0,-1,1714,778,0,0
497,246,0,0,0,0,0,0,0,0,0,-1,1721,778,0,0
504,246,0,0,0,0,0,0,0,0,0,-1,1728,778,0,0
511,246,0,0,0,0,0,0,0,0,0,-1,1735,778,0,0
518,246,0,0,0,0,0,0,0,0,0,-1,1742,778,0,0
525,246,0,0,0,0,0,0,0,0,0,-1,1749,778,0,0
532,246,0,0,0,0,0,0,0,0,0,-1,1756,778,0,0
539,246,0,0,0,0,0,0,0,0,0,-1,1763,778,0,0
546,246,0,0,0,0,0,0,0,0,0,-1,1770,778,0,0
553,246,0,0,0,0,0,0,0,0,0,-1,1777,778,0,0
560,246,0,0,0,0,0,0,0,0,0,-1,1784,778,0,0
567,246,0,0,0,0,0,0,0,0,0,-1,1791,778,0,0
574,246,0,0,0,0,0,0,0,0,0,-1,1798,778,0,0
581,246,83.3784,2.59766,0.0149989,-0.00626555,-0.000496291,0.0150105,-0.00627713,-0.0233221,0.0126305,0.0362233,1805,778,83.3784,-2.59764
588,246,83.4684,2.36469,0.0131121,-0.00457463,0.000928168,0.0131607,-0.00462321,0.0522868,0.0106546,0.0424857,1812,778,83.4683,-2.36467
595,246,83.7358,2.35406,0.0109928,-0.00285991,0.00161285,0.0111781,-0.00304521,0.11439,0.00864775,0.0471811,1819,778,83.7359,-2.35406
602,246,83.6162,2.64856,0,0,0,0,0,0,0,-1,1826,778,83.6163,-2.64855
609,246,65.04,3.03278,0,0,0,0,0,0,0,-1,1833,778,65.04,-3.03277
616,246,60.4568,3.98492,0,0,0,0,0,0,0,-1,1840,778,60.4568,-3.98491
623,246,55.8947,3.95953,0,0,0,0,0,0,0,-1,1847,778,55.8947,-3.95952
630,246,49.5938,1.99902,0,0,0,0,0,0,0,-1,1854,778,49.5937,-1.999
637,246,29.5785,0.837585,0,0,0,0,0,0,0,-1,1861,778,29.5785,-0.837606
644,246,28.1232,-1.43188,0,0,0,0,0,0,0,-1,1868,778,28.1232,1.43188
651,246,48.5865,-4.32922,0,0,0,0,0,0,0,-1,1875,778,48.5865,4.32921
658,246,58.3605,-4.94586,0,0,0,0,0,0,0,-1,1882,778,58.3605,4.94589
665,246,58.0803,-4.13074,-0.00117193,0.00085367,-0.000575949,0.00100598,-0.00132424,-1.31226,0.00134953,0.0331846,1889,778,58.0803,4.13073
672,246,57.9968,-3.10938,-0.000931987,0.000660989,-0.000757453,0.00096365,-0.00123465,-1.19065,0.0012724,0.022417,1896,778,57.9968,3.10934
679,246,57.9657,-2.05798,-0.000685416,0.000640819,-0.000711341,0.000950189,-0.000994785,-1.16056,0.00112303,0.0222087,1903,778,57.9657,2.05801
686,246,57.8263,-1.03204,-0.000151811,0.000961506,-0.000429888,0.00110818,-0.000298482,-1.242,0.000855809,0.0235161,1910,778,57.8263,1.03203
693,246,57.7831,-0.0535278,0.000583182,0.00148699,-3.30705e-05,0.0014882,0.000581973,-1.53427,0.000865983,0.0183224,1917,778,57.7831,0.0534976
700,246,57.7228,0.952148,0.00149437,0.00220958,0.000478031,0.00244896,0.00125498,1.10653,0.00141405,0.0154276,1924,778,57.7228,-0.952144
707,246,57.6342,2.00092,0.00254229,0.00304643,0.00105893,0.00388288,0.00170584,0.902244,0.00224728,0.0142459,1931,778,57.6341,-2.00092
714,246,57.5483,3.02448,0.00359191,0.00393816,0.00167945,0.00545338,0.00207668,0.836759,0.00317819,0.0149278,1938,778,57.5484,-3.0245
721,246,57.4442,3.98486,0.00494888,0.00498476,0.00253998,0.00750686,0.00242678,0.788929,0.00442341,0.0217211,1945,778,57.4442,-3.98486
728,246,57.5791,5.21173,0.00665579,0.00589509,0.0035065,0.00980251,0.00274838,0.731374,0.00583863,0.0419116,1952,778,57.5792,-5.21175
735,246,57.7664,6.51282,0,0,0,0,0,0,0,-1,1959,778,57.7664,-6.51282
742,246,31.7356,6.70013,0,0,0,0,0,0,0,-1,1966,778,31.7356,-6.70011
749,246,32.3883,7.69324,0,0,0,0,0,0,0,-1,1973,778,32.3883,-7.69322
756,246,33.6919,3.45264,0,0,0,0,0,0,0,-1,1980,778,33.6919,-3.45262
763,246,0,0,0,0,0,0,0,0,0,-1,1987,778,0,0
770,246,0,0,0,0,0,0,0,0,0,-1,1994,778,0,0
777,246,0,0,0,0,0,0,0,0,0,-1,2001,778,0,0
784,246,0,0,0,0,0,0,0,0,0,-1,2008,778,0,0
791,246,0,0,0,0,0,0,0,0,0,-1,2015,778,0,0
798,246,0,0,0,0,0,0,0,0,0,-1,2022,778,0,0
805,246,0,0,0,0,0,0,0,0,0,-1,2029,778,0,0
812,246,0,0,0,0,0,0,0,0,0,-1,2036,778,0,0
-700,239,0,0,0,0,0,0,0,0,0,-1,524,785,0,0
-693,239,0,0,0,0,0,0,0,0,0,-1,531,785,0,0
-686,239,0,0,0,0,0,0,0,0,0,-1,538,785,0,0
-679,239,0,0,0,0,0,0,0,0,0,-1,545,785,0,0
-672,239,0,0,0,0,0,0,0,0,0,-1,552,785,0,0
-665,239,0,0,0,0,0,0,0,0,0,-1,559,785,0,0
-658,239,0,0,0,0,0,0,0,0,0,-1,566,785,0,0
-651,239,0,0,0,0,0,0,0,0,0,-1,573,785,0,0
-644,239,0,0,0,0,0,0,0,0,0,-1,580,785,0,0
-637,239,-23.2709,0.465088,0,0,0,0,0,0,0,-1,587,785,-23.271,-0.465116
-630,239,-23.4006,0.956299,0,0,0,0,0,0,0,-1,594,785,-23.4005,-0.956285
-623,239,-30.6328,2.52185,0,0,0,0,0,0,0,-1,601,785,-30.6328,-2.52183
-616,239,-29.1425,1.42139,0,0,0,0,0,0,0,-1,608,785,-29.1425,-1.42139
-609,239,-27.8569,0.322937,0,0,0,0,0,0,0,-1,615,785,-27.857,-0.322963
-602,239,-41.168,7.24481,0,0,0,0,0,0,0,-1,622,785,-41.168,-7.24483
-595,239,-41.3995,5.45221,0.00749334,0.00875306,-0.00643805,0.014592,0.00165442,-0.83416,0.0092261,0.042575,629,785,-41.3995,-5.4522
-588,239,-41.6467,3.66943,0.00553647,0.00720663,-0.00464261,0.0110887,0.00165443,-0.874383,0.00690733,0.0208503,636,785,-41.6467,-3.6694
-581,239,-41.8388,2.53119,0.00397878,0.00578084,-0.00306709,0.00807651,0.00168312,-0.928266,0.00492022,0.0121176,643,785,-41.8388,-2.53119
-574,239,-41.8829,1.44067,0.00275876,0.00445524,-0.00168504,0.0054935,0.0017205,-1.01858,0.00324462,0.013203,650,785,-41.8829,-1.44065
-567,239,-41.9237,0.40979,0.00165971,0.0033067,-0.000573031,0.00348646,0.00147996,-1.26683,0.00202055,0.0193212,657,785,-41.9237,-0.409802
-560,239,-42.0059,-0.569885,0.000670679,0.00239889,0.000296491,0.00244834,0.000621228,1.40553,0.00146959,0.0199476,664,785,-42.0059,0.569885
-553,239,-42.0741,-1.57043,-0.00027255,0.00176935,0.000938742,0.00213533,-0.00063853,1.19906,0.00167741,0.0152479,671,785,-42.0741,1.57045
-546,239,-42.1205,-2.59924,-0.000828501,0.0013845,0.00170979,0.00231459,-0.0017586,1.07258,0.00235895,0.019923,678,785,-42.1206,2.59922
-539,239,-42.295,-3.68433,-0.00093029,0.000877326,0.00221715,0.00236781,-0.00242077,0.978938,0.00276474,0.0467469,685,785,-42.295,3.6843
-532,239,-42.2896,-4.75897,0,0,0,0,0,0,0,-1,692,785,-42.2895,4.75895
-525,239,-40.6288,-5.58417,0,0,0,0,0,0,0,-1,699,785,-40.6288,5.58416
-518,239,-40.5128,-6.22827,0,0,0,0,0,0,0,-1,706,785,-40.5128,6.22828
-511,239,-20.9849,-2.09235,0,0,0,0,0,0,0,-1,713,785,-20.9848,2.09234
-504,239,-25.5015,2.00421,0,0,0,0,0,0,0,-1,720,785,-25.5015,-2.00422
-497,239,-40.2453,1.4447,0,0,0,0,0,0,0,-1,727,785,-40.2453,-1.4447
-490,239,-55.7633,-0.30426,0,0,0,0,0,0,0,-1,734,785,-55.7633,0.304271
-483,239,-66.9091,0.477295,0,0,0,0,0,0,0,-1,741,785,-66.9091,-0.477307
-476,239,-66.8911,0.579895,0.000537717,-0.00872647,0.00360874,0.00177753,-0.00996629,0.330925,0.00730911,0.0438093,748,785,-66.8911,-0.579898
-469,239,-66.7192,0.797791,-0.000296457,-0.0116905,0.00399666,0.000965639,-0.0129526,0.305877,0.00897429,0.045474,755,785,-66.7193,-0.797796
-462,239,-66.7687,0.901245,-0.00230744,-0.0151392,0.00403748,-0.00114277,-0.0163039,0.28084,0.0105091,0.0473997,762,785,-66.7687,-0.901267
-455,239,0,0,0,0,0,0,0,0,0,-1,769,785,0,0
-448,239,0,0,0,0,0,0,0,0,0,-1,776,785,0,0
-441,239,0,0,0,0,0,0,0,0,0,-1,783,785,0,0
-434,239,0,0,0,0,0,0,0,0,0,-1,790,785,0,0
-427,239,0,0,0,0,0,0,0,0,0,-1,797,785,0,0
-420,239,0,0,0,0,0,0,0,0,0,-1,804,785,0,0
-413,239,0,0,0,0,0,0,0,0,0,-1,811,785,0,0
-406,239,0,0,0,0,0,0,0,0,0,-1,818,785,0,0
-399,239,0,0,0,0,0,0,0,0,0,-1,825,785,0,0
-392,239,0,0,0,0,0,0,0,0,0,-1,832,785,0,0
-385,239,0,0,0,0,0,0,0,0,0,-1,839,785,0,0
-378,239,0,0,0,0,0,0,0,0,0,-1,846,785,0,0
-371,239,0,0,0,0,0,0,0,0,0,-1,853,785,0,0
-364,239,0,0,0,0,0,0,0,0,0,-1,860,785,0,0
-357,239,0,0,0,0,0,0,0,0,0,-1,867,785,0,0
-350,239,0,0,0,0,0,0,0,0,0,-1,874,785,0,0
-343,239,0,0,0,0,0,0,0,0,0,-1,881,785,0,0
-336,239,0,0,0,0,0,0,0,0,0,-1,888,785,0,0
-329,239,0,0,0,0,0,0,0,0,0,-1,895,785,0,0
-322,239,0,0,0,0,0,0,0,0,0,-1,902,785,0,0
-315,239,0,0,0,0,0,0,0,0,0,-1,909,785,0,0
-308,239,0,0,0,0,0,0,0,0,0,-1,916,785,0,0
-301,239,0,0,0,0,0,0,0,0,0,-1,923,785,0,0
-294,239,0,0,0,0,0,0,0,0,0,-1,930,785,0,0
-287,239,0,0,0,0,0,0,0,0,0,-1,937,785,0,0
-280,239,0,0,0,0,0,0,0,0,0,-1,944,785,0,0
-273,239,0,0,0,0,0,0,0,0,0,-1,951,785,0,0
-266,239,0,0,0,0,0,0,0,0,0,-1,958,785,0,0
-259,239,0,0,0,0,0,0,0,0,0,-1,965,785,0,0
-252,239,0,0,0,0,0,0,0,0,0,-1,972,785,0,0
-245,239,0,0,0,0,0,0,0,0,0,-1,979,785,0,0
-238,239,0,0,0,0,0,0,0,0,0,-1,986,785,0,0
-231,239,0,0,0,0,0,0,0,0,0,-1,993,785,0,0
-224,239,0,0,0,0,0,0,0,0,0,-1,1000,785,0,0
-217,239,0,0,0,0,0,0,0,0,0,-1,1007,785,0,0
-210,239,0,0,0,0,0,0,0,0,0,-1,1014,785,0,0
-203,239,0,0,0,0,0,0,0,0,0,-1,1021,785,0,0
-196,239,0,0,0,0,0,0,0,0,0,-1,1028,785,0,0
-189,239,0,0,0,0,0,0,0,0,0,-1,1035,785,0,0
-182,239,0,0,0,0,0,0,0,0,0,-1,1042,785,0,0
-175,239,0,0,0,0,0,0,0,0,0,-1,1049,785,0,0
-168,239,0,0,0,0,0,0,0,0,0,-1,1056,785,0,0
-161,239,0,0,0,0,0,0,0,0,0,-1,1063,785,0,0
-154,239,0,0,0,0,0,0,0,0,0,-1,1070,785,0,0
-147,239,0,0,0,0,0,0,0,0,0,-1,1077,785,0,0
-140,239,0,0,0,0,0,0,0,0,0,-1,1084,785,0,0
-133,239,0,0,0,0,0,0,0,0,0,-1,1091,785,0,0
-126,239,0,0,0,0,0,0,0,0,0,-1,1098,785,0,0
-119,239,0,0,0,0,0,0,0,0,0,-1,1105,785,0,0
-112,239,0,0,0,0,0,0,0,0,0,-1,1112,785,0,0
-105,239,0,0,0,0,0,0,0,0,0,-1,1119,785,0,0
-98,239,0,0,0,0,0,0,0,0,0,-1,1126,785,0,0
-91,239,0,0,0,0,0,0,0,0,0,-1,1133,785,0,0
-84,239,0,0,0,0,0,0,0,0,0,-1,1140,785,0,0
-77,239,0,0,0,0,0,0,0,0,0,-1,1147,785,0,0
-70,239,0,0,0,0,0,0,0,0,0,-1,1154,785,0,0
-63,239,0,0,0,0,0,0,0,0,0,-1,1161,785,0,0
-56,239,0,0,0,0,0,0,0,0,0,-1,1168,785,0,0
-49,239,0,0,0,0,0,0,0,0,0,-1,1175,785,0,0
-42,239,0,0,0,0,0,0,0,0,0,-1,1182,785,0,0
-35,239,0,0,0,0,0,0,0,0,0,-1,1189,785,0,0
-28,239,0,0,0,0,0,0,0,0,0,-1,1196,785,0,0
-21,239,0,0,0,0,0,0,0,0,0,-1,1203,785,0,0
-14,239,0,0,0,0,0,0,0,0,0,-1,1210,785,0,0
-7,239,0,0,0,0,0,0,0,0,0,-1,1217,785,0,0
0,239,0,0,0,0,0,0,0,0,0,-1,1224,785,0,0
7,239,0,0,0,0,0,0,0,0,0,-1,1231,785,0,0
14,239,0,0,0,0,0,0,0,0,0,-1,1238,785,0,0
21,239,0,0,0,0,0,0,0,0,0,-1,1245,785,0,0
28,239,0,0,0,0,0,0,0,0,0,-1,1252,785,0,0
35,239,0,0,0,0,0,0,0,0,0,-1,1259,785,0,0
42,239,0,0,0,0,0,0,0,0,0,-1,1266,785,0,0
49,239,0,0,0,0,0,0,0,0,0,-1,1273,785,0,0
56,239,0,0,0,0,0,0,0,0,0,-1,1280,785,0,0
63,239,0,0,0,0,0,0,0,0,0,-1,1287,785,0,0
70,239,0,0,0,0,0,0,0,0,0,-1,1294,785,0,0
77,239,0,0,0,0,0,0,0,0,0,-1,1301,785,0,0
84,239,0,0,0,0,0,0,0,0,0,-1,1308,785,0,0
91,239,0,0,0,0,0,0,0,0,0,-1,1315,785,0,0
98,239,0,0,0,0,0,0,0,0,0,-1,1322,785,0,0
105,239,0,0,0,0,0,0,0,0,0,-1,1329,785,0,0
112,239,0,0,0,0,0,0,0,0,0,-1,1336,785,0,0
119,239,0,0,0,0,0,0,0,0,0,-1,1343,785,0,0
126,239,0,0,0,0,0,0,0,0,0,-1,1350,785,0,0
133,239,0,0,0,0,0,0,0,0,0,-1,1357,785,0,0
140,239,0,0,0,0,0,0,0,0,0,-1,1364,785,0,0
147,239,0,0,0,0,0,0,0,0,0,-1,1371,785,0,0
154,239,0,0,0,0,0,0,0,0,0,-1,1378,785,0,0
161,239,0,0,0,0,0,0,0,0,0,-1,1385,785,0,0
168,239,0,0,0,0,0,0,0,0,0,-1,1392,785,0,0
175,239,0,0,0,0,0,0,0,0,0,-1,1399,785,0,0
182,239,0,0,0,0,0,0,0,0,0,-1,1406,785,0,0
189,239,0,0,0,0,0,0,0,0,0,-1,1413,785,0,0
196,239,0,0,0,0,0,0,0,0,0,-1,1420,785,0,0
203,239,0,0,0,0,0,0,0,0,0,-1,1427,785,0,0
210,239,0,0,0,0,0,0,0,0,0,-1,1434,785,0,0
217,239,0,0,0,0,0,0,0,0,0,-1,1441,785,0,0
224,239,0,0,0,0,0,0,0,0,0,-1,1448,785,0,0
231,239,0,0,0,0,0,0,0,0,0,-1,1455,785,0,0
238,239,0,0,0,0,0,0,0,0,0,-1,1462,785,0,0
245,239,0,0,0,0,0,0,0,0,0,-1,1469,785,0,0
252,239,0,0,0,0,0,0,0,0,0,-1,1476,785,0,0
259,239,0,0,0,0,0,0,0,0,0,-1,1483,785,0,0
266,239,0,0,0,0,0,0,0,0,0,-1,1490,785,0,0
273,239,0,0,0,0,0,0,0,0,0,-1,1497,785,0,0
280,239,0,0,0,0,0,0,0,0,0,-1,1504,785,0,0
287,239,0,0,0,0,0,0,0,0,0,-1,1511,785,0,0
294,239,0,0,0,0,0,0,0,0,0,-1,1518,785,0,0
301,239,0,0,0,0,0,0,0,0,0,-1,1525,785,0,0
308,239,0,0,0,0,0,0,0,0,0,-1,1532,785,0,0
315,239,0,0,0,0,0,0,0,0,0,-1,1539,785,0,0
322,239,0,0,0,0,0,0,0,0,0,-1,1546,785,0,0
329,239,0,0,0,0,0,0,0,0,0,-1,1553,785,0,0
336,239,0,0,0,0,0,0,0,0,0,-1,1560,785,0,0
343,239,0,0,0,0,0,0,0,0,0,-1,1567,785,0,0
350,239,0,0,0,0,0,0,0,0,0,-1,1574,785,0,0
357,239,0,0,0,0,0,0,0,0,0,-1,1581,785,0,0
364,239,0,0,0,0,0,0,0,0,0,-1,1588,785,0,0
371,239,0,0,0,0,0,0,0,0,0,-1,1595,785,0,0
378,239,0,0,0,0,0,0,0,0,0,-1,1602,785,0,0
385,239,0,0,0,0,0,0,0,0,0,-1,1609,785,0,0
392,239,0,0,0,0,0,0,0,0,0,-1,1616,785,0,0
399,239,0,0,0,0,0,0,0,0,0,-1,1623,785,0,0
406,239,0,0,0,0,0,0,0,0,0,-1,1630,785,0,0
413,239,0,0,0,0,0,0,0,0,0,-1,1637,785,0,0
420,239,0,0,0,0,0,0,0,0,0,-1,1644,785,0,0
427,239,0,0,0,0,0,0,0,0,0,-1,1651,785,0,0
434,239,0,0,0,0,0,0,0,0,0,-1,1658,785,0,0
441,239,0,0,0,0,0,0,0,0,0,-1,1665,785,0,0
448,239,0,0,0,0,0,0,0,0,0,-1,1672,785,0,0
455,239,0,0,0,0,0,0,0,0,0,-1,1679,785,0,0
462,239,0,0,0,0,0,0,0,0,0,-1,1686,785,0,0
469,239,0,0,0,0,0,0,0,0,0,-1,1693,785,0,0
476,239,0,0,0,0,0,0,0,0,0,-1,1700,785,0,0
483,239,0,0,0,0,0,0,0,0,0,-1,1707,785,0,0
490,239,0,0,0,0,0,0,0,0,0,-1,1714,785,0,0
497,239,0,0,0,0,0,0,0,0,0,-1,1721,785,0,0
504,239,0,0,0,0,0,0,0,0,0,-1,1728,785,0,0
511,239,0,0,0,0,0,0,0,0,0,-1,1735,785,0,0
518,239,0,0,0,0,0,0,0,0,0,-1,1742,785,0,0
525,239,0,0,0,0,0,0,0,0,0,-1,1749,785,0,0
532,239,0,0,0,0,0,0,0,0,0,-1,1756,785,0,0
539,239,0,0,0,0,0,0,0,0,0,-1,1763,785,0,0
546,239,0,0,0,0,0,0,0,0,0,-1,1770,785,0,0
553,239,0,0,0,0,0,0,0,0,0,-1,1777,785,0,0
560,239,0,0,0,0,0,0,0,0,0,-1,1784,785,0,0
567,239,0,0,0,0,0,0,0,0,0,-1,1791,785,0,0
574,239,0,0,0,0,0,0,0,0,0,-1,1798,785,0,0
581,239,83.3004,2.64032,0.0106486,-0.00385262,-0.00217363,0.0109674,-0.00417143,-0.14563,0.00902921,0.0336076,1805,785,83.3004,-2.64031
588,239,83.3048,2.53705,0.0100336,-0.00259412,7.68494e-05,0.0100341,-0.00259459,0.00608547,0.00770133,0.0353614,1812,785,83.3048,-2.53706
595,239,83.4404,2.4173,0.00869609,-0.00119238,0.00121805,0.00884392,-0.00134021,0.120774,0.0063897,0.0360367,1819,785,83.4404,-2.4173
602,239,83.4806,2.50543,0.00684588,-0.000133102,0.0015424,0.00717156,-0.000458785,0.208097,0.00494107,0.0461677,1826,785,83.4806,-2.50545
609,239,83.4504,2.67126,0,0,0,0,0,0,0,-1,1833,785,83.4504,-2.67124
616,239,55.8469,3.72443,0,0,0,0,0,0,0,-1,1840,785,55.8469,-3.72445
623,239,65.0618,2.66516,0,0,0,0,0,0,0,-1,1847,785,65.0617,-2.66519
630,239,54.5767,3.64667,0,0,0,0,0,0,0,-1,1854,785,54.5766,-3.64667
637,239,39.5542,2.54114,0,0,0,0,0,0,0,-1,1861,785,39.5543,-2.54114
644,239,18.3466,0.735413,0,0,0,0,0,0,0,-1,1868,785,18.3465,-0.735414
651,239,34.2471,-2.15778,0,0,0,0,0,0,0,-1,1875,785,34.2471,2.1578
658,239,58.7882,-5.3009,0,0,0,0,0,0,0,-1,1882,785,58.7882,5.30093
665,239,59.0338,-4.09375,-0.00116849,0.000382615,-0.000203059,0.000408757,-0.00119463,-1.44276,0.000962068,0.0446188,1889,785,59.0338,4.09376
672,239,59.066,-3.00079,-0.000980397,0.000401378,-0.000505926,0.000566812,-0.00114583,-1.25476,0.00100746,0.025692,1896,785,59.066,3.0008
679,239,58.9567,-1.94757,-0.000908369,0.00042543,-0.000646094,0.000687074,-0.00117001,-1.18602,0.00108421,0.0247061,1903,785,58.9566,1.94759
686,239,58.8204,-0.903503,-0.00052238,0.00067559,-0.000547329,0.000887995,-0.000734784,-1.20061,0.000938302,0.0260847,1910,785,58.8204,0.903514
693,239,58.8093,0.015564,0.000178666,0.00117457,-0.000272365,0.00124419,0.000109046,-1.32054,0.000795606,0.0171104,1917,785,58.8094,-0.0155752
700,239,58.7551,1.03571,0.0010836,0.00183366,0.000198121,0.00188278,0.00103448,1.32779,0.00108879,0.0123787,1924,785,58.7552,-1.03573
707,239,58.6742,2.07318,0.00213017,0.00253391,0.000795511,0.00315276,0.00151132,0.909655,0.00182077,0.0119239,1931,785,58.6742,-2.07321
714,239,58.5914,3.06262,0.00321068,0.00332039,0.00145806,0.00472463,0.00180644,0.8042,0.00275282,0.0112038,1938,785,58.5914,-3.06259
721,239,58.4977,4.07745,0.00449258,0.00413835,0.00230818,0.00663043,0.0020005,0.747107,0.00392713,0.0225543,1945,785,58.4977,-4.07746
728,239,58.5476,5.24371,0.00601473,0.0047712,0.00326963,0.00872119,0.00206474,0.691438,0.00526267,0.0435285,1952,785,58.5476,-5.24371
735,239,58.8903,6.59937,0,0,0,0,0,0,0,-1,1959,785,58.8902,-6.59934
742,239,32.4141,7.6665,0,0,0,0,0,0,0,-1,1966,785,32.4141,-7.6665
749,239,32.1489,3.4411,0,0,0,0,0,0,0,-1,1973,785,32.149,-3.44109
756,239,32.9064,3.6687,0,0,0,0,0,0,0,-1,1980,785,32.9063,-3.66873
763,239,0,0,0,0,0,0,0,0,0,-1,1987,785,0,0
770,239,0,0,0,0,0,0,0,0,0,-1,1994,785,0,0
777,239,0,0,0,0,0,0,0,0,0,-1,2001,785,0,0
784,239,0,0,0,0,0,0,0,0,0,-1,2008,785,0,0
791,239,0,0,0,0,0,0,0,0,0,-1,2015,785,0,0
798,239,0,0,0,0,0,0,0,0,0,-1,2022,785,0,0
805,239,0,0,0,0,0,0,0,0,0,-1,2029,785,0,0
812,239,0,0,0,0,0,0,0,0,0,-1,2036,785,0,0
-700,232,0,0,0,0,0,0,0,0,0,-1,524,792,0,0
-693,232,0,0,0,0,0,0,0,0,0,-1,531,792,0,0
-686,232,0,0,0,0,0,0,0,0,0,-1,538,792,0,0
-679,232,0,0,0,0,0,0,0,0,0,-1,545,792,0,0
-672,232,0,0,0,0,0,0,0,0,0,-1,552,792,0,0
-665,232,0,0,0,0,0,0,0,0,0,-1,559,792,0,0
-658,232,0,0,0,0,0,0,0,0,0,-1,566,792,0,0
-651,232,0,0,0,0,0,0,0,0,0,-1,573,792,0,0
-644,232,-41.2348,4.28168,0,0,0,0,0,0,0,-1,580,792,-41.2348,-4.28166
-637,232,-42.1427,3.51453,0,0,0,0,0,0,0,-1,587,792,-42.1427,-3.51452
-630,232,-32.2345,1.80212,0,0,0,0,0,0,0,-1,594,792,-32.2345,-1.80211
-623,232,-31.5665,1.05115,0,0,0,0,0,0,0,-1,601,792,-31.5664,-1.05112
-616,232,-30.6812,0.432861,0,0,0,0,0,0,0,-1,608,792,-30.6812,-0.432881
-609,232,-29.7142,-0.478943,0,0,0,0,0,0,0,-1,615,792,-29.7142,0.478965
-602,232,-43.0983,5.2041,0,0,0,0,0,0,0,-1,622,792,-43.0983,-5.2041
-595,232,-42.5668,5.34137,0.00756061,0.00680416,-0.0054992,0.0126946,0.0016702,-0.751063,0.00796491,0.0373171,629,792,-42.5668,-5.34135
-588,232,-42.7172,3.68524,0.00568813,0.00582261,-0.00397215,0.00972809,0.00178265,-0.793861,0.0059804,0.014108,636,792,-42.7172,-3.68522
-581,232,-42.8058,2.58246,0.00417506,0.00480822,-0.00254339,0.00705465,0.00192862,-0.847316,0.00421014,0.00951827,643,792,-42.8058,-2.58247
-574,232,-42.8782,1.5625,0.0029364,0.00380324,-0.00124688,0.00468988,0.00204976,-0.952668,0.00271484,0.00922485,650,792,-42.8782,-1.5625
-567,232,-42.9797,0.543884,0.00179079,0.00294059,-0.000160957,0.00296269,0.00176868,-1.4343,0.0017212,0.0109577,657,792,-42.9797,-0.54387
-560,232,-43.0732,-0.477478,0.000725593,0.00233797,0.000742848,0.00262803,0.000435532,1.19853,0.0016264,0.0152315,664,792,-43.0732,0.477451
-553,232,-43.1588,-1.51239,-0.000376493,0.0020216,0.00137191,0.0026446,-0.00099949,1.14453,0.0021742,0.0156452,671,792,-43.1588,1.51236
-546,232,-43.148,-2.48431,-0.000832103,0.00189321,0.00218549,0.00310605,-0.00204494,1.06416,0.00299489,0.0464152,678,792,-43.148,2.48431
-539,232,-42.9103,-3.40637,0,0,0,0,0,0,0,-1,685,792,-42.9103,3.4064
-532,232,-42.0667,-4.5351,0,0,0,0,0,0,0,-1,692,792,-42.0667,4.53507
-525,232,-41.7694,-5.81165,0,0,0,0,0,0,0,-1,699,792,-41.7694,5.81167
-518,232,-20.8098,-3.08154,0,0,0,0,0,0,0,-1,706,792,-20.8098,3.08155
-511,232,-21.6708,-0.962708,0,0,0,0,0,0,0,-1,713,792,-21.6708,0.962731
-504,232,-34.2155,0.346985,0,0,0,0,0,0,0,-1,720,792,-34.2155,-0.346955
-497,232,-52.7195,0.518677,0,0,0,0,0,0,0,-1,727,792,-52.7195,-0.518678
-490,232,-66.9087,0.417236,0,0,0,0,0,0,0,-1,734,792,-66.9087,-0.417213
-483,232,-66.9512,0.55127,0.0020326,-0.00522511,0.00349111,0.00343927,-0.00663177,0.383027,0.0059111,0.0442905,741,792,-66.9512,-0.551241
-476,232,-66.8608,0.550659,0.00205611,-0.00727527,0.00376221,0.00338399,-0.00860315,0.339302,0.00713609,0.0361711,748,792,-66.8608,-0.550652
-469,232,-66.7744,0.635193,0.00171655,-0.0100081,0.00427503,0.00310976,-0.0114013,0.315039,0.00882211,0.0371221,755,792,-66.7744,-0.63517
-462,232,0,0,0,0,0,0,0,0,0,-1,762,792,0,0
-455,232,0,0,0,0,0,0,0,0,0,-1,769,792,0,0
-448,232,0,0,0,0,0,0,0,0,0,-1,776,792,0,0
-441,232,0,0,0,0,0,0,0,0,0,-1,783,792,0,0
-434,232,0,0,0,0,0,0,0,0,0,-1,790,792,0,0
-427,232,0,0,0,0,0,0,0,0,0,-1,797,792,0,0
-420,232,0,0,0,0,0,0,0,0,0,-1,804,792,0,0
-413,232,0,0,0,0,0,0,0,0,0,-1,811,792,0,0
-406,232,0,0,0,0,0,0,0,0,0,-1,818,792,0,0
-399,232,0,0,0,0,0,0,0,0,0,-1,825,792,0,0
-392,232,0,0,0,0,0,0,0,0,0,-1,832,792,0,0
-385,232,0,0,0,0,0,0,0,0,0,-1,839,792,0,0
-378,232,0,0,0,0,0,0,0,0,0,-1,846,792,0,0
-371,232,0,0,0,0,0,0,0,0,0,-1,853,792,0,0
-364,232,0,0,0,0,0,0,0,0,0,-1,860,792,0,0
-357,232,0,0,0,0,0,0,0,0,0,-1,867,792,0,0
-350,232,0,0,0,0,0,0,0,0,0,-1,874,792,0,0
-343,232,0,0,0,0,0,0,0,0,0,-1,881,792,0,0
-336,232,0,0,0,0,0,0,0,0,0,-1,888,792,0,0
-329,232,0,0,0,0,0,0,0,0,0,-1,895,792,0,0
-322,232,0,0,0,0,0,0,0,0,0,-1,902,792,0,0
-315,232,0,0,0,0,0,0,0,0,0,-1,909,792,0,0
-308,232,0,0,0,0,0,0,0,0,0,-1,916,792,0,0
-301,232,0,0,0,0,0,0,0,0,0,-1,923,792,0,0
-294,232,0,0,0,0,0,0,0,0,0,-1,930,792,0,0
-287,232,0,0,0,0,0,0,0,0,0,-1,937,792,0,0
-280,232,0,0,0,0,0,0,0,0,0,-1,944,792,0,0
-273,232,0,0,0,0,0,0,0,0,0,-1,951,792,0,0
-266,232,0,0,0,0,0,0,0,0,0,-1,958,792,0,0
-259,232,0,0,0,0,0,0,0,0,0,-1,965,792,0,0
-252,232,0,0,0,0,0,0,0,0,0,-1,972,792,0,0
-245,232,0,0,0,0,0,0,0,0,0,-1,979,792,0,0
-238,232,0,0,0,0,0,0,0,0,0,-1,986,792,0,0
-231,232,0,0,0,0,0,0,0,0,0,-1,993,792,0,0
-224,232,0,0,0,0,0,0,0,0,0,-1,1000,792,0,0
-217,232,0,0,0,0,0,0,0,0,0,-1,1007,792,0,0
-210,232,0,0,0,0,0,0,0,0,0,-1,1014,792,0,0
-203,232,0,0,0,0,0,0,0,0,0,-1,1021,792,0,0
-196,232,0,0,0,0,0,0,0,0,0,-1,1028,792,0,0
-189,232,0,0,0,0,0,0,0,0,0,-1,1035,792,0,0
-182,232,0,0,0,0,0,0,0,0,0,-1,1042,792,0,0
-175,232,0,0,0,0,0,0,0,0,0,-1,1049,792,0,0
-168,232,0,0,0,0,0,0,0,0,0,-1,1056,792,0,0
-161,232,0,0,0,0,0,0,0,0,0,-1,1063,792,0,0
-154,232,0,0,0,0,0,0,0,0,0,-1,1070,792,0,0
-147,232,0,0,0,0,0,0,0,0,0,-1,1077,792,0,0
-140,232,0,0,0,0,0,0,0,0,0,-1,1084,792,0,0
-133,232,0,0,0,0,0,0,0,0,0,-1,1091,792,0,0
-126,232,0,0,0,0,0,0,0,0,0,-1,1098,792,0,0
-119,232,0,0,0,0,0,0,0,0,0,-1,1105,792,0,0
-112,232,0,0,0,0,0,0,0,0,0,-1,1112,792,0,0
-105,232,0,0,0,0,0,0,0,0,0,-1,1119,792,0,0
-98,232,0,0,0,0,0,0,0,0,0,-1,1126,792,0,0
-91,232,0,0,0,0,0,0,0,0,0,-1,1133,792,0,0
-84,232,0,0,0,0,0,0,0,0,0,-1,1140,792,0,0
-77,232,0,0,0,0,0,0,0,0,0,-1,1147,792,0,0
-70,232,0,0,0,0,0,0,0,0,0,-1,1154,792,0,0
-63,232,0,0,0,0,0,0,0,0,0,-1,1161,792,0,0
-56,232,0,0,0,0,0,0,0,0,0,-1,1168,792,0,0
-49,232,0,0,0,0,0,0,0,0,0,-1,1175,792,0,0
-42,232,0,0,0,0,0,0,0,0,0,-1,1182,792,0,0
-35,232,0,0,0,0,0,0,0,0,0,-1,1189,792,0,0
-28,232,0,0,0,0,0,0,0,0,0,-1,1196,792,0,0
-21,232,0,0,0,0,0,0,0,0,0,-1,1203,792,0,0
-14,232,0,0,0,0,0,0,0,0,0,-1,1210,792,0,0
-7,232,0,0,0,0,0,0,0,0,0,-1,1217,792,0,0
0,232,0,0,0,0,0,0,0,0,0,-1,1224,792,0,0
7,232,0,0,0,0,0,0,0,0,0,-1,1231,792,0,0
14,232,0,0,0,0,0,0,0,0,0,-1,1238,792,0,0
21,232,0,0,0,0,0,0,0,0,0,-1,1245,792,0,0
28,232,0,0,0,0,0,0,0,0,0,-1,1252,792,0,0
35,232,0,0,0,0,0,0,0,0,0,-1,1259,792,0,0
42,232,0,0,0,0,0,0,0,0,0,-1,1266,792,0,0
49,232,0,0,0,0,0,0,0,0,0,-1,1273,792,0,0
56,232,0,0,0,0,0,0,0,0,0,-1,1280,792,0,0
63,232,0,0,0,0,0,0,0,0,0,-1,1287,792,0,0
70,232,0,0,0,0,0,0,0,0,0,-1,1294,792,0,0
77,232,0,0,0,0,0,0,0,0,0,-1,1301,792,0,0
84,232,0,0,0,0,0,0,0,0,0,-1,1308,792,0,0
91,232,0,0,0,0,0,0,0,0,0,-1,1315,792,0,0
98,232,0,0,0,0,0,0,0,0,0,-1,1322,792,0,0
105,232,0,0,0,0,0,0,0,0,0,-1,1329,792,0,0
112,232,0,0,0,0,0,0,0,0,0,-1,1336,792,0,0
119,232,0,0,0,0,0,0,0,0,0,-1,1343,792,0,0
126,232,0,0,0,0,0,0,0,0,0,-1,1350,792,0,0
133,232,0,0,0,0,0,0,0,0,0,-1,1357,792,0,0
140,232,0,0,0,0,0,0,0,0,0,-1,1364,792,0,0
147,232,0,0,0,0,0,0,0,0,0,-1,1371,792,0,0
154,232,0,0,0,0,0,0,0,0,0,-1,1378,792,0,0
161,232,0,0,0,0,0,0,0,0,0,-1,1385,792,0,0
168,232,0,0,0,0,0,0,0,0,0,-1,1392,792,0,0
175,232,0,0,0,0,0,0,0,0,0,-1,1399,792,0,0
182,232,0,0,0,0,0,0,0,0,0,-1,1406,792,0,0
189,232,0,0,0,0,0,0,0,0,0,-1,1413,792,0,0
196,232,0,0,0,0,0,0,0,0,0,-1,1420,792,0,0
203,232,0,0,0,0,0,0,0,0,0,-1,1427,792,0,0
210,232,0,0,0,0,0,0,0,0,0,-1,1434,792,0,0
217,232,0,0,0,0,0,0,0,0,0,-1,1441,792,0,0
224,232,0,0,0,0,0,0,0,0,0,-1,1448,792,0,0
231,232,0,0,0,0,0,0,0,0,0,-1,1455,792,0,0
238,232,0,0,0,0,0,0,0,0,0,-1,1462,792,0,0
245,232,0,0,0,0,0,0,0,0,0,-1,1469,792,0,0
252,232,0,0,0,0,0,0,0,0,0,-1,1476,792,0,0
259,232,0,0,0,0,0,0,0,0,0,-1,1483,792,0,0
266,232,0,0,0,0,0,0,0,0,0,-1,1490,792,0,0
273,232,0,0,0,0,0,0,0,0,0,-1,1497,792,0,0
280,232,0,0,0,0,0,0,0,0,0,-1,1504,792,0,0
287,232,0,0,0,0,0,0,0,0,0,-1,1511,792,0,0
294,232,0,0,0,0,0,0,0,0,0,-1,1518,792,0,0
301,232,0,0,0,0,0,0,0,0,0,-1,1525,792,0,0
308,232,0,0,0,0,0,0,0,0,0,-1,1532,792,0,0
315,232,0,0,0,0,0,0,0,0,0,-1,1539,792,0,0
322,232,0,0,0,0,0,0,0,0,0,-1,1546,792,0,0
329,232,0,0,0,0,0,0,0,0,0,-1,1553,792,0,0
336,232,0,0,0,0,0,0,0,0,0,-1,1560,792,0,0
343,232,0,0,0,0,0,0,0,0,0,-1,1567,792,0,0
350,232,0,0,0,0,0,0,0,0,0,-1,1574,792,0,0
357,232,0,0,0,0,0,0,0,0,0,-1,1581,792,0,0
364,232,0,0,0,0,0,0,0,0,0,-1,1588,792,0,0
371,232,0,0,0,0,0,0,0,0,0,-1,1595,792,0,0
378,232,0,0,0,0,0,0,0,0,0,-1,1602,792,0,0
385,232,0,0,0,0,0,0,0,0,0,-1,1609,792,0,0
392,232,0,0,0,0,0,0,0,0,0,-1,1616,792,0,0
399,232,0,0,0,0,0,0,0,0,0,-1,1623,792,0,0
406,232,0,0,0,0,0,0,0,0,0,-1,1630,792,0,0
413,232,0,0,0,0,0,0,0,0,0,-1,1637,792,0,0
420,232,0,0,0,0,0,0,0,0,0,-1,1644,792,0,0
427,232,0,0,0,0,0,0,0,0,0,-1,1651,792,0,0
434,232,0,0,0,0,0,0,0,0,0,-1,1658,792,0,0
441,232,0,0,0,0,0,0,0,0,0,-1,1665,792,0,0
448,232,0,0,0,0,0,0,0,0,0,-1,1672,792,0,0
455,232,0,0,0,0,0,0,0,0,0,-1,1679,792,0,0
462,232,0,0,0,0,0,0,0,0,0,-1,1686,792,0,0
469,232,0,0,0,0,0,0,0,0,0,-1,1693,792,0,0
476,232,0,0,0,0,0,0,0,0,0,-1,1700,792,0,0
483,232,0,0,0,0,0,0,0,0,0,-1,1707,792,0,0
490,232,0,0,0,0,0,0,0,0,0,-1,1714,792,0,0
497,232,0,0,0,0,0,0,0,0,0,-1,1721,792,0,0
504,232,0,0,0,0,0,0,0,0,0,-1,1728,792,0,0
511,232,0,0,0,0,0,0,0,0,0,-1,1735,792,0,0
518,232,0,0,0,0,0,0,0,0,0,-1,1742,792,0,0
525,232,0,0,0,0,0,0,0,0,0,-1,1749,792,0,0
532,232,0,0,0,0,0,0,0,0,0,-1,1756,792,0,0
539,232,0,0,0,0,0,0,0,0,0,-1,1763,792,0,0
546,232,0,0,0,0,0,0,0,0,0,-1,1770,792,0,0
553,232,0,0,0,0,0,0,0,0,0,-1,1777,792,0,0
560,232,0,0,0,0,0,0,0,0,0,-1,1784,792,0,0
567,232,0,0,0,0,0,0,0,0,0,-1,1791,792,0,0
574,232,0,0,0,0,0,0,0,0,0,-1,1798,792,0,0
581,232,0,0,0,0,0,0,0,0,0,-1,1805,792,0,0
588,232,83.308,2.40753,0.00679133,-0.00195976,-0.000743727,0.00685409,-0.00202251,-0.0841822,0.00537201,0.0344108,1812,792,83.308,-2.40755
595,232,83.3518,2.42023,0.00618951,-0.000738108,0.000742738,0.00626825,-0.000816845,0.105615,0.00447603,0.0365836,1819,792,83.3518,-2.42022
602,232,83.4086,2.40363,0.00496013,0.000262053,0.00142901,0.00536065,-0.000138464,0.273264,0.0036208,0.0382465,1826,792,83.4086,-2.4036
609,232,83.3905,2.46613,0.0031662,0.000643295,0.00140476,0.00379277,1.67283e-05,0.419548,0.00252296,0.0455614,1833,792,83.3906,-2.46614
616,232,83.4471,2.45612,0,0,0,0,0,0,0,-1,1840,792,83.4471,-2.4561
623,232,74.9668,2.53278,0,0,0,0,0,0,0,-1,1847,792,74.9667,-2.5328
630,232,64.9034,2.97992,0,0,0,0,0,0,0,-1,1854,792,64.9035,-2.9799
637,232,47.0471,4.04309,0,0,0,0,0,0,0,-1,1861,792,47.0471,-4.04309
644,232,30.7756,4.24139,0,0,0,0,0,0,0,-1,1868,792,30.7757,-4.24141
651,232,31.6797,-0.564087,0,0,0,0,0,0,0,-1,1875,792,31.6797,0.564059
658,232,46.7423,-3.10736,0,0,0,0,0,0,0,-1,1882,792,46.7423,3.10735
665,232,59.8201,-3.98761,0,0,0,0,0,0,0,-1,1889,792,59.82,3.98759
672,232,59.9436,-2.95667,0,0,0,0,0,0,0,-1,1896,792,59.9436,2.95668
679,232,59.9087,-1.84729,-0.000897117,0.000358404,-0.000657716,0.00063986,-0.00117857,-1.16645,0.00106512,0.0234982,1903,792,59.9087,1.84729
686,232,59.859,-0.814636,-0.000699209,0.000455556,-0.000686111,0.0007749,-0.00101855,-1.13518,0.00103863,0.0227074,1910,792,59.859,0.814606
693,232,59.8091,0.0944824,-0.000107398,0.000857229,-0.000536335,0.00109622,-0.00034639,-1.15161,0.000869587,0.0132683,1917,792,59.809,-0.0944942
700,232,59.7488,1.10919,0.000727654,0.00144254,-0.000108246,0.00145858,0.000711623,-1.42377,0.000842191,0.0148015,1924,792,59.7488,-1.10919
707,232,59.71,2.12744,0.00178981,0.00205479,0.000530302,0.0024689,0.0013757,0.907813,0.00142853,0.0135661,1931,792,59.7099,-2.12747
714,232,59.6305,3.10962,0.00293616,0.00280599,0.00126341,0.00413616,0.001606,0.759663,0.0024078,0.0139361,1938,792,59.6305,-3.10964
721,232,59.5303,4.14417,0.0042459,0.00352222,0.00216339,0.0060775,0.00169062,0.702537,0.00362212,0.0196554,1945,792,59.5302,-4.14418
728,232,59.4576,5.10742,0.00578332,0.0040556,0.00320559,0.00823941,0.00159951,0.653782,0.00504501,0.0491167,1952,792,59.4576,-5.10743
735,232,59.624,6.31281,0,0,0,0,0,0,0,-1,1959,792,59.624,-6.31277
742,232,25.6461,6.00684,0,0,0,0,0,0,0,-1,1966,792,25.6461,-6.00684
749,232,31.2874,3.74713,0,0,0,0,0,0,0,-1,1973,792,31.2874,-3.74713
756,232,34.9586,15.3984,0,0,0,0,0,0,0,-1,1980,792,34.9586,-15.3984
763,232,35.741,16.6099,0,0,0,0,0,0,0,-1,1987,792,35.741,-16.6099
770,232,0,0,0,0,0,0,0,0,0,-1,1994,792,0,0
777,232,0,0,0,0,0,0,0,0,0,-1,2001,792,0,0
784,232,0,0,0,0,0,0,0,0,0,-1,2008,792,0,0
791,232,0,0,0,0,0,0,0,0,0,-1,2015,792,0,0
798,232,0,0,0,0,0,0,0,0,0,-1,2022,792,0,0
805,232,0,0,0,0,0,0,0,0,0,-1,2029,792,0,0
812,232,0,0,0,0,0,0,0,0,0,-1,2036,792,0,0
-700,225,0,0,0,0,0,0,0,0,0,-1,524,799,0,0
-693,225,0,0,0,0,0,0,0,0,0,-1,531,799,0,0
-686,225,0,0,0,0,0,0,0,0,0,-1,538,799,0,0
-679,225,0,0,0,0,0,0,0,0,0,-1,545,799,0,0
-672,225,0,0,0,0,0,0,0,0,0,-1,552,799,0,0
-665,225,0,0,0,0,0,0,0,0,0,-1,559,799,0,0
-658,225,0,0,0,0,0,0,0,0,0,-1,566,799,0,0
-651,225,0,0,0,0,0,0,0,0,0,-1,573,799,0,0
-644,225,-40.8898,4.14661,0,0,0,0,0,0,0,-1,580,799,-40.8898,-4.14661
-637,225,-41.61,3.36749,0,0,0,0,0,0,0,-1,587,799,-41.61,-3.36751
-630,225,-30.244,4.82196,0,0,0,0,0,0,0,-1,594,799,-30.244,-4.82193
-623,225,-32.8276,-0.00836182,0,0,0,0,0,0,0,-1,601,799,-32.8276,0.00837668
-616,225,-32.0569,-0.549255,0,0,0,0,0,0,0,-1,608,799,-32.0569,0.549265
-609,225,-44.6832,6.11469,0,0,0,0,0,0,0,-1,615,799,-44.6832,-6.1147
-602,225,-44.236,5.29578,0.00841617,0.00504647,-0.00432665,0.0113744,0.0020882,-0.599725,0.00699163,0.048278,622,799,-44.236,-5.29576
-595,225,-43.7705,4.69421,0.00638099,0.00487895,-0.00376257,0.00946676,0.00179318,-0.686891,0.00580649,0.0293342,629,799,-43.7705,-4.69422
-588,225,-43.7677,3.63922,0.00500287,0.00446831,-0.00272116,0.00746984,0.00200134,-0.736443,0.00446489,0.01285,636,799,-43.7677,-3.63921
-581,225,-43.8283,2.63184,0.00386023,0.00389215,-0.00156867,0.00544494,0.00230744,-0.790484,0.00315579,0.0119189,643,799,-43.8283,-2.63185
-574,225,-43.9037,1.61987,0.0029004,0.00324474,-0.00041611,0.00352289,0.00262225,-0.981553,0.00211335,0.0094099,650,799,-43.9037,-1.61985
-567,225,-43.9989,0.600891,0.0020212,0.00269311,0.00057705,0.00302487,0.00168943,1.04901,0.00175039,0.0121266,657,799,-43.9989,-0.600892
-560,225,-44.0829,-0.380005,0.00115958,0.00240896,0.00149109,0.00340093,0.000167614,0.983767,0.00221353,0.0139082,664,799,-44.0829,0.380023
-553,225,-44.1606,-1.42749,0.000187896,0.00235435,0.00208434,0.00362013,-0.00107789,1.02504,0.00284169,0.0133441,671,799,-44.1606,1.42751
-546,225,-44.0994,-2.33795,-2.27795e-06,0.00232661,0.00283152,0.00422377,-0.00189943,0.980479,0.00361914,0.0474402,678,799,-44.0994,2.33798
-539,225,-43.9531,-2.97894,0,0,0,0,0,0,0,-1,685,799,-43.9531,2.97896
-532,225,-43.303,-4.36078,0,0,0,0,0,0,0,-1,692,799,-43.303,4.36081
-525,225,-29.1705,-3.88239,0,0,0,0,0,0,0,-1,699,799,-29.1705,3.88237
-518,225,-21.963,0.171326,0,0,0,0,0,0,0,-1,706,799,-21.9629,-0.171319
-511,225,-33.0002,0.660217,0,0,0,0,0,0,0,-1,713,799,-33.0002,-0.660239
-504,225,-50.4542,0.524109,0,0,0,0,0,0,0,-1,720,799,-50.4542,-0.524105
-497,225,-66.8637,0.440979,0,0,0,0,0,0,0,-1,727,799,-66.8637,-0.440995
-490,225,-66.8378,0.516846,0.00261204,-0.00315055,0.00399504,0.00465642,-0.00519492,0.472986,0.00569051,0.0408799,734,799,-66.8378,-0.516845
-483,225,-66.8572,0.591309,0.00327281,-0.00444759,0.00403288,0.0049952,-0.00616997,0.403636,0.0064581,0.0342609,741,799,-66.8573,-0.59128
-476,225,-66.7722,0.575439,0.00375009,-0.00620734,0.00436266,0.00539108,-0.00784833,0.359772,0.00768753,0.0328013,748,799,-66.7722,-0.575434
-469,225,-66.6989,0.587524,0.00375427,-0.00851345,0.00486345,0.0054484,-0.0102076,0.335194,0.00917713,0.0367685,755,799,-66.6988,-0.587503
-462,225,0,0,0,0,0,0,0,0,0,-1,762,799,0,0
-455,225,0,0,0,0,0,0,0,0,0,-1,769,799,0,0
-448,225,0,0,0,0,0,0,0,0,0,-1,776,799,0,0
-441,225,0,0,0,0,0,0,0,0,0,-1,783,799,0,0
-434,225,0,0,0,0,0,0,0,0,0,-1,790,799,0,0
-427,225,0,0,0,0,0,0,0,0,0,-1,797,799,0,0
-420,225,0,0,0,0,0,0,0,0,0,-1,804,799,0,0
-413,225,0,0,0,0,0,0,0,0,0,-1,811,799,0,0
-406,225,0,0,0,0,0,0,0,0,0,-1,818,799,0,0
-399,225,0,0,0,0,0,0,0,0,0,-1,825,799,0,0
-392,225,0,0,0,0,0,0,0,0,0,-1,832,799,0,0
-385,225,0,0,0,0,0,0,0,0,0,-1,839,799,0,0
-378,225,0,0,0,0,0,0,0,0,0,-1,846,799,0,0
-371,225,0,0,0,0,0,0,0,0,0,-1,853,799,0,0
-364,225,0,0,0,0,0,0,0,0,0,-1,860,799,0,0
-357,225,0,0,0,0,0,0,0,0,0,-1,867,799,0,0
-350,225,0,0,0,0,0,0,0,0,0,-1,874,799,0,0
-343,225,0,0,0,0,0,0,0,0,0,-1,881,799,0,0
-336,225,0,0,0,0,0,0,0,0,0,-1,888,799,0,0
-329,225,0,0,0,0,0,0,0,0,0,-1,895,799,0,0
-322,225,0,0,0,0,0,0,0,0,0,-1,902,799,0,0
-315,225,0,0,0,0,0,0,0,0,0,-1,909,799,0,0
-308,225,0,0,0,0,0,0,0,0,0,-1,916,799,0,0
-301,225,0,0,0,0,0,0,0,0,0,-1,923,799,0,0
-294,225,0,0,0,0,0,0,0,0,0,-1,930,799,0,0
-287,225,0,0,0,0,0,0,0,0,0,-1,937,799,0,0
-280,225,0,0,0,0,0,0,0,0,0,-1,944,799,0,0
-273,225,0,0,0,0,0,0,0,0,0,-1,951,799,0,0
-266,225,0,0,0,0,0,0,0,0,0,-1,958,799,0,0
-259,225,0,0,0,0,0,0,0,0,0,-1,965,799,0,0
-252,225,0,0,0,0,0,0,0,0,0,-1,972,799,0,0
-245,225,0,0,0,0,0,0,0,0,0,-1,979,799,0,0
-238,225,0,0,0,0,0,0,0,0,0,-1,986,799,0,0
-231,225,0,0,0,0,0,0,0,0,0,-1,993,799,0,0
-224,225,0,0,0,0,0,0,0,0,0,-1,1000,799,0,0
-217,225,0,0,0,0,0,0,0,0,0,-1,1007,799,0,0
-210,225,0,0,0,0,0,0,0,0,0,-1,1014,799,0,0
-203,225,0,0,0,0,0,0,0,0,0,-1,1021,799,0,0
-196,225,0,0,0,0,0,0,0,0,0,-1,1028,799,0,0
-189,225,0,0,0,0,0,0,0,0,0,-1,1035,799,0,0
-182,225,0,0,0,0,0,0,0,0,0,-1,1042,799,0,0
-175,225,0,0,0,0,0,0,0,0,0,-1,1049,799,0,0
-168,225,0,0,0,0,0,0,0,0,0,-1,1056,799,0,0
-161,225,0,0,0,0,0,0,0,0,0,-1,1063,799,0,0
-154,225,0,0,0,0,0,0,0,0,0,-1,1070,799,0,0
-147,225,0,0,0,0,0,0,0,0,0,-1,1077,799,0,0
-140,225,0,0,0,0,0,0,0,0,0,-1,1084,799,0,0
-133,225,0,0,0,0,0,0,0,0,0,-1,1091,799,0,0
-126,225,0,0,0,0,0,0,0,0,0,-1,1098,799,0,0
-119,225,0,0,0,0,0,0,0,0,0,-1,1105,799,0,0
-112,225,0,0,0,0,0,0,0,0,0,-1,1112,799,0,0
-105,225,0,0,0,0,0,0,0,0,0,-1,1119,799,0,0
-98,225,0,0,0,0,0,0,0,0,0,-1,1126,799,0,0
-91,225,0,0,0,0,0,0,0,0,0,-1,1133,799,0,0
-84,225,0,0,0,0,0,0,0,0,0,-1,1140,799,0,0
-77,225,0,0,0,0,0,0,0,0,0,-1,1147,799,0,0
-70,225,0,0,0,0,0,0,0,0,0,-1,1154,799,0,0
-63,225,0,0,0,0,0,0,0,0,0,-1,1161,799,0,0
-56,225,0,0,0,0,0,0,0,0,0,-1,1168,799,0,0
-49,225,0,0,0,0,0,0,0,0,0,-1,1175,799,0,0
-42,225,0,0,0,0,0,0,0,0,0,-1,1182,799,0,0
-35,225,0,0,0,0,0,0,0,0,0,-1,1189,799,0,0
-28,225,0,0,0,0,0,0,0,0,0,-1,1196,799,0,0
-21,225,0,0,0,0,0,0,0,0,0,-1,1203,799,0,0
-14,225,0,0,0,0,0,0,0,0,0,-1,1210,799,0,0
-7,225,0,0,0,0,0,0,0,0,0,-1,1217,799,0,0
0,225,0,0,0,0,0,0,0,0,0,-1,1224,799,0,0
7,225,0,0,0,0,0,0,0,0,0,-1,1231,799,0,0
14,225,0,0,0,0,0,0,0,0,0,-1,1238,799,0,0
21,225,0,0,0,0,0,0,0,0,0,-1,1245,799,0,0
28,225,0,0,0,0,0,0,0,0,0,-1,1252,799,0,0
35,225,0,0,0,0,0,0,0,0,0,-1,1259,799,0,0
42,225,0,0,0,0,0,0,0,0,0,-1,1266,799,0,0
49,225,0,0,0,0,0,0,0,0,0,-1,1273,799,0,0
56,225,0,0,0,0,0,0,0,0,0,-1,1280,799,0,0
63,225,0,0,0,0,0,0,0,0,0,-1,1287,799,0,0
70,225,0,0,0,0,0,0,0,0,0,-1,1294,799,0,0
77,225,0,0,0,0,0,0,0,0,0,-1,1301,799,0,0
84,225,0,0,0,0,0,0,0,0,0,-1,1308,799,0,0
91,225,0,0,0,0,0,0,0,0,0,-1,1315,799,0,0
98,225,0,0,0,0,0,0,0,0,0,-1,1322,799,0,0
105,225,0,0,0,0,0,0,0,0,0,-1,1329,799,0,0
112,225,0,0,0,0,0,0,0,0,0,-1,1336,799,0,0
119,225,0,0,0,0,0,0,0,0,0,-1,1343,799,0,0
126,225,0,0,0,0,0,0,0,0,0,-1,1350,799,0,0
133,225,0,0,0,0,0,0,0,0,0,-1,1357,799,0,0
140,225,0,0,0,0,0,0,0,0,0,-1,1364,799,0,0
147,225,0,0,0,0,0,0,0,0,0,-1,1371,799,0,0
154,225,0,0,0,0,0,0,0,0,0,-1,1378,799,0,0
161,225,0,0,0,0,0,0,0,0,0,-1,1385,799,0,0
168,225,0,0,0,0,0,0,0,0,0,-1,1392,799,0,0
175,225,0,0,0,0,0,0,0,0,0,-1,1399,799,0,0
182,225,0,0,0,0,0,0,0,0,0,-1,1406,799,0,0
189,225,0,0,0,0,0,0,0,0,0,-1,1413,799,0,0
196,225,0,0,0,0,0,0,0,0,0,-1,1420,799,0,0
203,225,0,0,0,0,0,0,0,0,0,-1,1427,799,0,0
210,225,0,0,0,0,0,0,0,0,0,-1,1434,799,0,0
217,225,0,0,0,0,0,0,0,0,0,-1,1441,799,0,0
224,225,0,0,0,0,0,0,0,0,0,-1,1448,799,0,0
231,225,0,0,0,0,0,0,0,0,0,-1,1455,799,0,0
238,225,0,0,0,0,0,0,0,0,0,-1,1462,799,0,0
245,225,0,0,0,0,0,0,0,0,0,-1,1469,799,0,0
252,225,0,0,0,0,0,0,0,0,0,-1,1476,799,0,0
259,225,0,0,0,0,0,0,0,0,0,-1,1483,799,0,0
266,225,0,0,0,0,0,0,0,0,0,-1,1490,799,0,0
273,225,0,0,0,0,0,0,0,0,0,-1,1497,799,0,0
280,225,0,0,0,0,0,0,0,0,0,-1,1504,799,0,0
287,225,0,0,0,0,0,0,0,0,0,-1,1511,799,0,0
294,225,0,0,0,0,0,0,0,0,0,-1,1518,799,0,0
301,225,0,0,0,0,0,0,0,0,0,-1,1525,799,0,0
308,225,0,0,0,0,0,0,0,0,0,-1,1532,799,0,0
315,225,0,0,0,0,0,0,0,0,0,-1,1539,799,0,0
322,225,0,0,0,0,0,0,0,0,0,-1,1546,799,0,0
329,225,0,0,0,0,0,0,0,0,0,-1,1553,799,0,0
336,225,0,0,0,0,0,0,0,0,0,-1,1560,799,0,0
343,225,0,0,0,0,0,0,0,0,0,-1,1567,799,0,0
350,225,0,0,0,0,0,0,0,0,0,-1,1574,799,0,0
357,225,0,0,0,0,0,0,0,0,0,-1,1581,799,0,0
364,225,0,0,0,0,0,0,0,0,0,-1,1588,799,0,0
371,225,0,0,0,0,0,0,0,0,0,-1,1595,799,0,0
378,225,0,0,0,0,0,0,0,0,0,-1,1602,799,0,0
385,225,0,0,0,0,0,0,0,0,0,-1,1609,799,0,0
392,225,0,0,0,0,0,0,0,0,0,-1,1616,799,0,0
399,225,0,0,0,0,0,0,0,0,0,-1,1623,799,0,0
406,225,0,0,0,0,0,0,0,0,0,-1,1630,799,0,0
413,225,0,0,0,0,0,0,0,0,0,-1,1637,799,0,0
420,225,0,0,0,0,0,0,0,0,0,-1,1644,799,0,0
427,225,0,0,0,0,0,0,0,0,0,-1,1651,799,0,0
434,225,0,0,0,0,0,0,0,0,0,-1,1658,799,0,0
441,225,0,0,0,0,0,0,0,0,0,-1,1665,799,0,0
448,225,0,0,0,0,0,0,0,0,0,-1,1672,799,0,0
455,225,0,0,0,0,0,0,0,0,0,-1,1679,799,0,0
462,225,0,0,0,0,0,0,0,0,0,-1,1686,799,0,0
469,225,0,0,0,0,0,0,0,0,0,-1,1693,799,0,0
476,225,0,0,0,0,0,0,0,0,0,-1,1700,799,0,0
483,225,0,0,0,0,0,0,0,0,0,-1,1707,799,0,0
490,225,0,0,0,0,0,0,0,0,0,-1,1714,799,0,0
497,225,0,0,0,0,0,0,0,0,0,-1,1721,799,0,0
504,225,0,0,0,0,0,0,0,0,0,-1,1728,799,0,0
511,225,0,0,0,0,0,0,0,0,0,-1,1735,799,0,0
518,225,0,0,0,0,0,0,0,0,0,-1,1742,799,0,0
525,225,0,0,0,0,0,0,0,0,0,-1,1749,799,0,0
532,225,0,0,0,0,0,0,0,0,0,-1,1756,799,0,0
539,225,0,0,0,0,0,0,0,0,0,-1,1763,799,0,0
546,225,0,0,0,0,0,0,0,0,0,-1,1770,799,0,0
553,225,0,0,0,0,0,0,0,0,0,-1,1777,799,0,0
560,225,0,0,0,0,0,0,0,0,0,-1,1784,799,0,0
567,225,0,0,0,0,0,0,0,0,0,-1,1791,799,0,0
574,225,0,0,0,0,0,0,0,0,0,-1,1798,799,0,0
581,225,0,0,0,0,0,0,0,0,0,-1,1805,799,0,0
588,225,83.4685,2.38782,0.00421355,-0.00126769,-0.0010772,0.00441765,-0.00147178,-0.18725,0.00353922,0.0371983,1812,799,83.4685,-2.3878
595,225,83.4619,2.39984,0.00389881,-0.000666791,0.000275868,0.00391541,-0.000683399,0.0601316,0.00286537,0.0367809,1819,799,83.4619,-2.39985
602,225,83.4426,2.38226,0.00326969,8.93344e-05,0.0012142,0.00368025,-0.000321223,0.326062,0.00256728,0.0349524,1826,799,83.4426,-2.38225
609,225,83.4415,2.38989,0.0019923,0.000526493,0.00130594,0.00275694,-0.000238145,0.529695,0.00192226,0.033863,1833,799,83.4416,-2.38991
616,225,83.3666,2.47321,0.000960274,0.000833253,0.00125198,0.00215035,-0.000356827,0.760056,0.00156612,0.0398205,1840,799,83.3666,-2.4732
623,225,83.2081,2.64038,0,0,0,0,0,0,0,-1,1847,799,83.2081,-2.64039
630,225,75.2485,2.28778,0,0,0,0,0,0,0,-1,1854,799,75.2485,-2.28778
637,225,55.6359,2.8064,0,0,0,0,0,0,0,-1,1861,799,55.6359,-2.80637
644,225,42.0298,2.46411,0,0,0,0,0,0,0,-1,1868,799,42.0298,-2.4641
651,225,27.9657,0.579529,0,0,0,0,0,0,0,-1,1875,799,27.9657,-0.579541
658,225,47.9047,-1.92926,0,0,0,0,0,0,0,-1,1882,799,47.9047,1.92927
665,225,47.541,-2.27985,0,0,0,0,0,0,0,-1,1889,799,47.5411,2.27983
672,225,60.0996,-3.40033,0,0,0,0,0,0,0,-1,1896,799,60.0996,3.40031
679,225,60.911,-1.8443,0,0,0,0,0,0,0,-1,1903,799,60.911,1.84433
686,225,60.866,-0.81073,-0.000791878,0.000154753,-0.000964711,0.000756005,-0.00139313,-1.01346,0.00125885,0.0158872,1910,799,60.8659,0.810745
693,225,60.8033,0.174988,-0.000322415,0.000476518,-0.000873788,0.00103782,-0.000883719,-0.999797,0.00111059,0.0121318,1917,799,60.8034,-0.174986
700,225,60.748,1.17535,0.000435401,0.00101744,-0.000464536,0.00127459,0.000178255,-1.06523,0.000796978,0.0134281,1924,799,60.748,-1.17532
707,225,60.6848,2.17761,0.00147099,0.00160667,0.000213393,0.00176275,0.00131491,0.93931,0.00105797,0.0121908,1931,799,60.6848,-2.17763
714,225,60.6193,3.19379,0.00268151,0.00238797,0.00100422,0.00354962,0.00151985,0.712834,0.00205641,0.0125074,1938,799,60.6193,-3.1938
721,225,60.5781,4.21143,0.0040366,0.00310478,0.00193482,0.00556081,0.00158056,0.667246,0.00330868,0.0159515,1945,799,60.5781,-4.21146
728,225,60.5465,5.23553,0,0,0,0,0,0,0,-1,1952,799,60.5465,-5.23552
735,225,58.9915,6.13818,0,0,0,0,0,0,0,-1,1959,799,58.9914,-6.13817
742,225,55.3708,6.5321,0,0,0,0,0,0,0,-1,1966,799,55.3709,-6.53213
749,225,29.9529,4.45538,0,0,0,0,0,0,0,-1,1973,799,29.9529,-4.45537
756,225,42.6417,11.3672,0,0,0,0,0,0,0,-1,1980,799,42.6417,-11.3672
763,225,42.6943,10.949,0,0,0,0,0,0,0,-1,1987,799,42.6943,-10.9489
770,225,0,0,0,0,0,0,0,0,0,-1,1994,799,0,0
777,225,0,0,0,0,0,0,0,0,0,-1,2001,799,0,0
784,225,0,0,0,0,0,0,0,0,0,-1,2008,799,0,0
791,225,0,0,0,0,0,0,0,0,0,-1,2015,799,0,0
798,225,0,0,0,0,0,0,0,0,0,-1,2022,799,0,0
805,225,0,0,0,0,0,0,0,0,0,-1,2029,799,0,0
812,225,0,0,0,0,0,0,0,0,0,-1,2036,799,0,0
-700,218,0,0,0,0,0,0,0,0,0,-1,524,806,0,0
-693,218,0,0,0,0,0,0,0,0,0,-1,531,806,0,0
-686,218,0,0,0,0,0,0,0,0,0,-1,538,806,0,0
-679,218,0,0,0,0,0,0,0,0,0,-1,545,806,0,0
-672,218,0,0,0,0,0,0,0,0,0,-1,552,806,0,0
-665,218,0,0,0,0,0,0,0,0,0,-1,559,806,0,0
-658,218,0,0,0,0,0,0,0,0,0,-1,566,806,0,0
-651,218,-40.3778,5.1792,0,0,0,0,0,0,0,-1,573,806,-40.3778,-5.1792
-644,218,-40.7704,4.19714,0,0,0,0,0,0,0,-1,580,806,-40.7704,-4.19714
-637,218,-41.541,3.36328,0,0,0,0,0,0,0,-1,587,806,-41.541,-3.36326
-630,218,-42.1423,2.85565,0,0,0,0,0,0,0,-1,594,806,-42.1423,-2.85567
-623,218,-42.7292,2.59015,0,0,0,0,0,0,0,-1,601,806,-42.7292,-2.59015
-616,218,-20.0258,1.87585,0,0,0,0,0,0,0,-1,608,806,-20.0258,-1.87585
-609,218,-44.6952,6.67584,0,0,0,0,0,0,0,-1,615,806,-44.6952,-6.67583
-602,218,-44.7524,5.66321,0.00836324,0.00305493,-0.00221244,0.00916443,0.00225374,-0.34744,0.0055141,0.0450351,622,806,-44.7524,-5.6632
-595,218,-44.8009,4.71429,0.00635631,0.00337955,-0.00212808,0.00746485,0.00227101,-0.480236,0.00441858,0.018534,629,806,-44.8009,-4.71432
-588,218,-44.8393,3.70465,0.00497075,0.00336514,-0.00145771,0.0058321,0.00250379,-0.533696,0.00337836,0.0122064,636,806,-44.8393,-3.70465
-581,218,-44.8873,2.70636,0.00388597,0.00311971,-0.000555735,0.00417784,0.00282784,-0.483606,0.00246187,0.0120383,643,806,-44.8873,-2.70637
-574,218,-44.9517,1.70856,0.00300927,0.0027555,0.000443377,0.00334356,0.00242121,0.646034,0.00199401,0.0104982,650,806,-44.9517,-1.70855
-567,218,-44.9971,0.679932,0.0022634,0.00242434,0.00131219,0.00365853,0.00102921,0.816022,0.00217855,0.0183842,657,806,-44.9972,-0.679921
-560,218,-45.0762,-0.300049,0.00156612,0.00238841,0.00210407,0.00412112,-0.000166598,0.881885,0.0028046,0.0199235,664,806,-45.0762,0.300079
-553,218,-45.0058,-1.5285,0.00071525,0.00243415,0.00250837,0.00422623,-0.00107682,0.950447,0.0032367,0.0241362,671,806,-45.0058,1.5285
-546,218,-45.267,-2.61285,0.000696779,0.00240309,0.00309105,0.00475656,-0.00165669,0.92005,0.00384417,0.0327414,678,806,-45.267,2.61288
-539,218,-45.4747,-3.41052,0.000936549,0.00207156,0.0034426,0.00499312,-0.00198501,0.867087,0.00415173,0.0344595,685,806,-45.4748,3.41052
-532,218,-45.4438,-4.15869,0,0,0,0,0,0,0,-1,692,806,-45.4438,4.15871
-525,218,-29.3521,-3.64417,0,0,0,0,0,0,0,-1,699,806,-29.3521,3.64414
-518,218,-23.61,2.54181,0,0,0,0,0,0,0,-1,706,806,-23.61,-2.54183
-511,218,-41.0953,1.06879,0,0,0,0,0,0,0,-1,713,806,-41.0953,-1.06876
-504,218,-59.1388,0.682068,0,0,0,0,0,0,0,-1,720,806,-59.1388,-0.682072
-497,218,-66.7993,0.564514,0,0,0,0,0,0,0,-1,727,806,-66.7993,-0.564528
-490,218,-66.7746,0.626831,0.00337086,-0.00284262,0.00449008,0.00572422,-0.00519598,0.48276,0.00630724,0.0350568,734,806,-66.7746,-0.62682
-483,218,-66.7693,0.676086,0.00439186,-0.00389448,0.00453767,0.00639331,-0.00589592,0.415406,0.00709713,0.0318966,741,806,-66.7694,-0.676062
-476,218,-66.7543,0.652954,0.00541966,-0.00516036,0.00481676,0.00728404,-0.00702474,0.369304,0.00826163,0.0356602,748,806,-66.7543,-0.652977
-469,218,0,0,0,0,0,0,0,0,0,-1,755,806,0,0
-462,218,0,0,0,0,0,0,0,0,0,-1,762,806,0,0
-455,218,0,0,0,0,0,0,0,0,0,-1,769,806,0,0
-448,218,0,0,0,0,0,0,0,0,0,-1,776,806,0,0
-441,218,0,0,0,0,0,0,0,0,0,-1,783,806,0,0
-434,218,0,0,0,0,0,0,0,0,0,-1,790,806,0,0
-427,218,0,0,0,0,0,0,0,0,0,-1,797,806,0,0
-420,218,0,0,0,0,0,0,0,0,0,-1,804,806,0,0
-413,218,0,0,0,0,0,0,0,0,0,-1,811,806,0,0
-406,218,0,0,0,0,0,0,0,0,0,-1,818,806,0,0
-399,218,0,0,0,0,0,0,0,0,0,-1,825,806,0,0
-392,218,0,0,0,0,0,0,0,0,0,-1,832,806,0,0
-385,218,0,0,0,0,0,0,0,0,0,-1,839,806,0,0
-378,218,0,0,0,0,0,0,0,0,0,-1,846,806,0,0
-371,218,0,0,0,0,0,0,0,0,0,-1,853,806,0,0
-364,218,0,0,0,0,0,0,0,0,0,-1,860,806,0,0
-357,218,0,0,0,0,0,0,0,0,0,-1,867,806,0,0
-350,218,0,0,0,0,0,0,0,0,0,-1,874,806,0,0
-343,218,0,0,0,0,0,0,0,0,0,-1,881,806,0,0
-336,218,0,0,0,0,0,0,0,0,0,-1,888,806,0,0
-329,218,0,0,0,0,0,0,0,0,0,-1,895,806,0,0
-322,218,0,0,0,0,0,0,0,0,0,-1,902,806,0,0
-315,218,0,0,0,0,0,0,0,0,0,-1,909,806,0,0
-308,218,0,0,0,0,0,0,0,0,0,-1,916,806,0,0
-301,218,0,0,0,0,0,0,0,0,0,-1,923,806,0,0
-294,218,0,0,0,0,0,0,0,0,0,-1,930,806,0,0
-287,218,0,0,0,0,0,0,0,0,0,-1,937,806,0,0
-280,218,0,0,0,0,0,0,0,0,0,-1,944,806,0,0
-273,218,0,0,0,0,0,0,0,0,0,-1,951,806,0,0
-266,218,0,0,0,0,0,0,0,0,0,-1,958,806,0,0
-259,218,0,0,0,0,0,0,0,0,0,-1,965,806,0,0
-252,218,0,0,0,0,0,0,0,0,0,-1,972,806,0,0
-245,218,0,0,0,0,0,0,0,0,0,-1,979,806,0,0
-238,218,0,0,0,0,0,0,0,0,0,-1,986,806,0,0
-231,218,0,0,0,0,0,0,0,0,0,-1,993,806,0,0
-224,218,0,0,0,0,0,0,0,0,0,-1,1000,806,0,0
-217,218,0,0,0,0,0,0,0,0,0,-1,1007,806,0,0
-210,218,0,0,0,0,0,0,0,0,0,-1,1014,806,0,0
-203,218,0,0,0,0,0,0,0,0,0,-1,1021,806,0,0
-196,218,0,0,0,0,0,0,0,0,0,-1,1028,806,0,0
-189,218,0,0,0,0,0,0,0,0,0,-1,1035,806,0,0
-182,218,0,0,0,0,0,0,0,0,0,-1,1042,806,0,0
-175,218,0,0,0,0,0,0,0,0,0,-1,1049,806,0,0
-168,218,0,0,0,0,0,0,0,0,0,-1,1056,806,0,0
-161,218,0,0,0,0,0,0,0,0,0,-1,1063,806,0,0
-154,218,0,0,0,0,0,0,0,0,0,-1,1070,806,0,0
-147,218,0,0,0,0,0,0,0,0,0,-1,1077,806,0,0
-140,218,0,0,0,0,0,0,0,0,0,-1,1084,806,0,0
-133,218,0,0,0,0,0,0,0,0,0,-1,1091,806,0,0
-126,218,0,0,0,0,0,0,0,0,0,-1,1098,806,0,0
-119,218,0,0,0,0,0,0,0,0,0,-1,1105,806,0,0
-112,218,0,0,0,0,0,0,0,0,0,-1,1112,806,0,0
-105,218,0,0,0,0,0,0,0,0,0,-1,1119,806,0,0
-98,218,0,0,0,0,0,0,0,0,0,-1,1126,806,0,0
-91,218,0,0,0,0,0,0,0,0,0,-1,1133,806,0,0
-84,218,0,0,0,0,0,0,0,0,0,-1,1140,806,0,0
-77,218,0,0,0,0,0,0,0,0,0,-1,1147,806,0,0
-70,218,0,0,0,0,0,0,0,0,0,-1,1154,806,0,0
-63,218,0,0,0,0,0,0,0,0,0,-1,1161,806,0,0
-56,218,0,0,0,0,0,0,0,0,0,-1,1168,806,0,0
-49,218,0,0,0,0,0,0,0,0,0,-1,1175,806,0,0
-42,218,0,0,0,0,0,0,0,0,0,-1,1182,806,0,0
-35,218,0,0,0,0,0,0,0,0,0,-1,1189,806,0,0
-28,218,0,0,0,0,0,0,0,0,0,-1,1196,806,0,0
-21,218,0,0,0,0,0,0,0,0,0,-1,1203,806,0,0
-14,218,0,0,0,0,0,0,0,0,0,-1,1210,806,0,0
-7,218,0,0,0,0,0,0,0,0,0,-1,1217,806,0,0
0,218,0,0,0,0,0,0,0,0,0,-1,1224,806,0,0
7,218,0,0,0,0,0,0,0,0,0,-1,1231,806,0,0
14,218,0,0,0,0,0,0,0,0,0,-1,1238,806,0,0
21,218,0,0,0,0,0,0,0,0,0,-1,1245,806,0,0
28,218,0,0,0,0,0,0,0,0,0,-1,1252,806,0,0
35,218,0,0,0,0,0,0,0,0,0,-1,1259,806,0,0
42,218,0,0,0,0,0,0,0,0,0,-1,1266,806,0,0
49,218,0,0,0,0,0,0,0,0,0,-1,1273,806,0,0
56,218,0,0,0,0,0,0,0,0,0,-1,1280,806,0,0
63,218,0,0,0,0,0,0,0,0,0,-1,1287,806,0,0
70,218,0,0,0,0,0,0,0,0,0,-1,1294,806,0,0
77,218,0,0,0,0,0,0,0,0,0,-1,1301,806,0,0
84,218,0,0,0,0,0,0,0,0,0,-1,1308,806,0,0
91,218,0,0,0,0,0,0,0,0,0,-1,1315,806,0,0
98,218,0,0,0,0,0,0,0,0,0,-1,1322,806,0,0
105,218,0,0,0,0,0,0,0,0,0,-1,1329,806,0,0
112,218,0,0,0,0,0,0,0,0,0,-1,1336,806,0,0
119,218,0,0,0,0,0,0,0,0,0,-1,1343,806,0,0
126,218,0,0,0,0,0,0,0,0,0,-1,1350,806,0,0
133,218,0,0,0,0,0,0,0,0,0,-1,1357,806,0,0
140,218,0,0,0,0,0,0,0,0,0,-1,1364,806,0,0
147,218,0,0,0,0,0,0,0,0,0,-1,1371,806,0,0
154,218,0,0,0,0,0,0,0,0,0,-1,1378,806,0,0
161,218,0,0,0,0,0,0,0,0,0,-1,1385,806,0,0
168,218,0,0,0,0,0,0,0,0,0,-1,1392,806,0,0
175,218,0,0,0,0,0,0,0,0,0,-1,1399,806,0,0
182,218,0,0,0,0,0,0,0,0,0,-1,1406,806,0,0
189,218,0,0,0,0,0,0,0,0,0,-1,1413,806,0,0
196,218,0,0,0,0,0,0,0,0,0,-1,1420,806,0,0
203,218,0,0,0,0,0,0,0,0,0,-1,1427,806,0,0
210,218,0,0,0,0,0,0,0,0,0,-1,1434,806,0,0
217,218,0,0,0,0,0,0,0,0,0,-1,1441,806,0,0
224,218,0,0,0,0,0,0,0,0,0,-1,1448,806,0,0
231,218,0,0,0,0,0,0,0,0,0,-1,1455,806,0,0
238,218,0,0,0,0,0,0,0,0,0,-1,1462,806,0,0
245,218,0,0,0,0,0,0,0,0,0,-1,1469,806,0,0
252,218,0,0,0,0,0,0,0,0,0,-1,1476,806,0,0
259,218,0,0,0,0,0,0,0,0,0,-1,1483,806,0,0
266,218,0,0,0,0,0,0,0,0,0,-1,1490,806,0,0
273,218,0,0,0,0,0,0,0,0,0,-1,1497,806,0,0
280,218,0,0,0,0,0,0,0,0,0,-1,1504,806,0,0
287,218,0,0,0,0,0,0,0,0,0,-1,1511,806,0,0
294,218,0,0,0,0,0,0,0,0,0,-1,1518,806,0,0
301,218,0,0,0,0,0,0,0,0,0,-1,1525,806,0,0
308,218,0,0,0,0,0,0,0,0,0,-1,1532,806,0,0
315,218,0,0,0,0,0,0,0,0,0,-1,1539,806,0,0
322,218,0,0,0,0,0,0,0,0,0,-1,1546,806,0,0
329,218,0,0,0,0,0,0,0,0,0,-1,1553,806,0,0
336,218,0,0,0,0,0,0,0,0,0,-1,1560,806,0,0
343,218,0,0,0,0,0,0,0,0,0,-1,1567,806,0,0
350,218,0,0,0,0,0,0,0,0,0,-1,1574,806,0,0
357,218,0,0,0,0,0,0,0,0,0,-1,1581,806,0,0
364,218,0,0,0,0,0,0,0,0,0,-1,1588,806,0,0
371,218,0,0,0,0,0,0,0,0,0,-1,1595,806,0,0
378,218,0,0,0,0,0,0,0,0,0,-1,1602,806,0,0
385,218,0,0,0,0,0,0,0,0,0,-1,1609,806,0,0
392,218,0,0,0,0,0,0,0,0,0,-1,1616,806,0,0
399,218,0,0,0,0,0,0,0,0,0,-1,1623,806,0,0
406,218,0,0,0,0,0,0,0,0,0,-1,1630,806,0,0
413,218,0,0,0,0,0,0,0,0,0,-1,1637,806,0,0
420,218,0,0,0,0,0,0,0,0,0,-1,1644,806,0,0
427,218,0,0,0,0,0,0,0,0,0,-1,1651,806,0,0
434,218,0,0,0,0,0,0,0,0,0,-1,1658,806,0,0
441,218,0,0,0,0,0,0,0,0,0,-1,1665,806,0,0
448,218,0,0,0,0,0,0,0,0,0,-1,1672,806,0,0
455,218,0,0,0,0,0,0,0,0,0,-1,1679,806,0,0
462,218,0,0,0,0,0,0,0,0,0,-1,1686,806,0,0
469,218,0,0,0,0,0,0,0,0,0,-1,1693,806,0,0
476,218,0,0,0,0,0,0,0,0,0,-1,1700,806,0,0
483,218,0,0,0,0,0,0,0,0,0,-1,1707,806,0,0
490,218,0,0,0,0,0,0,0,0,0,-1,1714,806,0,0
497,218,0,0,0,0,0,0,0,0,0,-1,1721,806,0,0
504,218,0,0,0,0,0,0,0,0,0,-1,1728,806,0,0
511,218,0,0,0,0,0,0,0,0,0,-1,1735,806,0,0
518,218,0,0,0,0,0,0,0,0,0,-1,1742,806,0,0
525,218,0,0,0,0,0,0,0,0,0,-1,1749,806,0,0
532,218,0,0,0,0,0,0,0,0,0,-1,1756,806,0,0
539,218,0,0,0,0,0,0,0,0,0,-1,1763,806,0,0
546,218,0,0,0,0,0,0,0,0,0,-1,1770,806,0,0
553,218,0,0,0,0,0,0,0,0,0,-1,1777,806,0,0
560,218,0,0,0,0,0,0,0,0,0,-1,1784,806,0,0
567,218,0,0,0,0,0,0,0,0,0,-1,1791,806,0,0
574,218,0,0,0,0,0,0,0,0,0,-1,1798,806,0,0
581,218,0,0,0,0,0,0,0,0,0,-1,1805,806,0,0
588,218,0,0,0,0,0,0,0,0,0,-1,1812,806,0,0
595,218,83.4263,2.60425,0.00221958,0.000167101,-3.23404e-05,0.00222009,0.000166591,-0.0157515,0.00142777,0.0378028,1819,806,83.4262,-2.60425
602,218,83.4105,2.50037,0.0019583,0.000253472,0.000965338,0.00239371,-0.000181936,0.423721,0.00165978,0.0342055,1826,806,83.4105,-2.50035
609,218,83.3976,2.51074,0.00117424,0.000441691,0.00115318,0.00201791,-0.000401984,0.631627,0.00149737,0.0312217,1833,806,83.3976,-2.51073
616,218,83.3418,2.48755,0.000374552,0.000671405,0.00108176,0.00161488,-0.000568919,0.853576,0.00130813,0.0311617,1840,806,83.3418,-2.48756
623,218,83.356,2.50049,-0.000113577,0.000751291,0.000849842,0.00127239,-0.000634679,1.02075,0.00112138,0.0363298,1847,806,83.356,-2.50051
630,218,83.4275,2.41724,0,0,0,0,0,0,0,-1,1854,806,83.4275,-2.41722
637,218,75.0532,2.44513,0,0,0,0,0,0,0,-1,1861,806,75.0532,-2.44515
644,218,52.4042,2.47949,0,0,0,0,0,0,0,-1,1868,806,52.4041,-2.47949
651,218,41.7338,1.99164,0,0,0,0,0,0,0,-1,1875,806,41.7338,-1.99162
658,218,28.41,0.514954,0,0,0,0,0,0,0,-1,1882,806,28.41,-0.514983
665,218,52.1176,-2.84406,0,0,0,0,0,0,0,-1,1889,806,52.1176,2.84404
672,218,52.8506,-2.1853,0,0,0,0,0,0,0,-1,1896,806,52.8506,2.18533
679,218,61.8452,-1.80786,0,0,0,0,0,0,0,-1,1903,806,61.8452,1.80787
686,218,61.8575,-0.760864,-0.000995721,-0.000123715,-0.00126015,0.000773731,-0.00189317,-0.951948,0.0015843,0.032985,1910,806,61.8575,0.760894
693,218,61.8346,0.258789,-0.000646162,0.000110725,-0.00127021,0.00105767,-0.0015931,-0.93018,0.0015408,0.0127699,1917,806,61.8346,-0.258804
700,218,61.77,1.23914,-1.06778e-05,0.000568163,-0.000904766,0.00122867,-0.000671186,-0.940197,0.00111251,0.0100438,1924,806,61.7701,-1.23911
707,218,61.6771,2.23395,0.000938537,0.00111151,-0.000186853,0.00123092,0.000819126,-1.00215,0.000723527,0.00782977,1931,806,61.6771,-2.23397
714,218,61.6102,3.23743,0.00216423,0.00189385,0.000669845,0.00271239,0.00134569,0.685824,0.00156602,0.010204,1938,806,61.6102,-3.23741
721,218,61.5712,4.22467,0.00352446,0.00258902,0.00164175,0.00476381,0.00134966,0.646629,0.00283517,0.0148369,1945,806,61.5711,-4.22465
728,218,61.515,5.27698,0.00510495,0.00312341,0.00275033,0.00703752,0.00119083,0.612516,0.00434942,0.0295477,1952,806,61.5151,-5.27695
735,218,61.6548,6.45636,0,0,0,0,0,0,0,-1,1959,806,61.6547,-6.45634
742,218,47.8733,6.84155,0,0,0,0,0,0,0,-1,1966,806,47.8733,-6.84158
749,218,42.0249,6.64703,0,0,0,0,0,0,0,-1,1973,806,42.0249,-6.64703
756,218,60.3604,6.40723,0,0,0,0,0,0,0,-1,1980,806,60.3603,-6.40721
763,218,47.1976,8.96094,0,0,0,0,0,0,0,-1,1987,806,47.1976,-8.96091
770,218,0,0,0,0,0,0,0,0,0,-1,1994,806,0,0
777,218,0,0,0,0,0,0,0,0,0,-1,2001,806,0,0
784,218,0,0,0,0,0,0,0,0,0,-1,2008,806,0,0
791,218,0,0,0,0,0,0,0,0,0,-1,2015,806,0,0
798,218,0,0,0,0,0,0,0,0,0,-1,2022,806,0,0
805,218,0,0,0,0,0,0,0,0,0,-1,2029,806,0,0
812,218,0,0,0,0,0,0,0,0,0,-1,2036,806,0,0
-700,211,0,0,0,0,0,0,0,0,0,-1,524,813,0,0
-693,211,0,0,0,0,0,0,0,0,0,-1,531,813,0,0
-686,211,0,0,0,0,0,0,0,0,0,-1,538,813,0,0
-679,211,0,0,0,0,0,0,0,0,0,-1,545,813,0,0
-672,211,0,0,0,0,0,0,0,0,0,-1,552,813,0,0
-665,211,0,0,0,0,0,0,0,0,0,-1,559,813,0,0
-658,211,0,0,0,0,0,0,0,0,0,-1,566,813,0,0
-651,211,-40.2495,5.20386,0,0,0,0,0,0,0,-1,573,813,-40.2494,-5.20384
-644,211,-40.6288,4.32092,0,0,0,0,0,0,0,-1,580,813,-40.6288,-4.3209
-637,211,-41.3664,3.51849,0,0,0,0,0,0,0,-1,587,813,-41.3664,-3.51847
-630,211,-41.9262,2.94977,0,0,0,0,0,0,0,-1,594,813,-41.9262,-2.94975
-623,211,-42.5012,2.62903,0,0,0,0,0,0,0,-1,601,813,-42.5011,-2.629
-616,211,-45.6627,7.70575,0,0,0,0,0,0,0,-1,608,813,-45.6626,-7.70573
-609,211,-45.562,6.71783,0.0101763,0.0004361,-0.000689397,0.0102248,0.000387548,-0.0703116,0.0066911,0.0479626,615,813,-45.562,-6.71786
-602,211,-45.6513,5.76007,0.00778128,0.00138509,-0.000792237,0.00787794,0.00128842,-0.121417,0.00487952,0.0233816,622,813,-45.6513,-5.76007
-595,211,-45.7896,4.79834,0.00604021,0.00204747,-0.000893489,0.00623104,0.00185665,-0.21041,0.00369409,0.0113113,629,813,-45.7896,-4.79832
-588,211,-45.8617,3.78125,0.00482346,0.00235455,-0.000410851,0.00489004,0.00228798,-0.160644,0.0028252,0.0122782,636,813,-45.8617,-3.78124
-581,211,-45.9299,2.7804,0.00392105,0.00243039,0.000354265,0.00400096,0.00235048,0.221851,0.00232171,0.0128482,643,813,-45.9299,-2.78039
-574,211,-45.9791,1.77234,0.00319637,0.00238681,0.00120849,0.00406608,0.00151711,0.623797,0.00237261,0.012709,650,813,-45.9791,-1.77236
-567,211,-46.0803,0.761597,0.00259427,0.00225025,0.0018627,0.00429289,0.000551629,0.739357,0.00269692,0.0200299,657,813,-46.0803,-0.761584
-560,211,-46.1467,-0.294495,0.00195546,0.00241111,0.00236397,0.00455821,-0.000191638,0.833437,0.00310466,0.0438944,664,813,-46.1467,0.294512
-553,211,-45.8209,-1.70654,0,0,0,0,0,0,0,-1,671,813,-45.8208,1.70656
-546,211,-46.4363,-2.52582,0.00111754,0.00240627,0.00272674,0.00456375,-0.00103994,0.901426,0.00344192,0.0462259,678,813,-46.4364,2.52582
-539,211,-46.4272,-3.3299,0.00132717,0.0019978,0.00309391,0.00477452,-0.00144954,0.839376,0.0037605,0.0310535,685,813,-46.4273,3.32992
-532,211,-46.4116,-4.08459,0,0,0,0,0,0,0,-1,692,813,-46.4116,4.08462
-525,211,-14.3009,2.3233,0,0,0,0,0,0,0,-1,699,813,-14.3009,-2.3233
-518,211,-34.952,1.93011,0,0,0,0,0,0,0,-1,706,813,-34.952,-1.9301
-511,211,-53.0876,0.677734,0,0,0,0,0,0,0,-1,713,813,-53.0876,-0.677737
-504,211,-66.9012,0.431458,0,0,0,0,0,0,0,-1,720,813,-66.9013,-0.431434
-497,211,-66.8333,0.577271,0.00304859,-0.00169324,0.00469162,0.00593434,-0.00457899,0.551439,0.00608667,0.0459924,727,813,-66.8332,-0.577261
-490,211,-66.7322,0.73584,0.00397058,-0.00251468,0.00450071,0.00627512,-0.00481921,0.473231,0.00642367,0.0338826,734,813,-66.7322,-0.735851
-483,211,-66.7071,0.795532,0.00561431,-0.00341174,0.00456201,0.0075184,-0.00531582,0.395398,0.00744613,0.0315747,741,813,-66.7071,-0.795522
-476,211,-66.7405,0.706482,0.00762984,-0.00436069,0.00467281,0.00923578,-0.00596663,0.331032,0.0088445,0.0352464,748,813,-66.7405,-0.706474
-469,211,0,0,0,0,0,0,0,0,0,-1,755,813,0,0
-462,211,0,0,0,0,0,0,0,0,0,-1,762,813,0,0
-455,211,0,0,0,0,0,0,0,0,0,-1,769,813,0,0
-448,211,0,0,0,0,0,0,0,0,0,-1,776,813,0,0
-441,211,0,0,0,0,0,0,0,0,0,-1,783,813,0,0
-434,211,0,0,0,0,0,0,0,0,0,-1,790,813,0,0
-427,211,0,0,0,0,0,0,0,0,0,-1,797,813,0,0
-420,211,0,0,0,0,0,0,0,0,0,-1,804,813,0,0
-413,211,0,0,0,0,0,0,0,0,0,-1,811,813,0,0
-406,211,0,0,0,0,0,0,0,0,0,-1,818,813,0,0
-399,211,0,0,0,0,0,0,0,0,0,-1,825,813,0,0
-392,211,0,0,0,0,0,0,0,0,0,-1,832,813,0,0
-385,211,0,0,0,0,0,0,0,0,0,-1,839,813,0,0
-378,211,0,0,0,0,0,0,0,0,0,-1,846,813,0,0
-371,211,0,0,0,0,0,0,0,0,0,-1,853,813,0,0
-364,211,0,0,0,0,0,0,0,0,0,-1,860,813,0,0
-357,211,0,0,0,0,0,0,0,0,0,-1,867,813,0,0
-350,211,0,0,0,0,0,0,0,0,0,-1,874,813,0,0
-343,211,0,0,0,0,0,0,0,0,0,-1,881,813,0,0
-336,211,0,0,0,0,0,0,0,0,0,-1,888,813,0,0
-329,211,0,0,0,0,0,0,0,0,0,-1,895,813,0,0
-322,211,0,0,0,0,0,0,0,0,0,-1,902,813,0,0
-315,211,0,0,0,0,0,0,0,0,0,-1,909,813,0,0
-308,211,0,0,0,0,0,0,0,0,0,-1,916,813,0,0
-301,211,0,0,0,0,0,0,0,0,0,-1,923,813,0,0
-294,211,0,0,0,0,0,0,0,0,0,-1,930,813,0,0
-287,211,0,0,0,0,0,0,0,0,0,-1,937,813,0,0
-280,211,0,0,0,0,0,0,0,0,0,-1,944,813,0,0
-273,211,0,0,0,0,0,0,0,0,0,-1,951,813,0,0
-266,211,0,0,0,0,0,0,0,0,0,-1,958,813,0,0
-259,211,0,0,0,0,0,0,0,0,0,-1,965,813,0,0
-252,211,0,0,0,0,0,0,0,0,0,-1,972,813,0,0
-245,211,0,0,0,0,0,0,0,0,0,-1,979,813,0,0
-238,211,0,0,0,0,0,0,0,0,0,-1,986,813,0,0
-231,211,0,0,0,0,0,0,0,0,0,-1,993,813,0,0
-224,211,0,0,0,0,0,0,0,0,0,-1,1000,813,0,0
-217,211,0,0,0,0,0,0,0,0,0,-1,1007,813,0,0
-210,211,0,0,0,0,0,0,0,0,0,-1,1014,813,0,0
-203,211,0,0,0,0,0,0,0,0,0,-1,1021,813,0,0
-196,211,0,0,0,0,0,0,0,0,0,-1,1028,813,0,0
-189,211,0,0,0,0,0,0,0,0,0,-1,1035,813,0,0
-182,211,0,0,0,0,0,0,0,0,0,-1,1042,813,0,0
-175,211,0,0,0,0,0,0,0,0,0,-1,1049,813,0,0
-168,211,0,0,0,0,0,0,0,0,0,-1,1056,813,0,0
-161,211,0,0,0,0,0,0,0,0,0,-1,1063,813,0,0
-154,211,0,0,0,0,0,0,0,0,0,-1,1070,813,0,0
-147,211,0,0,0,0,0,0,0,0,0,-1,1077,813,0,0
-140,211,0,0,0,0,0,0,0,0,0,-1,1084,813,0,0
-133,211,0,0,0,0,0,0,0,0,0,-1,1091,813,0,0
-126,211,0,0,0,0,0,0,0,0,0,-1,1098,813,0,0
-119,211,0,0,0,0,0,0,0,0,0,-1,1105,813,0,0
-112,211,0,0,0,0,0,0,0,0,0,-1,1112,813,0,0
-105,211,0,0,0,0,0,0,0,0,0,-1,1119,813,0,0
-98,211,0,0,0,0,0,0,0,0,0,-1,1126,813,0,0
-91,211,0,0,0,0,0,0,0,0,0,-1,1133,813,0,0
-84,211,0,0,0,0,0,0,0,0,0,-1,1140,813,0,0
-77,211,0,0,0,0,0,0,0,0,0,-1,1147,813,0,0
-70,211,0,0,0,0,0,0,0,0,0,-1,1154,813,0,0
-63,211,0,0,0,0,0,0,0,0,0,-1,1161,813,0,0
-56,211,0,0,0,0,0,0,0,0,0,-1,1168,813,0,0
-49,211,0,0,0,0,0,0,0,0,0,-1,1175,813,0,0
-42,211,0,0,0,0,0,0,0,0,0,-1,1182,813,0,0
-35,211,0,0,0,0,0,0,0,0,0,-1,1189,813,0,0
-28,211,0,0,0,0,0,0,0,0,0,-1,1196,813,0,0
-21,211,0,0,0,0,0,0,0,0,0,-1,1203,813,0,0
-14,211,0,0,0,0,0,0,0,0,0,-1,1210,813,0,0
-7,211,0,0,0,0,0,0,0,0,0,-1,1217,813,0,0
0,211,0,0,0,0,0,0,0,0,0,-1,1224,813,0,0
7,211,0,0,0,0,0,0,0,0,0,-1,1231,813,0,0
14,211,0,0,0,0,0,0,0,0,0,-1,1238,813,0,0
21,211,0,0,0,0,0,0,0,0,0,-1,1245,813,0,0
28,211,0,0,0,0,0,0,0,0,0,-1,1252,813,0,0
35,211,0,0,0,0,0,0,0,0,0,-1,1259,813,0,0
42,211,0,0,0,0,0,0,0,0,0,-1,1266,813,0,0
49,211,0,0,0,0,0,0,0,0,0,-1,1273,813,0,0
56,211,0,0,0,0,0,0,0,0,0,-1,1280,813,0,0
63,211,0,0,0,0,0,0,0,0,0,-1,1287,813,0,0
70,211,0,0,0,0,0,0,0,0,0,-1,1294,813,0,0
77,211,0,0,0,0,0,0,0,0,0,-1,1301,813,0,0
84,211,0,0,0,0,0,0,0,0,0,-1,1308,813,0,0
91,211,0,0,0,0,0,0,0,0,0,-1,1315,813,0,0
98,211,0,0,0,0,0,0,0,0,0,-1,1322,813,0,0
105,211,0,0,0,0,0,0,0,0,0,-1,1329,813,0,0
112,211,0,0,0,0,0,0,0,0,0,-1,1336,813,0,0
119,211,0,0,0,0,0,0,0,0,0,-1,1343,813,0,0
126,211,0,0,0,0,0,0,0,0,0,-1,1350,813,0,0
133,211,0,0,0,0,0,0,0,0,0,-1,1357,813,0,0
140,211,0,0,0,0,0,0,0,0,0,-1,1364,813,0,0
147,211,0,0,0,0,0,0,0,0,0,-1,1371,813,0,0
154,211,0,0,0,0,0,0,0,0,0,-1,1378,813,0,0
161,211,0,0,0,0,0,0,0,0,0,-1,1385,813,0,0
168,211,0,0,0,0,0,0,0,0,0,-1,1392,813,0,0
175,211,0,0,0,0,0,0,0,0,0,-1,1399,813,0,0
182,211,0,0,0,0,0,0,0,0,0,-1,1406,813,0,0
189,211,0,0,0,0,0,0,0,0,0,-1,1413,813,0,0
196,211,0,0,0,0,0,0,0,0,0,-1,1420,813,0,0
203,211,0,0,0,0,0,0,0,0,0,-1,1427,813,0,0
210,211,0,0,0,0,0,0,0,0,0,-1,1434,813,0,0
217,211,0,0,0,0,0,0,0,0,0,-1,1441,813,0,0
224,211,0,0,0,0,0,0,0,0,0,-1,1448,813,0,0
231,211,0,0,0,0,0,0,0,0,0,-1,1455,813,0,0
238,211,0,0,0,0,0,0,0,0,0,-1,1462,813,0,0
245,211,0,0,0,0,0,0,0,0,0,-1,1469,813,0,0
252,211,0,0,0,0,0,0,0,0,0,-1,1476,813,0,0
259,211,0,0,0,0,0,0,0,0,0,-1,1483,813,0,0
266,211,0,0,0,0,0,0,0,0,0,-1,1490,813,0,0
273,211,0,0,0,0,0,0,0,0,0,-1,1497,813,0,0
280,211,0,0,0,0,0,0,0,0,0,-1,1504,813,0,0
287,211,0,0,0,0,0,0,0,0,0,-1,1511,813,0,0
294,211,0,0,0,0,0,0,0,0,0,-1,1518,813,0,0
301,211,0,0,0,0,0,0,0,0,0,-1,1525,813,0,0
308,211,0,0,0,0,0,0,0,0,0,-1,1532,813,0,0
315,211,0,0,0,0,0,0,0,0,0,-1,1539,813,0,0
322,211,0,0,0,0,0,0,0,0,0,-1,1546,813,0,0
329,211,0,0,0,0,0,0,0,0,0,-1,1553,813,0,0
336,211,0,0,0,0,0,0,0,0,0,-1,1560,813,0,0
343,211,0,0,0,0,0,0,0,0,0,-1,1567,813,0,0
350,211,0,0,0,0,0,0,0,0,0,-1,1574,813,0,0
357,211,0,0,0,0,0,0,0,0,0,-1,1581,813,0,0
364,211,0,0,0,0,0,0,0,0,0,-1,1588,813,0,0
371,211,0,0,0,0,0,0,0,0,0,-1,1595,813,0,0
378,211,0,0,0,0,0,0,0,0,0,-1,1602,813,0,0
385,211,0,0,0,0,0,0,0,0,0,-1,1609,813,0,0
392,211,0,0,0,0,0,0,0,0,0,-1,1616,813,0,0
399,211,0,0,0,0,0,0,0,0,0,-1,1623,813,0,0
406,211,0,0,0,0,0,0,0,0,0,-1,1630,813,0,0
413,211,0,0,0,0,0,0,0,0,0,-1,1637,813,0,0
420,211,0,0,0,0,0,0,0,0,0,-1,1644,813,0,0
427,211,0,0,0,0,0,0,0,0,0,-1,1651,813,0,0
434,211,0,0,0,0,0,0,0,0,0,-1,1658,813,0,0
441,211,0,0,0,0,0,0,0,0,0,-1,1665,813,0,0
448,211,0,0,0,0,0,0,0,0,0,-1,1672,813,0,0
455,211,0,0,0,0,0,0,0,0,0,-1,1679,813,0,0
462,211,0,0,0,0,0,0,0,0,0,-1,1686,813,0,0
469,211,0,0,0,0,0,0,0,0,0,-1,1693,813,0,0
476,211,0,0,0,0,0,0,0,0,0,-1,1700,813,0,0
483,211,0,0,0,0,0,0,0,0,0,-1,1707,813,0,0
490,211,0,0,0,0,0,0,0,0,0,-1,1714,813,0,0
497,211,0,0,0,0,0,0,0,0,0,-1,1721,813,0,0
504,211,0,0,0,0,0,0,0,0,0,-1,1728,813,0,0
511,211,0,0,0,0,0,0,0,0,0,-1,1735,813,0,0
518,211,0,0,0,0,0,0,0,0,0,-1,1742,813,0,0
525,211,0,0,0,0,0,0,0,0,0,-1,1749,813,0,0
532,211,0,0,0,0,0,0,0,0,0,-1,1756,813,0,0
539,211,0,0,0,0,0,0,0,0,0,-1,1763,813,0,0
546,211,0,0,0,0,0,0,0,0,0,-1,1770,813,0,0
553,211,0,0,0,0,0,0,0,0,0,-1,1777,813,0,0
560,211,0,0,0,0,0,0,0,0,0,-1,1784,813,0,0
567,211,0,0,0,0,0,0,0,0,0,-1,1791,813,0,0
574,211,0,0,0,0,0,0,0,0,0,-1,1798,813,0,0
581,211,0,0,0,0,0,0,0,0,0,-1,1805,813,0,0
588,211,0,0,0,0,0,0,0,0,0,-1,1812,813,0,0
595,211,83.3855,2.47711,0.00106149,0.00153221,-1.15005e-05,0.00153249,0.00106121,-1.54638,0.000906373,0.0361883,1819,813,83.3856,-2.47713
602,211,83.4255,2.42462,0.000957993,0.00101964,0.000825375,0.00181477,0.000162864,0.804061,0.00115937,0.0365941,1826,813,83.4256,-2.42463
609,211,83.4398,2.43506,0.000672314,0.000822106,0.00110906,0.0018588,-0.00036438,0.819112,0.00137683,0.0383745,1833,813,83.4399,-2.43507
616,211,83.3602,2.48993,0.000105879,0.000802779,0.00108991,0.00159858,-0.000689923,0.940116,0.00135554,0.0301542,1840,813,83.3602,-2.48994
623,211,83.3724,2.4873,-0.000288987,0.000853027,0.000894069,0.00134287,-0.000778833,1.06958,0.00123931,0.0305234,1847,813,83.3724,-2.48731
630,211,83.4059,2.4624,-0.000432164,0.0012133,0.000695604,0.00146795,-0.000686815,1.21986,0.00127101,0.0395513,1854,813,83.4059,-2.46242
637,211,83.4587,2.41779,0,0,0,0,0,0,0,-1,1861,813,83.4587,-2.41779
644,211,66.401,2.3595,0,0,0,0,0,0,0,-1,1868,813,66.401,-2.35952
651,211,48.5043,2.95557,0,0,0,0,0,0,0,-1,1875,813,48.5043,-2.95558
658,211,27.7909,1.52234,0,0,0,0,0,0,0,-1,1882,813,27.7909,-1.52234
665,211,42.2053,-0.745605,0,0,0,0,0,0,0,-1,1889,813,42.2054,0.745605
672,211,53.189,-1.99603,0,0,0,0,0,0,0,-1,1896,813,53.189,1.99603
679,211,62.8196,-1.59357,0,0,0,0,0,0,0,-1,1903,813,62.8196,1.59357
686,211,62.899,-0.731445,-0.00132268,1.82108e-05,-0.0013908,0.000891733,-0.0021962,-1.00999,0.00183508,0.0388361,1910,813,62.899,0.731472
693,211,62.8215,0.281738,-0.00112042,1.16797e-05,-0.00157755,0.00112166,-0.0022304,-0.957652,0.00197028,0.017414,1917,813,62.8216,-0.281746
700,211,62.6997,1.27441,-0.000648047,0.000221786,-0.00132306,0.00117958,-0.00160584,-0.944194,0.00161443,0.0146413,1924,813,62.6997,-1.27441
707,211,62.6588,2.302,0.000166178,0.000600611,-0.000648626,0.00106743,-0.000300637,-0.946972,0.000830177,0.0210684,1931,813,62.6588,-2.30203
714,211,62.6198,3.3078,0.00141025,0.00132663,0.000215035,0.0015875,0.00114938,0.689381,0.00094671,0.0231158,1938,813,62.6198,-3.30781
721,211,62.5482,4.26337,0.00279262,0.00198979,0.0011776,0.00363534,0.00114708,0.621136,0.00214595,0.0184686,1945,813,62.5482,-4.26336
728,211,62.5085,5.2746,0.00438157,0.00249275,0.00225391,0.00588093,0.000993389,0.587005,0.00363502,0.019723,1952,813,62.5085,-5.27457
735,211,62.5706,6.29956,0.00627722,0.00285693,0.00343703,0.00840606,0.000728094,0.554549,0.00537779,0.0404983,1959,813,62.5706,-6.29955
742,211,62.7865,7.27594,0,0,0,0,0,0,0,-1,1966,813,62.7865,-7.27595
749,211,61.988,6.77332,0,0,0,0,0,0,0,-1,1973,813,61.9881,-6.77333
756,211,61.4293,7.44904,0,0,0,0,0,0,0,-1,1980,813,61.4293,-7.44904
763,211,60.7927,9.93561,0,0,0,0,0,0,0,-1,1987,813,60.7928,-9.93563
770,211,46.2148,12.9099,0,0,0,0,0,0,0,-1,1994,813,46.2148,-12.9099
777,211,0,0,0,0,0,0,0,0,0,-1,2001,813,0,0
784,211,0,0,0,0,0,0,0,0,0,-1,2008,813,0,0
791,211,0,0,0,0,0,0,0,0,0,-1,2015,813,0,0
798,211,0,0,0,0,0,0,0,0,0,-1,2022,813,0,0
805,211,0,0,0,0,0,0,0,0,0,-1,2029,813,0,0
812,211,0,0,0,0,0,0,0,0,0,-1,2036,813,0,0
-700,204,0,0,0,0,0,0,0,0,0,-1,524,820,0,0
-693,204,0,0,0,0,0,0,0,0,0,-1,531,820,0,0
-686,204,0,0,0,0,0,0,0,0,0,-1,538,820,0,0
-679,204,0,0,0,0,0,0,0,0,0,-1,545,820,0,0
-672,204,0,0,0,0,0,0,0,0,0,-1,552,820,0,0
-665,204,0,0,0,0,0,0,0,0,0,-1,559,820,0,0
-658,204,0,0,0,0,0,0,0,0,0,-1,566,820,0,0
-651,204,-40.064,5.25806,0,0,0,0,0,0,0,-1,573,820,-40.064,-5.25806
-644,204,-40.4117,4.54321,0,0,0,0,0,0,0,-1,580,820,-40.4117,-4.54323
-637,204,-40.8671,3.93817,0,0,0,0,0,0,0,-1,587,820,-40.8671,-3.93819
-630,204,-41.7101,3.04382,0,0,0,0,0,0,0,-1,594,820,-41.7101,-3.04383
-623,204,-41.8597,2.11951,0,0,0,0,0,0,0,-1,601,820,-41.8597,-2.11951
-616,204,-46.7602,7.79694,0,0,0,0,0,0,0,-1,608,820,-46.7602,-7.79697
-609,204,-46.6263,6.836,0.00885162,-0.000838585,0.000744154,0.00890844,-0.000895399,0.076199,0.00625881,0.0432151,615,820,-46.6263,-6.83602
-602,204,-46.6992,5.88641,0.00684863,0.000344147,0.000372786,0.00686992,0.000322851,0.0570632,0.00447621,0.0198173,622,820,-46.6992,-5.88642
-595,204,-46.8062,4.87531,0.00544943,0.00123407,0.000168906,0.00545619,0.00122731,0.0399838,0.00330521,0.0156397,629,820,-46.8062,-4.87528
-588,204,-46.8817,3.82623,0.0045005,0.00176632,0.000529236,0.00459937,0.00166745,0.184679,0.00268869,0.0149009,636,820,-46.8817,-3.82624
-581,204,-46.9487,2.80713,0.00388448,0.00208697,0.00120347,0.00448776,0.0014837,0.464672,0.00264011,0.0142723,643,820,-46.9486,-2.80711
-574,204,-46.9864,1.81409,0.00338874,0.00232421,0.00189017,0.00482015,0.000892799,0.648154,0.00296105,0.0143841,650,820,-46.9864,-1.81406
-567,204,-47.0776,0.847778,0.00299516,0.00226823,0.00227691,0.00493743,0.000325965,0.70625,0.00318853,0.0155571,657,820,-47.0776,-0.847796
-560,204,-47.1997,-0.0961304,0,0,0,0,0,0,0,-1,664,820,-47.1997,0.0961377
-553,204,-47.8132,-1.09167,0,0,0,0,0,0,0,-1,671,820,-47.8132,1.09168
-546,204,-47.5968,-2.10034,0,0,0,0,0,0,0,-1,678,820,-47.5968,2.10036
-539,204,-47.3804,-3.10901,0,0,0,0,0,0,0,-1,685,820,-47.3804,3.10903
-532,204,-30.0565,-3.29065,0,0,0,0,0,0,0,-1,692,820,-30.0565,3.29063
-525,204,-25.7137,1.52496,0,0,0,0,0,0,0,-1,699,820,-25.7137,-1.52496
-518,204,-43.4591,0.383972,0,0,0,0,0,0,0,-1,706,820,-43.4591,-0.383942
-511,204,-64.1096,0.325378,0,0,0,0,0,0,0,-1,713,820,-64.1096,-0.325363
-504,204,-66.9582,0.374084,0,0,0,0,0,0,0,-1,720,820,-66.9582,-0.37406
-497,204,-66.9038,0.46814,0.00345689,-0.00108032,0.00446896,0.00620009,-0.00382352,0.550529,0.0058411,0.0407867,727,820,-66.9038,-0.468168
-490,204,-66.8715,0.69928,0.00476069,-0.00178394,0.00427958,0.00687566,-0.00389891,0.458997,0.00629934,0.035804,734,820,-66.8715,-0.699299
-483,204,-66.7654,0.935669,0.00672959,-0.00259224,0.00426682,0.00838768,-0.00425033,0.370642,0.00742575,0.0418085,741,820,-66.7654,-0.935667
-476,204,0,0,0,0,0,0,0,0,0,-1,748,820,0,0
-469,204,0,0,0,0,0,0,0,0,0,-1,755,820,0,0
-462,204,0,0,0,0,0,0,0,0,0,-1,762,820,0,0
-455,204,0,0,0,0,0,0,0,0,0,-1,769,820,0,0
-448,204,0,0,0,0,0,0,0,0,0,-1,776,820,0,0
-441,204,0,0,0,0,0,0,0,0,0,-1,783,820,0,0
-434,204,0,0,0,0,0,0,0,0,0,-1,790,820,0,0
-427,204,0,0,0,0,0,0,0,0,0,-1,797,820,0,0
-420,204,0,0,0,0,0,0,0,0,0,-1,804,820,0,0
-413,204,0,0,0,0,0,0,0,0,0,-1,811,820,0,0
-406,204,0,0,0,0,0,0,0,0,0,-1,818,820,0,0
-399,204,0,0,0,0,0,0,0,0,0,-1,825,820,0,0
-392,204,0,0,0,0,0,0,0,0,0,-1,832,820,0,0
-385,204,0,0,0,0,0,0,0,0,0,-1,839,820,0,0
-378,204,0,0,0,0,0,0,0,0,0,-1,846,820,0,0
-371,204,0,0,0,0,0,0,0,0,0,-1,853,820,0,0
-364,204,0,0,0,0,0,0,0,0,0,-1,860,820,0,0
-357,204,0,0,0,0,0,0,0,0,0,-1,867,820,0,0
-350,204,0,0,0,0,0,0,0,0,0,-1,874,820,0,0
-343,204,0,0,0,0,0,0,0,0,0,-1,881,820,0,0
-336,204,0,0,0,0,0,0,0,0,0,-1,888,820,0,0
-329,204,0,0,0,0,0,0,0,0,0,-1,895,820,0,0
-322,204,0,0,0,0,0,0,0,0,0,-1,902,820,0,0
-315,204,0,0,0,0,0,0,0,0,0,-1,909,820,0,0
-308,204,0,0,0,0,0,0,0,0,0,-1,916,820,0,0
-301,204,0,0,0,0,0,0,0,0,0,-1,923,820,0,0
-294,204,0,0,0,0,0,0,0,0,0,-1,930,820,0,0
-287,204,0,0,0,0,0,0,0,0,0,-1,937,820,0,0
-280,204,0,0,0,0,0,0,0,0,0,-1,944,820,0,0
-273,204,0,0,0,0,0,0,0,0,0,-1,951,820,0,0
-266,204,0,0,0,0,0,0,0,0,0,-1,958,820,0,0
-259,204,0,0,0,0,0,0,0,0,0,-1,965,820,0,0
-252,204,0,0,0,0,0,0,0,0,0,-1,972,820,0,0
-245,204,0,0,0,0,0,0,0,0,0,-1,979,820,0,0
-238,204,0,0,0,0,0,0,0,0,0,-1,986,820,0,0
-231,204,0,0,0,0,0,0,0,0,0,-1,993,820,0,0
-224,204,0,0,0,0,0,0,0,0,0,-1,1000,820,0,0
-217,204,0,0,0,0,0,0,0,0,0,-1,1007,820,0,0
-210,204,0,0,0,0,0,0,0,0,0,-1,1014,820,0,0
-203,204,0,0,0,0,0,0,0,0,0,-1,1021,820,0,0
-196,204,0,0,0,0,0,0,0,0,0,-1,1028,820,0,0
-189,204,0,0,0,0,0,0,0,0,0,-1,1035,820,0,0
-182,204,0,0,0,0,0,0,0,0,0,-1,1042,820,0,0
-175,204,0,0,0,0,0,0,0,0,0,-1,1049,820,0,0
-168,204,0,0,0,0,0,0,0,0,0,-1,1056,820,0,0
-161,204,0,0,0,0,0,0,0,0,0,-1,1063,820,0,0
-154,204,0,0,0,0,0,0,0,0,0,-1,1070,820,0,0
-147,204,0,0,0,0,0,0,0,0,0,-1,1077,820,0,0
-140,204,0,0,0,0,0,0,0,0,0,-1,1084,820,0,0
-133,204,0,0,0,0,0,0,0,0,0,-1,1091,820,0,0
-126,204,0,0,0,0,0,0,0,0,0,-1,1098,820,0,0
-119,204,0,0,0,0,0,0,0,0,0,-1,1105,820,0,0
-112,204,0,0,0,0,0,0,0,0,0,-1,1112,820,0,0
-105,204,0,0,0,0,0,0,0,0,0,-1,1119,820,0,0
-98,204,0,0,0,0,0,0,0,0,0,-1,1126,820,0,0
-91,204,0,0,0,0,0,0,0,0,0,-1,1133,820,0,0
-84,204,0,0,0,0,0,0,0,0,0,-1,1140,820,0,0
-77,204,0,0,0,0,0,0,0,0,0,-1,1147,820,0,0
-70,204,0,0,0,0,0,0,0,0,0,-1,1154,820,0,0
-63,204,0,0,0,0,0,0,0,0,0,-1,1161,820,0,0
-56,204,0,0,0,0,0,0,0,0,0,-1,1168,820,0,0
-49,204,0,0,0,0,0,0,0,0,0,-1,1175,820,0,0
-42,204,0,0,0,0,0,0,0,0,0,-1,1182,820,0,0
-35,204,0,0,0,0,0,0,0,0,0,-1,1189,820,0,0
-28,204,0,0,0,0,0,0,0,0,0,-1,1196,820,0,0
-21,204,0,0,0,0,0,0,0,0,0,-1,1203,820,0,0
-14,204,0,0,0,0,0,0,0,0,0,-1,1210,820,0,0
-7,204,0,0,0,0,0,0,0,0,0,-1,1217,820,0,0
0,204,0,0,0,0,0,0,0,0,0,-1,1224,820,0,0
7,204,0,0,0,0,0,0,0,0,0,-1,1231,820,0,0
14,204,0,0,0,0,0,0,0,0,0,-1,1238,820,0,0
21,204,0,0,0,0,0,0,0,0,0,-1,1245,820,0,0
28,204,0,0,0,0,0,0,0,0,0,-1,1252,820,0,0
35,204,0,0,0,0,0,0,0,0,0,-1,1259,820,0,0
42,204,0,0,0,0,0,0,0,0,0,-1,1266,820,0,0
49,204,0,0,0,0,0,0,0,0,0,-1,1273,820,0,0
56,204,0,0,0,0,0,0,0,0,0,-1,1280,820,0,0
63,204,0,0,0,0,0,0,0,0,0,-1,1287,820,0,0
70,204,0,0,0,0,0,0,0,0,0,-1,1294,820,0,0
77,204,0,0,0,0,0,0,0,0,0,-1,1301,820,0,0
84,204,0,0,0,0,0,0,0,0,0,-1,1308,820,0,0
91,204,0,0,0,0,0,0,0,0,0,-1,1315,820,0,0
98,204,0,0,0,0,0,0,0,0,0,-1,1322,820,0,0
105,204,0,0,0,0,0,0,0,0,0,-1,1329,820,0,0
112,204,0,0,0,0,0,0,0,0,0,-1,1336,820,0,0
119,204,0,0,0,0,0,0,0,0,0,-1,1343,820,0,0
126,204,0,0,0,0,0,0,0,0,0,-1,1350,820,0,0
133,204,0,0,0,0,0,0,0,0,0,-1,1357,820,0,0
140,204,0,0,0,0,0,0,0,0,0,-1,1364,820,0,0
147,204,0,0,0,0,0,0,0,0,0,-1,1371,820,0,0
154,204,0,0,0,0,0,0,0,0,0,-1,1378,820,0,0
161,204,0,0,0,0,0,0,0,0,0,-1,1385,820,0,0
168,204,0,0,0,0,0,0,0,0,0,-1,1392,820,0,0
175,204,0,0,0,0,0,0,0,0,0,-1,1399,820,0,0
182,204,0,0,0,0,0,0,0,0,0,-1,1406,820,0,0
189,204,0,0,0,0,0,0,0,0,0,-1,1413,820,0,0
196,204,0,0,0,0,0,0,0,0,0,-1,1420,820,0,0
203,204,0,0,0,0,0,0,0,0,0,-1,1427,820,0,0
210,204,0,0,0,0,0,0,0,0,0,-1,1434,820,0,0
217,204,0,0,0,0,0,0,0,0,0,-1,1441,820,0,0
224,204,0,0,0,0,0,0,0,0,0,-1,1448,820,0,0
231,204,0,0,0,0,0,0,0,0,0,-1,1455,820,0,0
238,204,0,0,0,0,0,0,0,0,0,-1,1462,820,0,0
245,204,0,0,0,0,0,0,0,0,0,-1,1469,820,0,0
252,204,0,0,0,0,0,0,0,0,0,-1,1476,820,0,0
259,204,0,0,0,0,0,0,0,0,0,-1,1483,820,0,0
266,204,0,0,0,0,0,0,0,0,0,-1,1490,820,0,0
273,204,0,0,0,0,0,0,0,0,0,-1,1497,820,0,0
280,204,0,0,0,0,0,0,0,0,0,-1,1504,820,0,0
287,204,0,0,0,0,0,0,0,0,0,-1,1511,820,0,0
294,204,0,0,0,0,0,0,0,0,0,-1,1518,820,0,0
301,204,0,0,0,0,0,0,0,0,0,-1,1525,820,0,0
308,204,0,0,0,0,0,0,0,0,0,-1,1532,820,0,0
315,204,0,0,0,0,0,0,0,0,0,-1,1539,820,0,0
322,204,0,0,0,0,0,0,0,0,0,-1,1546,820,0,0
329,204,0,0,0,0,0,0,0,0,0,-1,1553,820,0,0
336,204,0,0,0,0,0,0,0,0,0,-1,1560,820,0,0
343,204,0,0,0,0,0,0,0,0,0,-1,1567,820,0,0
350,204,0,0,0,0,0,0,0,0,0,-1,1574,820,0,0
357,204,0,0,0,0,0,0,0,0,0,-1,1581,820,0,0
364,204,0,0,0,0,0,0,0,0,0,-1,1588,820,0,0
371,204,0,0,0,0,0,0,0,0,0,-1,1595,820,0,0
378,204,0,0,0,0,0,0,0,0,0,-1,1602,820,0,0
385,204,0,0,0,0,0,0,0,0,0,-1,1609,820,0,0
392,204,0,0,0,0,0,0,0,0,0,-1,1616,820,0,0
399,204,0,0,0,0,0,0,0,0,0,-1,1623,820,0,0
406,204,0,0,0,0,0,0,0,0,0,-1,1630,820,0,0
413,204,0,0,0,0,0,0,0,0,0,-1,1637,820,0,0
420,204,0,0,0,0,0,0,0,0,0,-1,1644,820,0,0
427,204,0,0,0,0,0,0,0,0,0,-1,1651,820,0,0
434,204,0,0,0,0,0,0,0,0,0,-1,1658,820,0,0
441,204,0,0,0,0,0,0,0,0,0,-1,1665,820,0,0
448,204,0,0,0,0,0,0,0,0,0,-1,1672,820,0,0
455,204,0,0,0,0,0,0,0,0,0,-1,1679,820,0,0
462,204,0,0,0,0,0,0,0,0,0,-1,1686,820,0,0
469,204,0,0,0,0,0,0,0,0,0,-1,1693,820,0,0
476,204,0,0,0,0,0,0,0,0,0,-1,1700,820,0,0
483,204,0,0,0,0,0,0,0,0,0,-1,1707,820,0,0
490,204,0,0,0,0,0,0,0,0,0,-1,1714,820,0,0
497,204,0,0,0,0,0,0,0,0,0,-1,1721,820,0,0
504,204,0,0,0,0,0,0,0,0,0,-1,1728,820,0,0
511,204,0,0,0,0,0,0,0,0,0,-1,1735,820,0,0
518,204,0,0,0,0,0,0,0,0,0,-1,1742,820,0,0
525,204,0,0,0,0,0,0,0,0,0,-1,1749,820,0,0
532,204,0,0,0,0,0,0,0,0,0,-1,1756,820,0,0
539,204,0,0,0,0,0,0,0,0,0,-1,1763,820,0,0
546,204,0,0,0,0,0,0,0,0,0,-1,1770,820,0,0
553,204,0,0,0,0,0,0,0,0,0,-1,1777,820,0,0
560,204,0,0,0,0,0,0,0,0,0,-1,1784,820,0,0
567,204,0,0,0,0,0,0,0,0,0,-1,1791,820,0,0
574,204,0,0,0,0,0,0,0,0,0,-1,1798,820,0,0
581,204,0,0,0,0,0,0,0,0,0,-1,1805,820,0,0
588,204,0,0,0,0,0,0,0,0,0,-1,1812,820,0,0
595,204,0,0,0,0,0,0,0,0,0,-1,1819,820,0,0
602,204,83.4994,2.41162,-6.10127e-05,0.00203124,0.00102949,0.00245284,-0.000482613,1.18211,0.00181758,0.0387183,1826,820,83.4994,-2.41163
609,204,83.4766,2.35626,0.000129518,0.00151492,0.00121751,0.00222299,-0.000578559,1.04403,0.00170783,0.0425713,1833,820,83.4766,-2.35624
616,204,83.4775,2.36145,0.000123635,0.00117242,0.00123275,0.00198768,-0.000691621,0.986497,0.00160609,0.0380978,1840,820,83.4775,-2.36146
623,204,83.3906,2.43451,0.000144374,0.0010553,0.00115631,0.00184262,-0.000642946,0.973013,0.00148972,0.028617,1847,820,83.3906,-2.43448
630,204,83.3748,2.44019,0.000200699,0.00147294,0.00098467,0.00200909,-0.000335453,1.07219,0.00146408,0.0289664,1854,820,83.3747,-2.44022
637,204,83.4518,2.41486,0,0,0,0,0,0,0,-1,1861,820,83.4518,-2.41485
644,204,80.9747,2.19354,0,0,0,0,0,0,0,-1,1868,820,80.9747,-2.19357
651,204,53.7611,2.32251,0,0,0,0,0,0,0,-1,1875,820,53.7611,-2.32249
658,204,34.9631,1.64844,0,0,0,0,0,0,0,-1,1882,820,34.9631,-1.64842
665,204,21.8292,1.51099,0,0,0,0,0,0,0,-1,1889,820,21.8292,-1.51099
672,204,64.0408,-2.34454,0,0,0,0,0,0,0,-1,1896,820,64.0408,2.34454
679,204,64.0674,-1.47101,-0.000833953,0.000435068,-0.00106411,0.00103949,-0.00143837,-1.05424,0.00143676,0.0472309,1903,820,64.0674,1.47098
686,204,64.0814,-0.616516,-0.00125042,5.40826e-05,-0.0013682,0.000917554,-0.00211389,-1.00782,0.00179506,0.0329305,1910,820,64.0815,0.616494
693,204,63.6348,0.325745,-0.00123982,-0.000112895,-0.00174495,0.00115731,-0.00251003,-0.941569,0.00216482,0.0357711,1917,820,63.6348,-0.325763
700,204,63.7042,1.34082,-0.00103177,-0.000143274,-0.00168645,0.00115646,-0.0023315,-0.914184,0.00205151,0.0193321,1924,820,63.7042,-1.3408
707,204,63.6498,2.38708,-0.000487601,7.41199e-05,-0.00113497,0.000962468,-0.00137595,-0.906691,0.0013571,0.0162917,1931,820,63.6497,-2.38706
714,204,63.5958,3.43286,0.00070173,0.000774718,-0.00030779,0.00104817,0.000428278,-0.844407,0.000608523,0.026038,1938,820,63.5958,-3.43287
721,204,63.5164,4.39368,0.0020843,0.00146494,0.00065153,0.002496,0.00105324,0.563546,0.00144691,0.0238251,1945,820,63.5163,-4.39369
728,204,63.4587,5.30145,0.00367008,0.00198163,0.00172768,0.00474877,0.000902937,0.558137,0.00291191,0.014117,1952,820,63.4588,-5.30147
735,204,63.3562,6.27631,0.0055165,0.0023192,0.00288753,0.00721838,0.000617312,0.532582,0.00462025,0.0186404,1959,820,63.3562,-6.27631
742,204,63.259,7.2287,0.00761465,0.00198586,0.00423166,0.00988235,-0.00028185,0.491946,0.00668417,0.0382397,1966,820,63.259,-7.22867
749,204,63.1704,8.21918,0,0,0,0,0,0,0,-1,1973,820,63.1704,-8.21919
756,204,62.6597,9.45044,0,0,0,0,0,0,0,-1,1980,820,62.6597,-9.45043
763,204,62.5583,10.2222,0,0,0,0,0,0,0,-1,1987,820,62.5582,-10.2222
770,204,62.7102,11.3501,0,0,0,0,0,0,0,-1,1994,820,62.7103,-11.3501
777,204,0,0,0,0,0,0,0,0,0,-1,2001,820,0,0
784,204,0,0,0,0,0,0,0,0,0,-1,2008,820,0,0
791,204,0,0,0,0,0,0,0,0,0,-1,2015,820,0,0
798,204,0,0,0,0,0,0,0,0,0,-1,2022,820,0,0
805,204,0,0,0,0,0,0,0,0,0,-1,2029,820,0,0
812,204,0,0,0,0,0,0,0,0,0,-1,2036,820,0,0
-700,197,0,0,0,0,0,0,0,0,0,-1,524,827,0,0
-693,197,0,0,0,0,0,0,0,0,0,-1,531,827,0,0
-686,197,0,0,0,0,0,0,0,0,0,-1,538,827,0,0
-679,197,0,0,0,0,0,0,0,0,0,-1,545,827,0,0
-672,197,0,0,0,0,0,0,0,0,0,-1,552,827,0,0
-665,197,0,0,0,0,0,0,0,0,0,-1,559,827,0,0
-658,197,-39.9774,5.66638,0,0,0,0,0,0,0,-1,566,827,-39.9774,-5.66637
-651,197,-39.9665,5.23578,0,0,0,0,0,0,0,-1,573,827,-39.9665,-5.23575
-644,197,-38.9225,4.75665,0,0,0,0,0,0,0,-1,580,827,-38.9225,-4.75665
-637,197,-45.2572,7.41498,0,0,0,0,0,0,0,-1,587,827,-45.2572,-7.415
-630,197,-40.4908,2.45648,0,0,0,0,0,0,0,-1,594,827,-40.4908,-2.45649
-623,197,-47.2413,8.54584,0,0,0,0,0,0,0,-1,601,827,-47.2413,-8.54584
-616,197,-48.3134,7.51398,0,0,0,0,0,0,0,-1,608,827,-48.3134,-7.51398
-609,197,-47.6818,6.67188,0.00756542,-0.00148913,0.00182057,0.00791777,-0.00184147,0.191173,0.00598748,0.0380201,615,827,-47.6818,-6.67185
-602,197,-47.6728,5.90741,0.00594762,-0.000133286,0.00129148,0.00621054,-0.000396206,0.200836,0.00427855,0.023748,622,827,-47.6728,-5.90742
-595,197,-47.8259,4.95154,0.00488959,0.000915657,0.00104047,0.00514553,0.00065972,0.241193,0.00323296,0.0191976,629,827,-47.8259,-4.95155
-588,197,-47.8865,3.90857,0.00423012,0.0016015,0.0013012,0.00476527,0.00106634,0.390192,0.00288779,0.021649,636,827,-47.8865,-3.90859
-581,197,-47.9734,2.87689,0.00390502,0.00208942,0.00183845,0.00504759,0.000946847,0.556066,0.00309806,0.0130271,643,827,-47.9734,-2.87692
-574,197,-48.015,1.87073,0.0035974,0.00254724,0.00226596,0.00539833,0.000746319,0.671545,0.00337771,0.0151484,650,827,-48.015,-1.87074
-567,197,-47.9692,0.927368,0.00336193,0.00249904,0.00240662,0.00537547,0.000485499,0.696704,0.00343327,0.0245863,657,827,-47.9692,-0.927392
-560,197,-47.8871,-0.0110474,0,0,0,0,0,0,0,-1,664,827,-47.8871,0.0110616
-553,197,-33.1771,-1.4881,0,0,0,0,0,0,0,-1,671,827,-33.1771,1.4881
-546,197,-48.7606,-1.82941,0,0,0,0,0,0,0,-1,678,827,-48.7606,1.82939
-539,197,-32.8993,-2.61737,0,0,0,0,0,0,0,-1,685,827,-32.8993,2.61737
-532,197,-16.0519,0.0410156,0,0,0,0,0,0,0,-1,692,827,-16.0519,-0.0410415
-525,197,-35.3785,2.11829,0,0,0,0,0,0,0,-1,699,827,-35.3785,-2.11826
-518,197,-57.6698,0.308533,0,0,0,0,0,0,0,-1,706,827,-57.6698,-0.308561
-511,197,-66.7779,0.493164,0,0,0,0,0,0,0,-1,713,827,-66.7779,-0.49316
-504,197,-66.7545,0.685242,0,0,0,0,0,0,0,-1,720,827,-66.7545,-0.685265
-497,197,-66.9357,0.574829,0.00382146,-0.000521079,0.00421518,0.00639173,-0.00309135,0.547568,0.00558449,0.0425452,727,827,-66.9357,-0.574853
-490,197,-66.973,0.659668,0.00545354,-0.00108421,0.00379716,0.00719505,-0.00282572,0.430012,0.005966,0.0425479,734,827,-66.973,-0.659645
-483,197,-66.8237,0.894165,0.00772386,-0.00168371,0.00293978,0.00856696,-0.0025268,0.279293,0.00671398,0.044915,741,827,-66.8238,-0.89416
-476,197,0,0,0,0,0,0,0,0,0,-1,748,827,0,0
-469,197,0,0,0,0,0,0,0,0,0,-1,755,827,0,0
-462,197,0,0,0,0,0,0,0,0,0,-1,762,827,0,0
-455,197,0,0,0,0,0,0,0,0,0,-1,769,827,0,0
-448,197,0,0,0,0,0,0,0,0,0,-1,776,827,0,0
-441,197,0,0,0,0,0,0,0,0,0,-1,783,827,0,0
-434,197,0,0,0,0,0,0,0,0,0,-1,790,827,0,0
-427,197,0,0,0,0,0,0,0,0,0,-1,797,827,0,0
-420,197,0,0,0,0,0,0,0,0,0,-1,804,827,0,0
-413,197,0,0,0,0,0,0,0,0,0,-1,811,827,0,0
-406,197,0,0,0,0,0,0,0,0,0,-1,818,827,0,0
-399,197,0,0,0,0,0,0,0,0,0,-1,825,827,0,0
-392,197,0,0,0,0,0,0,0,0,0,-1,832,827,0,0
-385,197,0,0,0,0,0,0,0,0,0,-1,839,827,0,0
-378,197,0,0,0,0,0,0,0,0,0,-1,846,827,0,0
-371,197,0,0,0,0,0,0,0,0,0,-1,853,827,0,0
-364,197,0,0,0,0,0,0,0,0,0,-1,860,827,0,0
-357,197,0,0,0,0,0,0,0,0,0,-1,867,827,0,0
-350,197,0,0,0,0,0,0,0,0,0,-1,874,827,0,0
-343,197,0,0,0,0,0,0,0,0,0,-1,881,827,0,0
-336,197,0,0,0,0,0,0,0,0,0,-1,888,827,0,0
-329,197,0,0,0,0,0,0,0,0,0,-1,895,827,0,0
-322,197,0,0,0,0,0,0,0,0,0,-1,902,827,0,0
-315,197,0,0,0,0,0,0,0,0,0,-1,909,827,0,0
-308,197,0,0,0,0,0,0,0,0,0,-1,916,827,0,0
-301,197,0,0,0,0,0,0,0,0,0,-1,923,827,0,0
-294,197,0,0,0,0,0,0,0,0,0,-1,930,827,0,0
-287,197,0,0,0,0,0,0,0,0,0,-1,937,827,0,0
-280,197,0,0,0,0,0,0,0,0,0,-1,944,827,0,0
-273,197,0,0,0,0,0,0,0,0,0,-1,951,827,0,0
-266,197,0,0,0,0,0,0,0,0,0,-1,958,827,0,0
-259,197,0,0,0,0,0,0,0,0,0,-1,965,827,0,0
-252,197,0,0,0,0,0,0,0,0,0,-1,972,827,0,0
-245,197,0,0,0,0,0,0,0,0,0,-1,979,827,0,0
-238,197,0,0,0,0,0,0,0,0,0,-1,986,827,0,0
-231,197,0,0,0,0,0,0,0,0,0,-1,993,827,0,0
-224,197,0,0,0,0,0,0,0,0,0,-1,1000,827,0,0
-217,197,0,0,0,0,0,0,0,0,0,-1,1007,827,0,0
-210,197,0,0,0,0,0,0,0,0,0,-1,1014,827,0,0
-203,197,0,0,0,0,0,0,0,0,0,-1,1021,827,0,0
-196,197,0,0,0,0,0,0,0,0,0,-1,1028,827,0,0
-189,197,0,0,0,0,0,0,0,0,0,-1,1035,827,0,0
-182,197,0,0,0,0,0,0,0,0,0,-1,1042,827,0,0
-175,197,0,0,0,0,0,0,0,0,0,-1,1049,827,0,0
-168,197,0,0,0,0,0,0,0,0,0,-1,1056,827,0,0
-161,197,0,0,0,0,0,0,0,0,0,-1,1063,827,0,0
-154,197,0,0,0,0,0,0,0,0,0,-1,1070,827,0,0
-147,197,0,0,0,0,0,0,0,0,0,-1,1077,827,0,0
-140,197,0,0,0,0,0,0,0,0,0,-1,1084,827,0,0
-133,197,0,0,0,0,0,0,0,0,0,-1,1091,827,0,0
-126,197,0,0,0,0,0,0,0,0,0,-1,1098,827,0,0
-119,197,0,0,0,0,0,0,0,0,0,-1,1105,827,0,0
-112,197,0,0,0,0,0,0,0,0,0,-1,1112,827,0,0
-105,197,0,0,0,0,0,0,0,0,0,-1,1119,827,0,0
-98,197,0,0,0,0,0,0,0,0,0,-1,1126,827,0,0
-91,197,0,0,0,0,0,0,0,0,0,-1,1133,827,0,0
-84,197,0,0,0,0,0,0,0,0,0,-1,1140,827,0,0
-77,197,0,0,0,0,0,0,0,0,0,-1,1147,827,0,0
-70,197,0,0,0,0,0,0,0,0,0,-1,1154,827,0,0
-63,197,0,0,0,0,0,0,0,0,0,-1,1161,827,0,0
-56,197,0,0,0,0,0,0,0,0,0,-1,1168,827,0,0
-49,197,0,0,0,0,0,0,0,0,0,-1,1175,827,0,0
-42,197,0,0,0,0,0,0,0,0,0,-1,1182,827,0,0
-35,197,0,0,0,0,0,0,0,0,0,-1,1189,827,0,0
-28,197,0,0,0,0,0,0,0,0,0,-1,1196,827,0,0
-21,197,0,0,0,0,0,0,0,0,0,-1,1203,827,0,0
-14,197,0,0,0,0,0,0,0,0,0,-1,1210,827,0,0
-7,197,0,0,0,0,0,0,0,0,0,-1,1217,827,0,0
0,197,0,0,0,0,0,0,0,0,0,-1,1224,827,0,0
7,197,0,0,0,0,0,0,0,0,0,-1,1231,827,0,0
14,197,0,0,0,0,0,0,0,0,0,-1,1238,827,0,0
21,197,0,0,0,0,0,0,0,0,0,-1,1245,827,0,0
28,197,0,0,0,0,0,0,0,0,0,-1,1252,827,0,0
35,197,0,0,0,0,0,0,0,0,0,-1,1259,827,0,0
42,197,0,0,0,0,0,0,0,0,0,-1,1266,827,0,0
49,197,0,0,0,0,0,0,0,0,0,-1,1273,827,0,0
56,197,0,0,0,0,0,0,0,0,0,-1,1280,827,0,0
63,197,0,0,0,0,0,0,0,0,0,-1,1287,827,0,0
70,197,0,0,0,0,0,0,0,0,0,-1,1294,827,0,0
77,197,0,0,0,0,0,0,0,0,0,-1,1301,827,0,0
84,197,0,0,0,0,0,0,0,0,0,-1,1308,827,0,0
91,197,0,0,0,0,0,0,0,0,0,-1,1315,827,0,0
98,197,0,0,0,0,0,0,0,0,0,-1,1322,827,0,0
105,197,0,0,0,0,0,0,0,0,0,-1,1329,827,0,0
112,197,0,0,0,0,0,0,0,0,0,-1,1336,827,0,0
119,197,0,0,0,0,0,0,0,0,0,-1,1343,827,0,0
126,197,0,0,0,0,0,0,0,0,0,-1,1350,827,0,0
133,197,0,0,0,0,0,0,0,0,0,-1,1357,827,0,0
140,197,0,0,0,0,0,0,0,0,0,-1,1364,827,0,0
147,197,0,0,0,0,0,0,0,0,0,-1,1371,827,0,0
154,197,0,0,0,0,0,0,0,0,0,-1,1378,827,0,0
161,197,0,0,0,0,0,0,0,0,0,-1,1385,827,0,0
168,197,0,0,0,0,0,0,0,0,0,-1,1392,827,0,0
175,197,0,0,0,0,0,0,0,0,0,-1,1399,827,0,0
182,197,0,0,0,0,0,0,0,0,0,-1,1406,827,0,0
189,197,0,0,0,0,0,0,0,0,0,-1,1413,827,0,0
196,197,0,0,0,0,0,0,0,0,0,-1,1420,827,0,0
203,197,0,0,0,0,0,0,0,0,0,-1,1427,827,0,0
210,197,0,0,0,0,0,0,0,0,0,-1,1434,827,0,0
217,197,0,0,0,0,0,0,0,0,0,-1,1441,827,0,0
224,197,0,0,0,0,0,0,0,0,0,-1,1448,827,0,0
231,197,0,0,0,0,0,0,0,0,0,-1,1455,827,0,0
238,197,0,0,0,0,0,0,0,0,0,-1,1462,827,0,0
245,197,0,0,0,0,0,0,0,0,0,-1,1469,827,0,0
252,197,0,0,0,0,0,0,0,0,0,-1,1476,827,0,0
259,197,0,0,0,0,0,0,0,0,0,-1,1483,827,0,0
266,197,0,0,0,0,0,0,0,0,0,-1,1490,827,0,0
273,197,0,0,0,0,0,0,0,0,0,-1,1497,827,0,0
280,197,0,0,0,0,0,0,0,0,0,-1,1504,827,0,0
287,197,0,0,0,0,0,0,0,0,0,-1,1511,827,0,0
294,197,0,0,0,0,0,0,0,0,0,-1,1518,827,0,0
301,197,0,0,0,0,0,0,0,0,0,-1,1525,827,0,0
308,197,0,0,0,0,0,0,0,0,0,-1,1532,827,0,0
315,197,0,0,0,0,0,0,0,0,0,-1,1539,827,0,0
322,197,0,0,0,0,0,0,0,0,0,-1,1546,827,0,0
329,197,0,0,0,0,0,0,0,0,0,-1,1553,827,0,0
336,197,0,0,0,0,0,0,0,0,0,-1,1560,827,0,0
343,197,0,0,0,0,0,0,0,0,0,-1,1567,827,0,0
350,197,0,0,0,0,0,0,0,0,0,-1,1574,827,0,0
357,197,0,0,0,0,0,0,0,0,0,-1,1581,827,0,0
364,197,0,0,0,0,0,0,0,0,0,-1,1588,827,0,0
371,197,0,0,0,0,0,0,0,0,0,-1,1595,827,0,0
378,197,0,0,0,0,0,0,0,0,0,-1,1602,827,0,0
385,197,0,0,0,0,0,0,0,0,0,-1,1609,827,0,0
392,197,0,0,0,0,0,0,0,0,0,-1,1616,827,0,0
399,197,0,0,0,0,0,0,0,0,0,-1,1623,827,0,0
406,197,0,0,0,0,0,0,0,0,0,-1,1630,827,0,0
413,197,0,0,0,0,0,0,0,0,0,-1,1637,827,0,0
420,197,0,0,0,0,0,0,0,0,0,-1,1644,827,0,0
427,197,0,0,0,0,0,0,0,0,0,-1,1651,827,0,0
434,197,0,0,0,0,0,0,0,0,0,-1,1658,827,0,0
441,197,0,0,0,0,0,0,0,0,0,-1,1665,827,0,0
448,197,0,0,0,0,0,0,0,0,0,-1,1672,827,0,0
455,197,0,0,0,0,0,0,0,0,0,-1,1679,827,0,0
462,197,0,0,0,0,0,0,0,0,0,-1,1686,827,0,0
469,197,0,0,0,0,0,0,0,0,0,-1,1693,827,0,0
476,197,0,0,0,0,0,0,0,0,0,-1,1700,827,0,0
483,197,0,0,0,0,0,0,0,0,0,-1,1707,827,0,0
490,197,0,0,0,0,0,0,0,0,0,-1,1714,827,0,0
497,197,0,0,0,0,0,0,0,0,0,-1,1721,827,0,0
504,197,0,0,0,0,0,0,0,0,0,-1,1728,827,0,0
511,197,0,0,0,0,0,0,0,0,0,-1,1735,827,0,0
518,197,0,0,0,0,0,0,0,0,0,-1,1742,827,0,0
525,197,0,0,0,0,0,0,0,0,0,-1,1749,827,0,0
532,197,0,0,0,0,0,0,0,0,0,-1,1756,827,0,0
539,197,0,0,0,0,0,0,0,0,0,-1,1763,827,0,0
546,197,0,0,0,0,0,0,0,0,0,-1,1770,827,0,0
553,197,0,0,0,0,0,0,0,0,0,-1,1777,827,0,0
560,197,0,0,0,0,0,0,0,0,0,-1,1784,827,0,0
567,197,0,0,0,0,0,0,0,0,0,-1,1791,827,0,0
574,197,0,0,0,0,0,0,0,0,0,-1,1798,827,0,0
581,197,0,0,0,0,0,0,0,0,0,-1,1805,827,0,0
588,197,0,0,0,0,0,0,0,0,0,-1,1812,827,0,0
595,197,0,0,0,0,0,0,0,0,0,-1,1819,827,0,0
602,197,83.4468,2.3797,-0.000623199,0.00325815,0.00129965,0.00365314,-0.00101819,1.27575,0.00283641,0.0399819,1826,827,83.4468,-2.37973
609,197,83.319,2.37994,-0.000366486,0.00249141,0.00122669,0.00294572,-0.000820793,1.21611,0.00228704,0.0422826,1833,827,83.3189,-2.37995
616,197,83.3713,2.33246,-0.000151862,0.00188044,0.00114123,0.00239235,-0.00066377,1.14914,0.00185615,0.0406812,1840,827,83.3714,-2.33249
623,197,83.3055,2.32599,0.00012686,0.00150435,0.00113359,0.00214203,-0.000510814,1.05839,0.00162527,0.0370123,1847,827,83.3056,-2.32596
630,197,83.3634,2.349,0.000398654,0.00180286,0.00103836,0.0023542,-0.000152693,1.08267,0.00162276,0.0308562,1854,827,83.3634,-2.34902
637,197,83.4014,2.37848,0.000165032,0.00167644,0.000779425,0.00200636,-0.000164894,1.17037,0.00139579,0.0281204,1861,827,83.4014,-2.37845
644,197,83.422,2.427,0,0,0,0,0,0,0,-1,1868,827,83.422,-2.42698
651,197,73.8147,2.2644,0,0,0,0,0,0,0,-1,1875,827,73.8147,-2.26442
658,197,40.4694,3.05927,0,0,0,0,0,0,0,-1,1882,827,40.4694,-3.05926
665,197,14.0618,1.80304,0,0,0,0,0,0,0,-1,1889,827,14.0617,-1.80303
672,197,65.2434,-2.87775,0,0,0,0,0,0,0,-1,1896,827,65.2435,2.87773
679,197,65.1191,-1.51117,-0.000953259,0.000408802,-0.00100605,0.000942657,-0.00148711,-1.08294,0.00141452,0.0385459,1903,827,65.1192,1.51116
686,197,65.0289,-0.41687,-0.00141517,3.82927e-05,-0.00131245,0.000811785,-0.00218866,-1.03825,0.00179208,0.0310649,1910,827,65.029,0.416867
693,197,64.7661,0.620728,-0.00153615,-0.000208898,-0.00179625,0.00104239,-0.00278744,-0.962346,0.00228638,0.0436855,1917,827,64.7662,-0.620729
700,197,64.7024,1.3855,-0.00152898,-0.00044561,-0.0019321,0.0010193,-0.00299389,-0.92207,0.00240869,0.0382358,1924,827,64.7024,-1.38549
707,197,64.641,2.47797,-0.00120454,-0.000416623,-0.00156374,0.000802019,-0.00242318,-0.908797,0.0019389,0.0100633,1931,827,64.641,-2.47794
714,197,64.5814,3.44238,-2.77164e-05,0.000309139,-0.000820204,0.00097803,-0.000696607,-0.886665,0.000971392,0.0130809,1938,827,64.5814,-3.44237
721,197,64.5132,4.40814,0.00138919,0.00113409,0.00014699,0.00145625,0.00106703,0.428049,0.000870595,0.0142229,1945,827,64.5132,-4.40813
728,197,64.4351,5.3656,0.00301344,0.00177679,0.00128895,0.0038247,0.000965535,0.561754,0.00229664,0.011603,1952,827,64.4351,-5.36562
735,197,64.3484,6.34784,0.00485647,0.00223249,0.00251274,0.00637912,0.000709835,0.544799,0.00403699,0.0120356,1959,827,64.3484,-6.34783
742,197,64.2689,7.36816,0.00694219,0.00216598,0.00391658,0.00914131,-3.31369e-05,0.511622,0.00610528,0.0239947,1966,827,64.269,-7.36816
749,197,64.2194,8.53925,0.00938452,0.00126443,0.00538086,0.0120652,-0.00141627,0.4622,0.00855474,0.0479672,1973,827,64.2193,-8.53922
756,197,64.0992,9.64191,0.0121073,-0.000983081,0.0066338,0.0148813,-0.00375706,0.396061,0.0113818,0.0490141,1980,827,64.0993,-9.6419
763,197,64.1855,10.3931,0,0,0,0,0,0,0,-1,1987,827,64.1856,-10.393
770,197,64.3308,11.3932,0,0,0,0,0,0,0,-1,1994,827,64.3309,-11.3932
777,197,0,0,0,0,0,0,0,0,0,-1,2001,827,0,0
784,197,0,0,0,0,0,0,0,0,0,-1,2008,827,0,0
791,197,0,0,0,0,0,0,0,0,0,-1,2015,827,0,0
798,197,0,0,0,0,0,0,0,0,0,-1,2022,827,0,0
805,197,0,0,0,0,0,0,0,0,0,-1,2029,827,0,0
812,197,0,0,0,0,0,0,0,0,0,-1,2036,827,0,0
-700,190,0,0,0,0,0,0,0,0,0,-1,524,834,0,0
-693,190,0,0,0,0,0,0,0,0,0,-1,531,834,0,0
-686,190,0,0,0,0,0,0,0,0,0,-1,538,834,0,0
-679,190,0,0,0,0,0,0,0,0,0,-1,545,834,0,0
-672,190,0,0,0,0,0,0,0,0,0,-1,552,834,0,0
-665,190,0,0,0,0,0,0,0,0,0,-1,559,834,0,0
-658,190,-41.9736,5.50092,0,0,0,0,0,0,0,-1,566,834,-41.9736,-5.50089
-651,190,-40.1895,4.99677,0,0,0,0,0,0,0,-1,573,834,-40.1894,-4.99677
-644,190,-43.4772,11.1134,0,0,0,0,0,0,0,-1,580,834,-43.4771,-11.1134
-637,190,-43.1797,9.53918,0,0,0,0,0,0,0,-1,587,834,-43.1797,-9.53917
-630,190,-43.3638,9.78387,0,0,0,0,0,0,0,-1,594,834,-43.3638,-9.78386
-623,190,-49.4432,8.6488,0,0,0,0,0,0,0,-1,601,834,-49.4432,-8.64883
-616,190,-49.0886,7.73566,0.00831411,-0.00333182,0.00335472,0.00921135,-0.00422905,0.261337,0.00793555,0.048948,608,834,-49.0886,-7.73567
-609,190,-48.6198,6.86572,0.00630618,-0.00150529,0.00238109,0.00697476,-0.00217387,0.273738,0.00551906,0.0292408,615,834,-48.6198,-6.86569
-602,190,-48.739,5.98602,0.00487258,-0.000128104,0.00183767,0.00547526,-0.000730785,0.316905,0.00391656,0.0208275,622,834,-48.7389,-5.986
-595,190,-48.8416,4.995,0.00397689,0.000961334,0.00162396,0.00468511,0.000253116,0.41124,0.00304255,0.0202232,629,834,-48.8416,-4.995
-588,190,-48.9225,3.97113,0.00346449,0.00168621,0.00182989,0.00460982,0.000540884,0.559246,0.00290972,0.0212022,636,834,-48.9225,-3.97112
-581,190,-48.9639,2.96411,0.00330174,0.00219448,0.00222543,0.00504137,0.000454857,0.663486,0.00322002,0.0159767,643,834,-48.9639,-2.96408
-574,190,-49.0007,1.97455,0.00307276,0.00266787,0.00235912,0.0052381,0.00050252,0.742596,0.0033372,0.0157715,650,834,-49.0007,-1.97457
-567,190,-48.9157,0.831299,0.00296399,0.00247247,0.00227332,0.00500479,0.000431661,0.731554,0.00320235,0.0349246,657,834,-48.9157,-0.831319
-560,190,-48.7391,-0.353516,0,0,0,0,0,0,0,-1,664,834,-48.7391,0.353543
-553,190,-33.9625,-1.6355,0,0,0,0,0,0,0,-1,671,834,-33.9625,1.63552
-546,190,-33.7621,-2.04889,0,0,0,0,0,0,0,-1,678,834,-33.7621,2.04886
-539,190,-16.4624,-0.542542,0,0,0,0,0,0,0,-1,685,834,-16.4624,0.542527
-532,190,-21.6292,2.06122,0,0,0,0,0,0,0,-1,692,834,-21.6292,-2.06123
-525,190,-38.9377,1.03369,0,0,0,0,0,0,0,-1,699,834,-38.9377,-1.0337
-518,190,-66.8336,0.327026,0,0,0,0,0,0,0,-1,706,834,-66.8335,-0.327006
-511,190,-66.6659,0.716187,0,0,0,0,0,0,0,-1,713,834,-66.6659,-0.716187
-504,190,-66.8444,0.90741,0,0,0,0,0,0,0,-1,720,834,-66.8444,-0.907419
-497,190,-67.0674,0.626282,0.00416182,-0.000431266,0.00348163,0.00603611,-0.00230556,0.493845,0.00497401,0.0461618,727,834,-67.0674,-0.626309
-490,190,-66.9381,0.633118,0.00656021,-0.000952167,0.00297305,0.00759442,-0.00198638,0.33477,0.00583881,0.0455772,734,834,-66.9381,-0.633095
-483,190,0,0,0,0,0,0,0,0,0,-1,741,834,0,0
-476,190,0,0,0,0,0,0,0,0,0,-1,748,834,0,0
-469,190,0,0,0,0,0,0,0,0,0,-1,755,834,0,0
-462,190,0,0,0,0,0,0,0,0,0,-1,762,834,0,0
-455,190,0,0,0,0,0,0,0,0,0,-1,769,834,0,0
-448,190,0,0,0,0,0,0,0,0,0,-1,776,834,0,0
-441,190,0,0,0,0,0,0,0,0,0,-1,783,834,0,0
-434,190,0,0,0,0,0,0,0,0,0,-1,790,834,0,0
-427,190,0,0,0,0,0,0,0,0,0,-1,797,834,0,0
-420,190,0,0,0,0,0,0,0,0,0,-1,804,834,0,0
-413,190,0,0,0,0,0,0,0,0,0,-1,811,834,0,0
-406,190,0,0,0,0,0,0,0,0,0,-1,818,834,0,0
-399,190,0,0,0,0,0,0,0,0,0,-1,825,834,0,0
-392,190,0,0,0,0,0,0,0,0,0,-1,832,834,0,0
-385,190,0,0,0,0,0,0,0,0,0,-1,839,834,0,0
-378,190,0,0,0,0,0,0,0,0,0,-1,846,834,0,0
-371,190,0,0,0,0,0,0,0,0,0,-1,853,834,0,0
-364,190,0,0,0,0,0,0,0,0,0,-1,860,834,0,0
-357,190,0,0,0,0,0,0,0,0,0,-1,867,834,0,0
-350,190,0,0,0,0,0,0,0,0,0,-1,874,834,0,0
-343,190,0,0,0,0,0,0,0,0,0,-1,881,834,0,0
-336,190,0,0,0,0,0,0,0,0,0,-1,888,834,0,0
-329,190,0,0,0,0,0,0,0,0,0,-1,895,834,0,0
-322,190,0,0,0,0,0,0,0,0,0,-1,902,834,0,0
-315,190,0,0,0,0,0,0,0,0,0,-1,909,834,0,0
-308,190,0,0,0,0,0,0,0,0,0,-1,916,834,0,0
-301,190,0,0,0,0,0,0,0,0,0,-1,923,834,0,0
-294,190,0,0,0,0,0,0,0,0,0,-1,930,834,0,0
-287,190,0,0,0,0,0,0,0,0,0,-1,937,834,0,0
-280,190,0,0,0,0,0,0,0,0,0,-1,944,834,0,0
-273,190,0,0,0,0,0,0,0,0,0,-1,951,834,0,0
-266,190,0,0,0,0,0,0,0,0,0,-1,958,834,0,0
-259,190,0,0,0,0,0,0,0,0,0,-1,965,834,0,0
-252,190,0,0,0,0,0,0,0,0,0,-1,972,834,0,0
-245,190,0,0,0,0,0,0,0,0,0,-1,979,834,0,0
-238,190,0,0,0,0,0,0,0,0,0,-1,986,834,0,0
-231,190,0,0,0,0,0,0,0,0,0,-1,993,834,0,0
-224,190,0,0,0,0,0,0,0,0,0,-1,1000,834,0,0
-217,190,0,0,0,0,0,0,0,0,0,-1,1007,834,0,0
-210,190,0,0,0,0,0,0,0,0,0,-1,1014,834,0,0
-203,190,0,0,0,0,0,0,0,0,0,-1,1021,834,0,0
-196,190,0,0,0,0,0,0,0,0,0,-1,1028,834,0,0
-189,190,0,0,0,0,0,0,0,0,0,-1,1035,834,0,0
-182,190,0,0,0,0,0,0,0,0,0,-1,1042,834,0,0
-175,190,0,0,0,0,0,0,0,0,0,-1,1049,834,0,0
-168,190,0,0,0,0,0,0,0,0,0,-1,1056,834,0,0
-161,190,0,0,0,0,0,0,0,0,0,-1,1063,834,0,0
-154,190,0,0,0,0,0,0,0,0,0,-1,1070,834,0,0
-147,190,0,0,0,0,0,0,0,0,0,-1,1077,834,0,0
-140,190,0,0,0,0,0,0,0,0,0,-1,1084,834,0,0
-133,190,0,0,0,0,0,0,0,0,0,-1,1091,834,0,0
-126,190,0,0,0,0,0,0,0,0,0,-1,1098,834,0,0
-119,190,0,0,0,0,0,0,0,0,0,-1,1105,834,0,0
-112,190,0,0,0,0,0,0,0,0,0,-1,1112,834,0,0
-105,190,0,0,0,0,0,0,0,0,0,-1,1119,834,0,0
-98,190,0,0,0,0,0,0,0,0,0,-1,1126,834,0,0
-91,190,0,0,0,0,0,0,0,0,0,-1,1133,834,0,0
-84,190,0,0,0,0,0,0,0,0,0,-1,1140,834,0,0
-77,190,0,0,0,0,0,0,0,0,0,-1,1147,834,0,0
-70,190,0,0,0,0,0,0,0,0,0,-1,1154,834,0,0
-63,190,0,0,0,0,0,0,0,0,0,-1,1161,834,0,0
-56,190,0,0,0,0,0,0,0,0,0,-1,1168,834,0,0
-49,190,0,0,0,0,0,0,0,0,0,-1,1175,834,0,0
-42,190,0,0,0,0,0,0,0,0,0,-1,1182,834,0,0
-35,190,0,0,0,0,0,0,0,0,0,-1,1189,834,0,0
-28,190,0,0,0,0,0,0,0,0,0,-1,1196,834,0,0
-21,190,0,0,0,0,0,0,0,0,0,-1,1203,834,0,0
-14,190,0,0,0,0,0,0,0,0,0,-1,1210,834,0,0
-7,190,0,0,0,0,0,0,0,0,0,-1,1217,834,0,0
0,190,0,0,0,0,0,0,0,0,0,-1,1224,834,0,0
7,190,0,0,0,0,0,0,0,0,0,-1,1231,834,0,0
14,190,0,0,0,0,0,0,0,0,0,-1,1238,834,0,0
21,190,0,0,0,0,0,0,0,0,0,-1,1245,834,0,0
28,190,0,0,0,0,0,0,0,0,0,-1,1252,834,0,0
35,190,0,0,0,0,0,0,0,0,0,-1,1259,834,0,0
42,190,0,0,0,0,0,0,0,0,0,-1,1266,834,0,0
49,190,0,0,0,0,0,0,0,0,0,-1,1273,834,0,0
56,190,0,0,0,0,0,0,0,0,0,-1,1280,834,0,0
63,190,0,0,0,0,0,0,0,0,0,-1,1287,834,0,0
70,190,0,0,0,0,0,0,0,0,0,-1,1294,834,0,0
77,190,0,0,0,0,0,0,0,0,0,-1,1301,834,0,0
84,190,0,0,0,0,0,0,0,0,0,-1,1308,834,0,0
91,190,0,0,0,0,0,0,0,0,0,-1,1315,834,0,0
98,190,0,0,0,0,0,0,0,0,0,-1,1322,834,0,0
105,190,0,0,0,0,0,0,0,0,0,-1,1329,834,0,0
112,190,0,0,0,0,0,0,0,0,0,-1,1336,834,0,0
119,190,0,0,0,0,0,0,0,0,0,-1,1343,834,0,0
126,190,0,0,0,0,0,0,0,0,0,-1,1350,834,0,0
133,190,0,0,0,0,0,0,0,0,0,-1,1357,834,0,0
140,190,0,0,0,0,0,0,0,0,0,-1,1364,834,0,0
147,190,0,0,0,0,0,0,0,0,0,-1,1371,834,0,0
154,190,0,0,0,0,0,0,0,0,0,-1,1378,834,0,0
161,190,0,0,0,0,0,0,0,0,0,-1,1385,834,0,0
168,190,0,0,0,0,0,0,0,0,0,-1,1392,834,0,0
175,190,0,0,0,0,0,0,0,0,0,-1,1399,834,0,0
182,190,0,0,0,0,0,0,0,0,0,-1,1406,834,0,0
189,190,0,0,0,0,0,0,0,0,0,-1,1413,834,0,0
196,190,0,0,0,0,0,0,0,0,0,-1,1420,834,0,0
203,190,0,0,0,0,0,0,0,0,0,-1,1427,834,0,0
210,190,0,0,0,0,0,0,0,0,0,-1,1434,834,0,0
217,190,0,0,0,0,0,0,0,0,0,-1,1441,834,0,0
224,190,0,0,0,0,0,0,0,0,0,-1,1448,834,0,0
231,190,0,0,0,0,0,0,0,0,0,-1,1455,834,0,0
238,190,0,0,0,0,0,0,0,0,0,-1,1462,834,0,0
245,190,0,0,0,0,0,0,0,0,0,-1,1469,834,0,0
252,190,0,0,0,0,0,0,0,0,0,-1,1476,834,0,0
259,190,0,0,0,0,0,0,0,0,0,-1,1483,834,0,0
266,190,0,0,0,0,0,0,0,0,0,-1,1490,834,0,0
273,190,0,0,0,0,0,0,0,0,0,-1,1497,834,0,0
280,190,0,0,0,0,0,0,0,0,0,-1,1504,834,0,0
287,190,0,0,0,0,0,0,0,0,0,-1,1511,834,0,0
294,190,0,0,0,0,0,0,0,0,0,-1,1518,834,0,0
301,190,0,0,0,0,0,0,0,0,0,-1,1525,834,0,0
308,190,0,0,0,0,0,0,0,0,0,-1,1532,834,0,0
315,190,0,0,0,0,0,0,0,0,0,-1,1539,834,0,0
322,190,0,0,0,0,0,0,0,0,0,-1,1546,834,0,0
329,190,0,0,0,0,0,0,0,0,0,-1,1553,834,0,0
336,190,0,0,0,0,0,0,0,0,0,-1,1560,834,0,0
343,190,0,0,0,0,0,0,0,0,0,-1,1567,834,0,0
350,190,0,0,0,0,0,0,0,0,0,-1,1574,834,0,0
357,190,0,0,0,0,0,0,0,0,0,-1,1581,834,0,0
364,190,0,0,0,0,0,0,0,0,0,-1,1588,834,0,0
371,190,0,0,0,0,0,0,0,0,0,-1,1595,834,0,0
378,190,0,0,0,0,0,0,0,0,0,-1,1602,834,0,0
385,190,0,0,0,0,0,0,0,0,0,-1,1609,834,0,0
392,190,0,0,0,0,0,0,0,0,0,-1,1616,834,0,0
399,190,0,0,0,0,0,0,0,0,0,-1,1623,834,0,0
406,190,0,0,0,0,0,0,0,0,0,-1,1630,834,0,0
413,190,0,0,0,0,0,0,0,0,0,-1,1637,834,0,0
420,190,0,0,0,0,0,0,0,0,0,-1,1644,834,0,0
427,190,0,0,0,0,0,0,0,0,0,-1,1651,834,0,0
434,190,0,0,0,0,0,0,0,0,0,-1,1658,834,0,0
441,190,0,0,0,0,0,0,0,0,0,-1,1665,834,0,0
448,190,0,0,0,0,0,0,0,0,0,-1,1672,834,0,0
455,190,0,0,0,0,0,0,0,0,0,-1,1679,834,0,0
462,190,0,0,0,0,0,0,0,0,0,-1,1686,834,0,0
469,190,0,0,0,0,0,0,0,0,0,-1,1693,834,0,0
476,190,0,0,0,0,0,0,0,0,0,-1,1700,834,0,0
483,190,0,0,0,0,0,0,0,0,0,-1,1707,834,0,0
490,190,0,0,0,0,0,0,0,0,0,-1,1714,834,0,0
497,190,0,0,0,0,0,0,0,0,0,-1,1721,834,0,0
504,190,0,0,0,0,0,0,0,0,0,-1,1728,834,0,0
511,190,0,0,0,0,0,0,0,0,0,-1,1735,834,0,0
518,190,0,0,0,0,0,0,0,0,0,-1,1742,834,0,0
525,190,0,0,0,0,0,0,0,0,0,-1,1749,834,0,0
532,190,0,0,0,0,0,0,0,0,0,-1,1756,834,0,0
539,190,0,0,0,0,0,0,0,0,0,-1,1763,834,0,0
546,190,0,0,0,0,0,0,0,0,0,-1,1770,834,0,0
553,190,0,0,0,0,0,0,0,0,0,-1,1777,834,0,0
560,190,0,0,0,0,0,0,0,0,0,-1,1784,834,0,0
567,190,0,0,0,0,0,0,0,0,0,-1,1791,834,0,0
574,190,0,0,0,0,0,0,0,0,0,-1,1798,834,0,0
581,190,0,0,0,0,0,0,0,0,0,-1,1805,834,0,0
588,190,0,0,0,0,0,0,0,0,0,-1,1812,834,0,0
595,190,0,0,0,0,0,0,0,0,0,-1,1819,834,0,0
602,190,83.3529,2.36743,-0.00132154,0.00474432,0.00165905,0.00516843,-0.00174565,1.32052,0.00415169,0.0411123,1826,834,83.3529,-2.36741
609,190,83.2855,2.46289,-0.000842541,0.00364176,0.00131508,0.00399897,-0.00119975,1.30557,0.00314317,0.0412952,1833,834,83.2855,-2.46291
616,190,83.3019,2.51575,-0.000553645,0.00282945,0.00100011,0.00310298,-0.000827183,1.30382,0.00239253,0.0393157,1840,834,83.3018,-2.51574
623,190,83.2683,2.49268,-0.000299008,0.00217182,0.000882801,0.00245482,-0.000582009,1.26057,0.00186114,0.0382242,1847,834,83.2683,-2.49268
630,190,83.3395,2.37152,-3.74472e-05,0.00218989,0.000789224,0.00244119,-0.000288745,1.26254,0.00173175,0.0410216,1854,834,83.3394,-2.37152
637,190,83.351,2.42157,-0.000154428,0.00201973,0.000599692,0.00217417,-0.000308869,1.31874,0.00156261,0.0331188,1861,834,83.351,-2.42157
644,190,83.325,2.5321,-0.000401793,0.00166633,0.000277445,0.0017029,-0.000438366,1.43973,0.00130614,0.0363303,1868,834,83.3249,-2.53209
651,190,83.3096,2.64081,0,0,0,0,0,0,0,-1,1875,834,83.3096,-2.6408
658,190,54.0599,3.0943,0,0,0,0,0,0,0,-1,1882,834,54.0599,-3.09428
665,190,25.9916,3.05157,0,0,0,0,0,0,0,-1,1889,834,25.9916,-3.05156
672,190,27.2662,1.70862,0,0,0,0,0,0,0,-1,1896,834,27.2662,-1.70861
679,190,65.981,-1.32501,0,0,0,0,0,0,0,-1,1903,834,65.981,1.32504
686,190,65.9886,-0.346069,-0.00187095,0.000171018,-0.00143134,0.000908203,-0.00260813,-1.0952,0.00210775,0.0315218,1910,834,65.9886,0.346093
693,190,65.9615,0.660217,-0.00200202,-1.4766e-05,-0.00190116,0.00113677,-0.00315355,-1.0262,0.00256662,0.0385626,1917,834,65.9615,-0.660211
700,190,65.7059,1.57007,-0.00210242,-0.000296614,-0.00212666,0.00111088,-0.00350991,-0.986148,0.00278509,0.0282115,1924,834,65.7059,-1.57006
707,190,65.6056,2.56415,-0.00199988,-0.000472104,-0.00198315,0.00088919,-0.00336118,-0.969236,0.0025886,0.0150245,1931,834,65.6056,-2.56416
714,190,65.5695,3.5047,-0.000931792,0.00012375,-0.00146564,0.00115375,-0.00196179,-0.958218,0.00181881,0.0131985,1938,834,65.5695,-3.50471
721,190,65.5068,4.45227,0.000367434,0.000974942,-0.000635844,0.00137586,-3.34855e-05,-1.00823,0.000928604,0.012491,1945,834,65.5068,-4.45224
728,190,65.4421,5.41797,0.0018475,0.00168382,0.000460887,0.00223376,0.00129756,0.697525,0.00129527,0.0139327,1952,834,65.4421,-5.41794
735,190,65.3878,6.37042,0.00350252,0.00225354,0.00164742,0.00463984,0.00111622,0.60423,0.00279642,0.0129236,1959,834,65.3879,-6.3704
742,190,65.2946,7.39874,0.00534662,0.00242797,0.00296903,0.00719558,0.000579003,0.55698,0.00461617,0.0193284,1966,834,65.2945,-7.39877
749,190,65.3004,8.69482,0.00748311,0.00193931,0.00435505,0.00987356,-0.000451136,0.501992,0.00673779,0.0415277,1973,834,65.3004,-8.69485
756,190,65.197,9.93433,0.00975219,0.000430573,0.00553286,0.0123257,-0.00214296,0.43537,0.00901676,0.0485514,1980,834,65.1971,-9.93433
763,190,65.7561,10.5352,0,0,0,0,0,0,0,-1,1987,834,65.7561,-10.5352
770,190,65.4932,12.334,0,0,0,0,0,0,0,-1,1994,834,65.4932,-12.334
777,190,51.4365,10.3331,0,0,0,0,0,0,0,-1,2001,834,51.4366,-10.3331
784,190,0,0,0,0,0,0,0,0,0,-1,2008,834,0,0
791,190,0,0,0,0,0,0,0,0,0,-1,2015,834,0,0
798,190,0,0,0,0,0,0,0,0,0,-1,2022,834,0,0
805,190,0,0,0,0,0,0,0,0,0,-1,2029,834,0,0
812,190,0,0,0,0,0,0,0,0,0,-1,2036,834,0,0
-700,183,0,0,0,0,0,0,0,0,0,-1,524,841,0,0
-693,183,0,0,0,0,0,0,0,0,0,-1,531,841,0,0
-686,183,0,0,0,0,0,0,0,0,0,-1,538,841,0,0
-679,183,0,0,0,0,0,0,0,0,0,-1,545,841,0,0
-672,183,0,0,0,0,0,0,0,0,0,-1,552,841,0,0
-665,183,0,0,0,0,0,0,0,0,0,-1,559,841,0,0
-658,183,-56.7401,1.32843,0,0,0,0,0,0,0,-1,566,841,-56.7401,-1.32844
-651,183,-44.3059,12.2423,0,0,0,0,0,0,0,-1,573,841,-44.3059,-12.2423
-644,183,-48.9297,11.5898,0,0,0,0,0,0,0,-1,580,841,-48.9298,-11.5898
-637,183,-48.8072,10.7016,0,0,0,0,0,0,0,-1,587,841,-48.8072,-10.7016
-630,183,-49.3646,9.99988,0,0,0,0,0,0,0,-1,594,841,-49.3646,-9.99991
-623,183,-49.6637,8.94403,0,0,0,0,0,0,0,-1,601,841,-49.6637,-8.944
-616,183,-49.6716,7.96149,0.00621825,-0.00284182,0.00395741,0.00770339,-0.00432695,0.359016,0.00703631,0.0421664,608,841,-49.6716,-7.96147
-609,183,-49.7039,7.0191,0.00476749,-0.0012299,0.00305756,0.00605142,-0.00251382,0.397559,0.0050838,0.0204825,615,841,-49.7039,-7.01912
-602,183,-49.7758,6.01746,0.00379203,6.56918e-05,0.00248095,0.00503152,-0.0011738,0.463331,0.00380643,0.0123308,622,841,-49.7757,-6.01749
-595,183,-49.8362,5.02118,0.00328059,0.00112059,0.00222311,0.00467215,-0.000270973,0.559284,0.00320891,0.0121565,629,841,-49.8362,-5.02116
-588,183,-49.8888,4.0224,0.00309745,0.0017777,0.00227064,0.00480215,7.29945e-05,0.643987,0.00317738,0.0155855,636,841,-49.8888,-4.02242
-581,183,-49.9797,3.03607,0.0031881,0.00216122,0.00241085,0.00513957,0.000209742,0.680481,0.00335865,0.0180692,643,841,-49.9797,-3.03604
-574,183,-50.0061,2.05658,0.00306372,0.00247951,0.00223023,0.00502089,0.000522335,0.720281,0.00318745,0.0258194,650,841,-50.0061,-2.05657
-567,183,-49.964,1.09973,0,0,0,0,0,0,0,-1,657,841,-49.964,-1.09972
-560,183,-47.8532,-0.483398,0,0,0,0,0,0,0,-1,664,841,-47.8532,0.483385
-553,183,-47.9464,-1.70038,0,0,0,0,0,0,0,-1,671,841,-47.9464,1.7004
-546,183,-27.8053,-1.91199,0,0,0,0,0,0,0,-1,678,841,-27.8053,1.91201
-539,183,-16.8032,-0.417297,0,0,0,0,0,0,0,-1,685,841,-16.8032,0.41732
-532,183,-29.9686,0.953613,0,0,0,0,0,0,0,-1,692,841,-29.9686,-0.953627
-525,183,-55.6847,0.842468,0,0,0,0,0,0,0,-1,699,841,-55.6847,-0.842446
-518,183,-66.8177,0.35321,0,0,0,0,0,0,0,-1,706,841,-66.8177,-0.35319
-511,183,-66.6402,0.690063,0.00161128,0.000613269,0.0025462,0.00370691,-0.00148236,0.688634,0.00308642,0.0424346,713,841,-66.6402,-0.690068
-504,183,-66.7747,0.578491,0.00267991,-7.85392e-05,0.00270239,0.00433469,-0.00173332,0.549442,0.00360908,0.0425477,720,841,-66.7747,-0.578515
-497,183,-67.0943,0.36377,0,0,0,0,0,0,0,-1,727,841,-67.0943,-0.36376
-490,183,-66.7831,0.60553,0,0,0,0,0,0,0,-1,734,841,-66.7831,-0.605501
-483,183,0,0,0,0,0,0,0,0,0,-1,741,841,0,0
-476,183,0,0,0,0,0,0,0,0,0,-1,748,841,0,0
-469,183,0,0,0,0,0,0,0,0,0,-1,755,841,0,0
-462,183,0,0,0,0,0,0,0,0,0,-1,762,841,0,0
-455,183,0,0,0,0,0,0,0,0,0,-1,769,841,0,0
-448,183,0,0,0,0,0,0,0,0,0,-1,776,841,0,0
-441,183,0,0,0,0,0,0,0,0,0,-1,783,841,0,0
-434,183,0,0,0,0,0,0,0,0,0,-1,790,841,0,0
-427,183,0,0,0,0,0,0,0,0,0,-1,797,841,0,0
-420,183,0,0,0,0,0,0,0,0,0,-1,804,841,0,0
-413,183,0,0,0,0,0,0,0,0,0,-1,811,841,0,0
-406,183,0,0,0,0,0,0,0,0,0,-1,818,841,0,0
-399,183,0,0,0,0,0,0,0,0,0,-1,825,841,0,0
-392,183,0,0,0,0,0,0,0,0,0,-1,832,841,0,0
-385,183,0,0,0,0,0,0,0,0,0,-1,839,841,0,0
-378,183,0,0,0,0,0,0,0,0,0,-1,846,841,0,0
-371,183,0,0,0,0,0,0,0,0,0,-1,853,841,0,0
-364,183,0,0,0,0,0,0,0,0,0,-1,860,841,0,0
-357,183,0,0,0,0,0,0,0,0,0,-1,867,841,0,0
-350,183,0,0,0,0,0,0,0,0,0,-1,874,841,0,0
-343,183,0,0,0,0,0,0,0,0,0,-1,881,841,0,0
-336,183,0,0,0,0,0,0,0,0,0,-1,888,841,0,0
-329,183,0,0,0,0,0,0,0,0,0,-1,895,841,0,0
-322,183,0,0,0,0,0,0,0,0,0,-1,902,841,0,0
-315,183,0,0,0,0,0,0,0,0,0,-1,909,841,0,0
-308,183,0,0,0,0,0,0,0,0,0,-1,916,841,0,0
-301,183,0,0,0,0,0,0,0,0,0,-1,923,841,0,0
-294,183,0,0,0,0,0,0,0,0,0,-1,930,841,0,0
-287,183,0,0,0,0,0,0,0,0,0,-1,937,841,0,0
-280,183,0,0,0,0,0,0,0,0,0,-1,944,841,0,0
-273,183,0,0,0,0,0,0,0,0,0,-1,951,841,0,0
-266,183,0,0,0,0,0,0,0,0,0,-1,958,841,0,0
-259,183,0,0,0,0,0,0,0,0,0,-1,965,841,0,0
-252,183,0,0,0,0,0,0,0,0,0,-1,972,841,0,0
-245,183,0,0,0,0,0,0,0,0,0,-1,979,841,0,0
-238,183,0,0,0,0,0,0,0,0,0,-1,986,841,0,0
-231,183,0,0,0,0,0,0,0,0,0,-1,993,841,0,0
-224,183,0,0,0,0,0,0,0,0,0,-1,1000,841,0,0
-217,183,0,0,0,0,0,0,0,0,0,-1,1007,841,0,0
-210,183,0,0,0,0,0,0,0,0,0,-1,1014,841,0,0
-203,183,0,0,0,0,0,0,0,0,0,-1,1021,841,0,0
-196,183,0,0,0,0,0,0,0,0,0,-1,1028,841,0,0
-189,183,0,0,0,0,0,0,0,0,0,-1,1035,841,0,0
-182,183,0,0,0,0,0,0,0,0,0,-1,1042,841,0,0
-175,183,0,0,0,0,0,0,0,0,0,-1,1049,841,0,0
-168,183,0,0,0,0,0,0,0,0,0,-1,1056,841,0,0
-161,183,0,0,0,0,0,0,0,0,0,-1,1063,841,0,0
-154,183,0,0,0,0,0,0,0,0,0,-1,1070,841,0,0
-147,183,0,0,0,0,0,0,0,0,0,-1,1077,841,0,0
-140,183,0,0,0,0,0,0,0,0,0,-1,1084,841,0,0
-133,183,0,0,0,0,0,0,0,0,0,-1,1091,841,0,0
-126,183,0,0,0,0,0,0,0,0,0,-1,1098,841,0,0
-119,183,0,0,0,0,0,0,0,0,0,-1,1105,841,0,0
-112,183,0,0,0,0,0,0,0,0,0,-1,1112,841,0,0
-105,183,0,0,0,0,0,0,0,0,0,-1,1119,841,0,0
-98,183,0,0,0,0,0,0,0,0,0,-1,1126,841,0,0
-91,183,0,0,0,0,0,0,0,0,0,-1,1133,841,0,0
-84,183,0,0,0,0,0,0,0,0,0,-1,1140,841,0,0
-77,183,0,0,0,0,0,0,0,0,0,-1,1147,841,0,0
-70,183,0,0,0,0,0,0,0,0,0,-1,1154,841,0,0
-63,183,0,0,0,0,0,0,0,0,0,-1,1161,841,0,0
-56,183,0,0,0,0,0,0,0,0,0,-1,1168,841,0,0
-49,183,0,0,0,0,0,0,0,0,0,-1,1175,841,0,0
-42,183,0,0,0,0,0,0,0,0,0,-1,1182,841,0,0
-35,183,0,0,0,0,0,0,0,0,0,-1,1189,841,0,0
-28,183,0,0,0,0,0,0,0,0,0,-1,1196,841,0,0
-21,183,0,0,0,0,0,0,0,0,0,-1,1203,841,0,0
-14,183,0,0,0,0,0,0,0,0,0,-1,1210,841,0,0
-7,183,0,0,0,0,0,0,0,0,0,-1,1217,841,0,0
0,183,0,0,0,0,0,0,0,0,0,-1,1224,841,0,0
7,183,0,0,0,0,0,0,0,0,0,-1,1231,841,0,0
14,183,0,0,0,0,0,0,0,0,0,-1,1238,841,0,0
21,183,0,0,0,0,0,0,0,0,0,-1,1245,841,0,0
28,183,0,0,0,0,0,0,0,0,0,-1,1252,841,0,0
35,183,0,0,0,0,0,0,0,0,0,-1,1259,841,0,0
42,183,0,0,0,0,0,0,0,0,0,-1,1266,841,0,0
49,183,0,0,0,0,0,0,0,0,0,-1,1273,841,0,0
56,183,0,0,0,0,0,0,0,0,0,-1,1280,841,0,0
63,183,0,0,0,0,0,0,0,0,0,-1,1287,841,0,0
70,183,0,0,0,0,0,0,0,0,0,-1,1294,841,0,0
77,183,0,0,0,0,0,0,0,0,0,-1,1301,841,0,0
84,183,0,0,0,0,0,0,0,0,0,-1,1308,841,0,0
91,183,0,0,0,0,0,0,0,0,0,-1,1315,841,0,0
98,183,0,0,0,0,0,0,0,0,0,-1,1322,841,0,0
105,183,0,0,0,0,0,0,0,0,0,-1,1329,841,0,0
112,183,0,0,0,0,0,0,0,0,0,-1,1336,841,0,0
119,183,0,0,0,0,0,0,0,0,0,-1,1343,841,0,0
126,183,0,0,0,0,0,0,0,0,0,-1,1350,841,0,0
133,183,0,0,0,0,0,0,0,0,0,-1,1357,841,0,0
140,183,0,0,0,0,0,0,0,0,0,-1,1364,841,0,0
147,183,0,0,0,0,0,0,0,0,0,-1,1371,841,0,0
154,183,0,0,0,0,0,0,0,0,0,-1,1378,841,0,0
161,183,0,0,0,0,0,0,0,0,0,-1,1385,841,0,0
168,183,0,0,0,0,0,0,0,0,0,-1,1392,841,0,0
175,183,0,0,0,0,0,0,0,0,0,-1,1399,841,0,0
182,183,0,0,0,0,0,0,0,0,0,-1,1406,841,0,0
189,183,0,0,0,0,0,0,0,0,0,-1,1413,841,0,0
196,183,0,0,0,0,0,0,0,0,0,-1,1420,841,0,0
203,183,0,0,0,0,0,0,0,0,0,-1,1427,841,0,0
210,183,0,0,0,0,0,0,0,0,0,-1,1434,841,0,0
217,183,0,0,0,0,0,0,0,0,0,-1,1441,841,0,0
224,183,0,0,0,0,0,0,0,0,0,-1,1448,841,0,0
231,183,0,0,0,0,0,0,0,0,0,-1,1455,841,0,0
238,183,0,0,0,0,0,0,0,0,0,-1,1462,841,0,0
245,183,0,0,0,0,0,0,0,0,0,-1,1469,841,0,0
252,183,0,0,0,0,0,0,0,0,0,-1,1476,841,0,0
259,183,0,0,0,0,0,0,0,0,0,-1,1483,841,0,0
266,183,0,0,0,0,0,0,0,0,0,-1,1490,841,0,0
273,183,0,0,0,0,0,0,0,0,0,-1,1497,841,0,0
280,183,0,0,0,0,0,0,0,0,0,-1,1504,841,0,0
287,183,0,0,0,0,0,0,0,0,0,-1,1511,841,0,0
294,183,0,0,0,0,0,0,0,0,0,-1,1518,841,0,0
301,183,0,0,0,0,0,0,0,0,0,-1,1525,841,0,0
308,183,0,0,0,0,0,0,0,0,0,-1,1532,841,0,0
315,183,0,0,0,0,0,0,0,0,0,-1,1539,841,0,0
322,183,0,0,0,0,0,0,0,0,0,-1,1546,841,0,0
329,183,0,0,0,0,0,0,0,0,0,-1,1553,841,0,0
336,183,0,0,0,0,0,0,0,0,0,-1,1560,841,0,0
343,183,0,0,0,0,0,0,0,0,0,-1,1567,841,0,0
350,183,0,0,0,0,0,0,0,0,0,-1,1574,841,0,0
357,183,0,0,0,0,0,0,0,0,0,-1,1581,841,0,0
364,183,0,0,0,0,0,0,0,0,0,-1,1588,841,0,0
371,183,0,0,0,0,0,0,0,0,0,-1,1595,841,0,0
378,183,0,0,0,0,0,0,0,0,0,-1,1602,841,0,0
385,183,0,0,0,0,0,0,0,0,0,-1,1609,841,0,0
392,183,0,0,0,0,0,0,0,0,0,-1,1616,841,0,0
399,183,0,0,0,0,0,0,0,0,0,-1,1623,841,0,0
406,183,0,0,0,0,0,0,0,0,0,-1,1630,841,0,0
413,183,0,0,0,0,0,0,0,0,0,-1,1637,841,0,0
420,183,0,0,0,0,0,0,0,0,0,-1,1644,841,0,0
427,183,0,0,0,0,0,0,0,0,0,-1,1651,841,0,0
434,183,0,0,0,0,0,0,0,0,0,-1,1658,841,0,0
441,183,0,0,0,0,0,0,0,0,0,-1,1665,841,0,0
448,183,0,0,0,0,0,0,0,0,0,-1,1672,841,0,0
455,183,0,0,0,0,0,0,0,0,0,-1,1679,841,0,0
462,183,0,0,0,0,0,0,0,0,0,-1,1686,841,0,0
469,183,0,0,0,0,0,0,0,0,0,-1,1693,841,0,0
476,183,0,0,0,0,0,0,0,0,0,-1,1700,841,0,0
483,183,0,0,0,0,0,0,0,0,0,-1,1707,841,0,0
490,183,0,0,0,0,0,0,0,0,0,-1,1714,841,0,0
497,183,0,0,0,0,0,0,0,0,0,-1,1721,841,0,0
504,183,0,0,0,0,0,0,0,0,0,-1,1728,841,0,0
511,183,0,0,0,0,0,0,0,0,0,-1,1735,841,0,0
518,183,0,0,0,0,0,0,0,0,0,-1,1742,841,0,0
525,183,0,0,0,0,0,0,0,0,0,-1,1749,841,0,0
532,183,0,0,0,0,0,0,0,0,0,-1,1756,841,0,0
539,183,0,0,0,0,0,0,0,0,0,-1,1763,841,0,0
546,183,0,0,0,0,0,0,0,0,0,-1,1770,841,0,0
553,183,0,0,0,0,0,0,0,0,0,-1,1777,841,0,0
560,183,0,0,0,0,0,0,0,0,0,-1,1784,841,0,0
567,183,0,0,0,0,0,0,0,0,0,-1,1791,841,0,0
574,183,0,0,0,0,0,0,0,0,0,-1,1798,841,0,0
581,183,0,0,0,0,0,0,0,0,0,-1,1805,841,0,0
588,183,0,0,0,0,0,0,0,0,0,-1,1812,841,0,0
595,183,0,0,0,0,0,0,0,0,0,-1,1819,841,0,0
602,183,0,0,0,0,0,0,0,0,0,-1,1826,841,0,0
609,183,83.1929,2.57251,-0.00130091,0.00440741,0.00154781,0.00480008,-0.00169358,1.32234,0.00388949,0.0415393,1833,841,83.1929,-2.57249
616,183,83.2113,2.83856,-0.000785575,0.00345532,0.00102829,0.0036915,-0.00102175,1.34503,0.00286302,0.0408969,1840,841,83.2113,-2.83856
623,183,83.2863,2.76025,-0.000540115,0.00260305,0.000754499,0.00277478,-0.000711846,1.347,0.00212721,0.0423467,1847,841,83.2863,-2.76024
630,183,83.3358,2.49292,-0.000387548,0.0023756,0.000576974,0.00249124,-0.000503186,1.37299,0.00185149,0.0430866,1854,841,83.3359,-2.49289
637,183,83.2827,2.51898,-0.000503121,0.00219196,0.00042619,0.00225775,-0.000568911,1.41764,0.00172634,0.0367216,1861,841,83.2828,-2.51896
644,183,83.1886,2.58398,-0.00074317,0.0018176,0.000133503,0.00182454,-0.000750111,1.51885,0.00152901,0.0294464,1868,841,83.1886,-2.584
651,183,83.3154,2.57361,-0.000944502,0.0013403,-0.000254793,0.00136837,-0.000972571,-1.46108,0.00135796,0.049293,1875,841,83.3155,-2.57363
658,183,83.4612,2.47821,0,0,0,0,0,0,0,-1,1882,841,83.4612,-2.47824
665,183,38.4337,2.66992,0,0,0,0,0,0,0,-1,1889,841,38.4337,-2.6699
672,183,29.168,1.54572,0,0,0,0,0,0,0,-1,1896,841,29.168,-1.54574
679,183,66.8435,-1.17389,0,0,0,0,0,0,0,-1,1903,841,66.8435,1.17386
686,183,66.8826,-0.228821,-0.00227401,0.000131275,-0.0016317,0.000955652,-0.00309839,-1.10298,0.00244715,0.0404189,1910,841,66.8826,0.228815
693,183,66.8503,0.645325,-0.00232196,8.30671e-05,-0.00208099,0.001284,-0.00352289,-1.04739,0.00287385,0.0349144,1917,841,66.8503,-0.645345
700,183,66.7561,1.66101,-0.00243466,-5.31376e-05,-0.00235083,0.00139131,-0.00387911,-1.01983,0.00315385,0.0423063,1924,841,66.7561,-1.66099
707,183,66.572,2.61932,-0.00248318,-0.000276355,-0.00240826,0.00126924,-0.00402877,-1.00022,0.00319412,0.0152682,1931,841,66.572,-2.6193
714,183,66.5609,3.54895,-0.0015318,0.00018738,-0.00215216,0.00164527,-0.00298969,-0.975396,0.00271326,0.0177322,1938,841,66.5609,-3.54897
721,183,66.5166,4.52496,-0.000380962,0.00100363,-0.00149566,0.00195944,-0.00133677,-1.00215,0.00191436,0.0168984,1945,841,66.5166,-4.52497
728,183,66.4353,5.48212,0.000880507,0.00171614,-0.000445776,0.0019093,0.000687352,-1.16192,0.00111664,0.0152077,1952,841,66.4354,-5.48213
735,183,66.3794,6.42621,0.00228349,0.00237283,0.000720877,0.00305042,0.0016059,0.816341,0.00176198,0.0137479,1959,841,66.3794,-6.42624
742,183,66.3123,7.3963,0.0038159,0.0027928,0.00198467,0.00535388,0.00125481,0.659267,0.0032332,0.0134335,1966,841,66.3123,-7.39627
749,183,66.3324,8.67078,0.00553027,0.00274005,0.00330327,0.00772095,0.000549368,0.585589,0.0049743,0.036023,1973,841,66.3324,-8.67079
756,183,66.4103,10.1749,0.00722115,0.00198999,0.00441355,0.00973594,-0.000524801,0.517909,0.00667244,0.04874,1980,841,66.4103,-10.1749
763,183,66.3936,11.4227,0,0,0,0,0,0,0,-1,1987,841,66.3937,-11.4228
770,183,51.5659,9.50665,0,0,0,0,0,0,0,-1,1994,841,51.5659,-9.50663
777,183,42.1948,7.22906,0,0,0,0,0,0,0,-1,2001,841,42.1948,-7.22905
784,183,0,0,0,0,0,0,0,0,0,-1,2008,841,0,0
791,183,0,0,0,0,0,0,0,0,0,-1,2015,841,0,0
798,183,0,0,0,0,0,0,0,0,0,-1,2022,841,0,0
805,183,0,0,0,0,0,0,0,0,0,-1,2029,841,0,0
812,183,0,0,0,0,0,0,0,0,0,-1,2036,841,0,0
-700,176,0,0,0,0,0,0,0,0,0,-1,524,848,0,0
-693,176,0,0,0,0,0,0,0,0,0,-1,531,848,0,0
-686,176,0,0,0,0,0,0,0,0,0,-1,538,848,0,0
-679,176,0,0,0,0,0,0,0,0,0,-1,545,848,0,0
-672,176,0,0,0,0,0,0,0,0,0,-1,552,848,0,0
-665,176,-59.6962,8.75854,0,0,0,0,0,0,0,-1,559,848,-59.6962,-8.75853
-658,176,-59.6349,7.95142,0,0,0,0,0,0,0,-1,566,848,-59.6349,-7.95144
-651,176,-50.3386,12.2672,0,0,0,0,0,0,0,-1,573,848,-50.3386,-12.2672
-644,176,-50.0466,11.4407,0,0,0,0,0,0,0,-1,580,848,-50.0466,-11.4406
-637,176,-50.2698,10.9841,0,0,0,0,0,0,0,-1,587,848,-50.2698,-10.9841
-630,176,-50.1295,9.47839,0,0,0,0,0,0,0,-1,594,848,-50.1294,-9.47839
-623,176,-50.2451,8.64844,0.00652353,-0.00329152,0.00519299,0.008761,-0.00552898,0.406826,0.00832037,0.045116,601,848,-50.2451,-8.64843
-616,176,-50.542,8,0.00415102,-0.00207835,0.00394655,0.00606391,-0.00399124,0.451332,0.00584631,0.0302057,608,848,-50.542,-8
-609,176,-50.705,7.06665,0.00316835,-0.000701833,0.00321515,0.00498582,-0.00251931,0.514502,0.0044104,0.013786,615,848,-50.705,-7.06663
-602,176,-50.7697,6.06378,0.00259581,0.000487414,0.00273263,0.00447054,-0.00138731,0.601304,0.00353474,0.0136876,622,848,-50.7696,-6.06379
-595,176,-50.8221,5.04822,0.00244226,0.0014666,0.00252924,0.00453029,-0.000621422,0.69013,0.00324721,0.0129272,629,848,-50.8221,-5.04824
-588,176,-50.8704,4.08655,0.00254454,0.00195724,0.00250963,0.00477764,-0.000275863,0.727159,0.00328091,0.0149632,636,848,-50.8704,-4.08657
-581,176,-50.9927,3.15613,0.00283915,0.00210586,0.00250294,0.00500216,-5.71536e-05,0.712673,0.00335399,0.0172934,643,848,-50.9927,-3.1561
-574,176,-51.1578,2.2146,0.00279549,0.00221021,0.00217044,0.00469292,0.000312772,0.718387,0.00302974,0.0341193,650,848,-51.1578,-2.21463
-567,176,-50.8994,1.25568,0.00288357,0.00164199,0.0019348,0.00429473,0.000230828,0.630159,0.0027894,0.0474252,657,848,-50.8994,-1.25565
-560,176,-50.83,0.12561,0,0,0,0,0,0,0,-1,664,848,-50.83,-0.125608
-553,176,-48.7212,-1.62811,0,0,0,0,0,0,0,-1,671,848,-48.7212,1.6281
-546,176,-16.657,-0.403198,0,0,0,0,0,0,0,-1,678,848,-16.657,0.403182
-539,176,-22.7061,1.48657,0,0,0,0,0,0,0,-1,685,848,-22.7061,-1.48657
-532,176,-38.8326,1.29749,0,0,0,0,0,0,0,-1,692,848,-38.8326,-1.29747
-525,176,-66.7724,0.344849,0,0,0,0,0,0,0,-1,699,848,-66.7724,-0.344851
-518,176,-66.8195,0.416748,0.00177282,0.00126387,0.00182632,0.00336231,-0.000325622,0.716175,0.00235759,0.0449866,706,848,-66.8195,-0.416765
-511,176,-66.7573,0.499695,0.00143031,0.000386274,0.00205398,0.00302757,-0.00121099,0.660958,0.00252094,0.0409271,713,848,-66.7573,-0.499706
-504,176,-66.764,0.461487,0.00291343,-0.000402863,0.00212447,0.00395024,-0.00143968,0.45403,0.00322243,0.0432007,720,848,-66.7641,-0.461512
-497,176,-66.7939,0.542053,0.00521486,-0.0012024,0.00162832,0.00560439,-0.00159192,0.234807,0.00436476,0.0440017,727,848,-66.794,-0.542049
-490,176,-66.6771,0.626526,0,0,0,0,0,0,0,-1,734,848,-66.6771,-0.626519
-483,176,0,0,0,0,0,0,0,0,0,-1,741,848,0,0
-476,176,0,0,0,0,0,0,0,0,0,-1,748,848,0,0
-469,176,0,0,0,0,0,0,0,0,0,-1,755,848,0,0
-462,176,0,0,0,0,0,0,0,0,0,-1,762,848,0,0
-455,176,0,0,0,0,0,0,0,0,0,-1,769,848,0,0
-448,176,0,0,0,0,0,0,0,0,0,-1,776,848,0,0
-441,176,0,0,0,0,0,0,0,0,0,-1,783,848,0,0
-434,176,0,0,0,0,0,0,0,0,0,-1,790,848,0,0
-427,176,0,0,0,0,0,0,0,0,0,-1,797,848,0,0
-420,176,0,0,0,0,0,0,0,0,0,-1,804,848,0,0
-413,176,0,0,0,0,0,0,0,0,0,-1,811,848,0,0
-406,176,0,0,0,0,0,0,0,0,0,-1,818,848,0,0
-399,176,0,0,0,0,0,0,0,0,0,-1,825,848,0,0
-392,176,0,0,0,0,0,0,0,0,0,-1,832,848,0,0
-385,176,0,0,0,0,0,0,0,0,0,-1,839,848,0,0
-378,176,0,0,0,0,0,0,0,0,0,-1,846,848,0,0
-371,176,0,0,0,0,0,0,0,0,0,-1,853,848,0,0
-364,176,0,0,0,0,0,0,0,0,0,-1,860,848,0,0
-357,176,0,0,0,0,0,0,0,0,0,-1,867,848,0,0
-350,176,0,0,0,0,0,0,0,0,0,-1,874,848,0,0
-343,176,0,0,0,0,0,0,0,0,0,-1,881,848,0,0
-336,176,0,0,0,0,0,0,0,0,0,-1,888,848,0,0
-329,176,0,0,0,0,0,0,0,0,0,-1,895,848,0,0
-322,176,0,0,0,0,0,0,0,0,0,-1,902,848,0,0
-315,176,0,0,0,0,0,0,0,0,0,-1,909,848,0,0
-308,176,0,0,0,0,0,0,0,0,0,-1,916,848,0,0
-301,176,0,0,0,0,0,0,0,0,0,-1,923,848,0,0
-294,176,0,0,0,0,0,0,0,0,0,-1,930,848,0,0
-287,176,0,0,0,0,0,0,0,0,0,-1,937,848,0,0
-280,176,0,0,0,0,0,0,0,0,0,-1,944,848,0,0
-273,176,0,0,0,0,0,0,0,0,0,-1,951,848,0,0
-266,176,0,0,0,0,0,0,0,0,0,-1,958,848,0,0
-259,176,0,0,0,0,0,0,0,0,0,-1,965,848,0,0
-252,176,0,0,0,0,0,0,0,0,0,-1,972,848,0,0
-245,176,0,0,0,0,0,0,0,0,0,-1,979,848,0,0
-238,176,0,0,0,0,0,0,0,0,0,-1,986,848,0,0
-231,176,0,0,0,0,0,0,0,0,0,-1,993,848,0,0
-224,176,0,0,0,0,0,0,0,0,0,-1,1000,848,0,0
-217,176,0,0,0,0,0,0,0,0,0,-1,1007,848,0,0
-210,176,0,0,0,0,0,0,0,0,0,-1,1014,848,0,0
-203,176,0,0,0,0,0,0,0,0,0,-1,1021,848,0,0
-196,176,0,0,0,0,0,0,0,0,0,-1,1028,848,0,0
-189,176,0,0,0,0,0,0,0,0,0,-1,1035,848,0,0
-182,176,0,0,0,0,0,0,0,0,0,-1,1042,848,0,0
-175,176,0,0,0,0,0,0,0,0,0,-1,1049,848,0,0
-168,176,0,0,0,0,0,0,0,0,0,-1,1056,848,0,0
-161,176,0,0,0,0,0,0,0,0,0,-1,1063,848,0,0
-154,176,0,0,0,0,0,0,0,0,0,-1,1070,848,0,0
-147,176,0,0,0,0,0,0,0,0,0,-1,1077,848,0,0
-140,176,0,0,0,0,0,0,0,0,0,-1,1084,848,0,0
-133,176,0,0,0,0,0,0,0,0,0,-1,1091,848,0,0
-126,176,0,0,0,0,0,0,0,0,0,-1,1098,848,0,0
-119,176,0,0,0,0,0,0,0,0,0,-1,1105,848,0,0
-112,176,0,0,0,0,0,0,0,0,0,-1,1112,848,0,0
-105,176,0,0,0,0,0,0,0,0,0,-1,1119,848,0,0
-98,176,0,0,0,0,0,0,0,0,0,-1,1126,848,0,0
-91,176,0,0,0,0,0,0,0,0,0,-1,1133,848,0,0
-84,176,0,0,0,0,0,0,0,0,0,-1,1140,848,0,0
-77,176,0,0,0,0,0,0,0,0,0,-1,1147,848,0,0
-70,176,0,0,0,0,0,0,0,0,0,-1,1154,848,0,0
-63,176,0,0,0,0,0,0,0,0,0,-1,1161,848,0,0
-56,176,0,0,0,0,0,0,0,0,0,-1,1168,848,0,0
-49,176,0,0,0,0,0,0,0,0,0,-1,1175,848,0,0
-42,176,0,0,0,0,0,0,0,0,0,-1,1182,848,0,0
-35,176,0,0,0,0,0,0,0,0,0,-1,1189,848,0,0
-28,176,0,0,0,0,0,0,0,0,0,-1,1196,848,0,0
-21,176,0,0,0,0,0,0,0,0,0,-1,1203,848,0,0
-14,176,0,0,0,0,0,0,0,0,0,-1,1210,848,0,0
-7,176,0,0,0,0,0,0,0,0,0,-1,1217,848,0,0
0,176,0,0,0,0,0,0,0,0,0,-1,1224,848,0,0
7,176,0,0,0,0,0,0,0,0,0,-1,1231,848,0,0
14,176,0,0,0,0,0,0,0,0,0,-1,1238,848,0,0
21,176,0,0,0,0,0,0,0,0,0,-1,1245,848,0,0
28,176,0,0,0,0,0,0,0,0,0,-1,1252,848,0,0
35,176,0,0,0,0,0,0,0,0,0,-1,1259,848,0,0
42,176,0,0,0,0,0,0,0,0,0,-1,1266,848,0,0
49,176,0,0,0,0,0,0,0,0,0,-1,1273,848,0,0
56,176,0,0,0,0,0,0,0,0,0,-1,1280,848,0,0
63,176,0,0,0,0,0,0,0,0,0,-1,1287,848,0,0
70,176,0,0,0,0,0,0,0,0,0,-1,1294,848,0,0
77,176,0,0,0,0,0,0,0,0,0,-1,1301,848,0,0
84,176,0,0,0,0,0,0,0,0,0,-1,1308,848,0,0
91,176,0,0,0,0,0,0,0,0,0,-1,1315,848,0,0
98,176,0,0,0,0,0,0,0,0,0,-1,1322,848,0,0
105,176,0,0,0,0,0,0,0,0,0,-1,1329,848,0,0
112,176,0,0,0,0,0,0,0,0,0,-1,1336,848,0,0
119,176,0,0,0,0,0,0,0,0,0,-1,1343,848,0,0
126,176,0,0,0,0,0,0,0,0,0,-1,1350,848,0,0
133,176,0,0,0,0,0,0,0,0,0,-1,1357,848,0,0
140,176,0,0,0,0,0,0,0,0,0,-1,1364,848,0,0
147,176,0,0,0,0,0,0,0,0,0,-1,1371,848,0,0
154,176,0,0,0,0,0,0,0,0,0,-1,1378,848,0,0
161,176,0,0,0,0,0,0,0,0,0,-1,1385,848,0,0
168,176,0,0,0,0,0,0,0,0,0,-1,1392,848,0,0
175,176,0,0,0,0,0,0,0,0,0,-1,1399,848,0,0
182,176,0,0,0,0,0,0,0,0,0,-1,1406,848,0,0
189,176,0,0,0,0,0,0,0,0,0,-1,1413,848,0,0
196,176,0,0,0,0,0,0,0,0,0,-1,1420,848,0,0
203,176,0,0,0,0,0,0,0,0,0,-1,1427,848,0,0
210,176,0,0,0,0,0,0,0,0,0,-1,1434,848,0,0
217,176,0,0,0,0,0,0,0,0,0,-1,1441,848,0,0
224,176,0,0,0,0,0,0,0,0,0,-1,1448,848,0,0
231,176,0,0,0,0,0,0,0,0,0,-1,1455,848,0,0
238,176,0,0,0,0,0,0,0,0,0,-1,1462,848,0,0
245,176,0,0,0,0,0,0,0,0,0,-1,1469,848,0,0
252,176,0,0,0,0,0,0,0,0,0,-1,1476,848,0,0
259,176,0,0,0,0,0,0,0,0,0,-1,1483,848,0,0
266,176,0,0,0,0,0,0,0,0,0,-1,1490,848,0,0
273,176,0,0,0,0,0,0,0,0,0,-1,1497,848,0,0
280,176,0,0,0,0,0,0,0,0,0,-1,1504,848,0,0
287,176,0,0,0,0,0,0,0,0,0,-1,1511,848,0,0
294,176,0,0,0,0,0,0,0,0,0,-1,1518,848,0,0
301,176,0,0,0,0,0,0,0,0,0,-1,1525,848,0,0
308,176,0,0,0,0,0,0,0,0,0,-1,1532,848,0,0
315,176,0,0,0,0,0,0,0,0,0,-1,1539,848,0,0
322,176,0,0,0,0,0,0,0,0,0,-1,1546,848,0,0
329,176,0,0,0,0,0,0,0,0,0,-1,1553,848,0,0
336,176,0,0,0,0,0,0,0,0,0,-1,1560,848,0,0
343,176,0,0,0,0,0,0,0,0,0,-1,1567,848,0,0
350,176,0,0,0,0,0,0,0,0,0,-1,1574,848,0,0
357,176,0,0,0,0,0,0,0,0,0,-1,1581,848,0,0
364,176,0,0,0,0,0,0,0,0,0,-1,1588,848,0,0
371,176,0,0,0,0,0,0,0,0,0,-1,1595,848,0,0
378,176,0,0,0,0,0,0,0,0,0,-1,1602,848,0,0
385,176,0,0,0,0,0,0,0,0,0,-1,1609,848,0,0
392,176,0,0,0,0,0,0,0,0,0,-1,1616,848,0,0
399,176,0,0,0,0,0,0,0,0,0,-1,1623,848,0,0
406,176,0,0,0,0,0,0,0,0,0,-1,1630,848,0,0
413,176,0,0,0,0,0,0,0,0,0,-1,1637,848,0,0
420,176,0,0,0,0,0,0,0,0,0,-1,1644,848,0,0
427,176,0,0,0,0,0,0,0,0,0,-1,1651,848,0,0
434,176,0,0,0,0,0,0,0,0,0,-1,1658,848,0,0
441,176,0,0,0,0,0,0,0,0,0,-1,1665,848,0,0
448,176,0,0,0,0,0,0,0,0,0,-1,1672,848,0,0
455,176,0,0,0,0,0,0,0,0,0,-1,1679,848,0,0
462,176,0,0,0,0,0,0,0,0,0,-1,1686,848,0,0
469,176,0,0,0,0,0,0,0,0,0,-1,1693,848,0,0
476,176,0,0,0,0,0,0,0,0,0,-1,1700,848,0,0
483,176,0,0,0,0,0,0,0,0,0,-1,1707,848,0,0
490,176,0,0,0,0,0,0,0,0,0,-1,1714,848,0,0
497,176,0,0,0,0,0,0,0,0,0,-1,1721,848,0,0
504,176,0,0,0,0,0,0,0,0,0,-1,1728,848,0,0
511,176,0,0,0,0,0,0,0,0,0,-1,1735,848,0,0
518,176,0,0,0,0,0,0,0,0,0,-1,1742,848,0,0
525,176,0,0,0,0,0,0,0,0,0,-1,1749,848,0,0
532,176,0,0,0,0,0,0,0,0,0,-1,1756,848,0,0
539,176,0,0,0,0,0,0,0,0,0,-1,1763,848,0,0
546,176,0,0,0,0,0,0,0,0,0,-1,1770,848,0,0
553,176,0,0,0,0,0,0,0,0,0,-1,1777,848,0,0
560,176,0,0,0,0,0,0,0,0,0,-1,1784,848,0,0
567,176,0,0,0,0,0,0,0,0,0,-1,1791,848,0,0
574,176,0,0,0,0,0,0,0,0,0,-1,1798,848,0,0
581,176,0,0,0,0,0,0,0,0,0,-1,1805,848,0,0
588,176,0,0,0,0,0,0,0,0,0,-1,1812,848,0,0
595,176,0,0,0,0,0,0,0,0,0,-1,1819,848,0,0
602,176,0,0,0,0,0,0,0,0,0,-1,1826,848,0,0
609,176,83.1815,2.51337,-0.00139307,0.00513887,0.001766,0.00558576,-0.00183996,1.32295,0.00446536,0.0410533,1833,848,83.1815,-2.51336
616,176,83.1346,2.52759,-0.000724868,0.0040087,0.00102074,0.00421943,-0.000935598,1.36721,0.00317116,0.0431644,1840,848,83.1346,-2.52756
623,176,83.3116,2.6344,-0.000493207,0.00293202,0.000646068,0.00304983,-0.000611016,1.39043,0.00226454,0.0456158,1847,848,83.3116,-2.63442
630,176,83.3427,2.51648,-0.000442765,0.00239996,0.000433839,0.0024647,-0.000507501,1.42267,0.00183583,0.0416974,1854,848,83.3427,-2.51648
637,176,83.3405,2.4826,-0.000584791,0.00216601,0.000304218,0.00219925,-0.000618034,1.46196,0.00170982,0.0343991,1861,848,83.3405,-2.4826
644,176,83.2429,2.46509,-0.000820487,0.00178898,5.59268e-05,0.00179018,-0.000821685,1.54938,0.00154213,0.0318551,1868,848,83.2429,-2.4651
651,176,83.3444,2.40356,-0.00107386,0.00124701,-0.000340456,0.00129592,-0.00112277,-1.42811,0.00139763,0.0363509,1875,848,83.3444,-2.40357
658,176,83.4021,2.39398,0,0,0,0,0,0,0,-1,1882,848,83.402,-2.39398
665,176,54.3333,2.34277,0,0,0,0,0,0,0,-1,1889,848,54.3333,-2.34279
672,176,16.9304,2.80719,0,0,0,0,0,0,0,-1,1896,848,16.9305,-2.80719
679,176,50.9341,0.315979,0,0,0,0,0,0,0,-1,1903,848,50.9341,-0.315984
686,176,68.0387,-0.074646,0,0,0,0,0,0,0,-1,1910,848,68.0387,0.0746419
693,176,67.8529,0.822205,-0.00239544,-0.000191428,-0.00222283,0.00118757,-0.00377443,-1.01553,0.00299177,0.0366457,1917,848,67.853,-0.82218
700,176,67.8077,1.91675,-0.00255415,-0.000210507,-0.00244544,0.00132938,-0.00409404,-1.00883,0.00326401,0.0450419,1924,848,67.8078,-1.91676
707,176,67.7172,2.77179,-0.00276584,-0.000433248,-0.00263529,0.00128229,-0.00448138,-0.993727,0.00349434,0.037922,1931,848,67.7172,-2.77181
714,176,67.547,3.62427,-0.00199126,-2.61258e-05,-0.00263964,0.00180789,-0.00382527,-0.963571,0.0033211,0.0177219,1938,848,67.547,-3.62429
721,176,67.5052,4.56769,-0.00103907,0.000825853,-0.00222495,0.00230584,-0.00251905,-0.983827,0.00278656,0.0154515,1945,848,67.5052,-4.56766
728,176,67.4033,5.54523,-2.34726e-05,0.00163592,-0.00128762,0.00233801,-0.000725565,-1.0716,0.00184862,0.0183371,1952,848,67.4033,-5.54521
735,176,67.3357,6.50079,0.00114826,0.00251535,-0.000196116,0.00254293,0.00112069,-1.43109,0.0014716,0.0159153,1959,848,67.3357,-6.50082
742,176,67.265,7.44214,0.00240368,0.00334626,0.000971842,0.00395506,0.00179488,1.01116,0.0022867,0.0229191,1966,848,67.2651,-7.44215
749,176,67.4983,8.47443,0.00372664,0.00391104,0.00216532,0.00598612,0.00165156,0.806676,0.00356993,0.0357672,1973,848,67.4983,-8.47444
756,176,67.8342,9.5506,0,0,0,0,0,0,0,-1,1980,848,67.8342,-9.55057
763,176,44.4343,7.70581,0,0,0,0,0,0,0,-1,1987,848,44.4343,-7.70578
770,176,36.4186,4.25641,0,0,0,0,0,0,0,-1,1994,848,36.4186,-4.25639
777,176,43.8328,7.50177,0,0,0,0,0,0,0,-1,2001,848,43.8328,-7.50178
784,176,0,0,0,0,0,0,0,0,0,-1,2008,848,0,0
791,176,0,0,0,0,0,0,0,0,0,-1,2015,848,0,0
798,176,0,0,0,0,0,0,0,0,0,-1,2022,848,0,0
805,176,0,0,0,0,0,0,0,0,0,-1,2029,848,0,0
812,176,0,0,0,0,0,0,0,0,0,-1,2036,848,0,0
-700,169,0,0,0,0,0,0,0,0,0,-1,524,855,0,0
-693,169,0,0,0,0,0,0,0,0,0,-1,531,855,0,0
-686,169,0,0,0,0,0,0,0,0,0,-1,538,855,0,0
-679,169,0,0,0,0,0,0,0,0,0,-1,545,855,0,0
-672,169,0,0,0,0,0,0,0,0,0,-1,552,855,0,0
-665,169,-50.4697,8.3269,0,0,0,0,0,0,0,-1,559,855,-50.4697,-8.32688
-658,169,-58.8608,8.22839,0,0,0,0,0,0,0,-1,566,855,-58.8608,-8.2284
-651,169,-51.5437,12.0944,0,0,0,0,0,0,0,-1,573,855,-51.5437,-12.0943
-644,169,-51.1926,11.3176,0,0,0,0,0,0,0,-1,580,855,-51.1926,-11.3176
-637,169,-51.3948,11.9568,0,0,0,0,0,0,0,-1,587,855,-51.3948,-11.9568
-630,169,-52.509,10.0769,0,0,0,0,0,0,0,-1,594,855,-52.509,-10.0769
-623,169,-52.0506,9.07312,0.00244028,-0.00119907,0.00438746,0.00537045,-0.00412924,0.588822,0.00550023,0.0398908,601,855,-52.0506,-9.0731
-616,169,-51.6088,8.06744,0.00119883,-0.000506115,0.00345027,0.00390038,-0.00320766,0.664287,0.00411032,0.0260723,608,855,-51.6088,-8.06745
-609,169,-51.6825,7.14758,0.00101297,0.000443015,0.00296848,0.00371012,-0.00225413,0.737544,0.0034775,0.0164603,615,855,-51.6825,-7.14756
-602,169,-51.7515,6.151,0.00117469,0.00128659,0.00273002,0.00396124,-0.00149996,0.795644,0.00325801,0.0159667,622,855,-51.7514,-6.15098
-595,169,-51.8152,5.11011,0.00166165,0.00185101,0.00271585,0.00447383,-0.000961175,0.802822,0.00334924,0.0143884,629,855,-51.8152,-5.1101
-588,169,-51.8558,4.16113,0.00212715,0.00189393,0.00270101,0.00471406,-0.000692984,0.763825,0.00339734,0.012339,636,855,-51.8558,-4.16111
-581,169,-51.963,3.2547,0.002536,0.00166827,0.0025936,0.00473177,-0.000527497,0.702524,0.00334424,0.0302927,643,855,-51.963,-3.25471
-574,169,-52.3273,2.40515,0,0,0,0,0,0,0,-1,650,855,-52.3273,-2.40513
-567,169,-52.1897,1.21747,0,0,0,0,0,0,0,-1,657,855,-52.1897,-1.21746
-560,169,-52.3145,0.336853,0,0,0,0,0,0,0,-1,664,855,-52.3145,-0.336883
-553,169,-32.1944,-0.787964,0,0,0,0,0,0,0,-1,671,855,-32.1944,0.787959
-546,169,-19.0852,-1.05609,0,0,0,0,0,0,0,-1,678,855,-19.0852,1.05612
-539,169,-33.2307,1.10706,0,0,0,0,0,0,0,-1,685,855,-33.2307,-1.10708
-532,169,-63.9528,-0.102661,0,0,0,0,0,0,0,-1,692,855,-63.9528,0.102655
-525,169,-66.7763,0.447205,0,0,0,0,0,0,0,-1,699,855,-66.7763,-0.447192
-518,169,-66.8105,0.470947,0.00151777,0.00100842,0.00142082,0.00270656,-0.000180364,0.696718,0.0018674,0.0423519,706,855,-66.8105,-0.470935
-511,169,-66.7305,0.496399,0.00163418,0.000251959,0.00161397,0.00269878,-0.000812644,0.583107,0.00212257,0.039972,713,855,-66.7305,-0.496383
-504,169,-66.7128,0.499512,0.0040921,-0.000253719,0.00180371,0.00474318,-0.000904793,0.34641,0.00350289,0.0422057,720,855,-66.7128,-0.499484
-497,169,-66.7285,0.495667,0.00731936,-0.000757356,0.00163339,0.00763718,-0.00107518,0.192176,0.00548508,0.0425317,727,855,-66.7285,-0.495695
-490,169,0,0,0,0,0,0,0,0,0,-1,734,855,0,0
-483,169,0,0,0,0,0,0,0,0,0,-1,741,855,0,0
-476,169,0,0,0,0,0,0,0,0,0,-1,748,855,0,0
-469,169,0,0,0,0,0,0,0,0,0,-1,755,855,0,0
-462,169,0,0,0,0,0,0,0,0,0,-1,762,855,0,0
-455,169,0,0,0,0,0,0,0,0,0,-1,769,855,0,0
-448,169,0,0,0,0,0,0,0,0,0,-1,776,855,0,0
-441,169,0,0,0,0,0,0,0,0,0,-1,783,855,0,0
-434,169,0,0,0,0,0,0,0,0,0,-1,790,855,0,0
-427,169,0,0,0,0,0,0,0,0,0,-1,797,855,0,0
-420,169,0,0,0,0,0,0,0,0,0,-1,804,855,0,0
-413,169,0,0,0,0,0,0,0,0,0,-1,811,855,0,0
-406,169,0,0,0,0,0,0,0,0,0,-1,818,855,0,0
-399,169,0,0,0,0,0,0,0,0,0,-1,825,855,0,0
-392,169,0,0,0,0,0,0,0,0,0,-1,832,855,0,0
-385,169,0,0,0,0,0,0,0,0,0,-1,839,855,0,0
-378,169,0,0,0,0,0,0,0,0,0,-1,846,855,0,0
-371,169,0,0,0,0,0,0,0,0,0,-1,853,855,0,0
-364,169,0,0,0,0,0,0,0,0,0,-1,860,855,0,0
-357,169,0,0,0,0,0,0,0,0,0,-1,867,855,0,0
-350,169,0,0,0,0,0,0,0,0,0,-1,874,855,0,0
-343,169,0,0,0,0,0,0,0,0,0,-1,881,855,0,0
-336,169,0,0,0,0,0,0,0,0,0,-1,888,855,0,0
-329,169,0,0,0,0,0,0,0,0,0,-1,895,855,0,0
-322,169,0,0,0,0,0,0,0,0,0,-1,902,855,0,0
-315,169,0,0,0,0,0,0,0,0,0,-1,909,855,0,0
-308,169,0,0,0,0,0,0,0,0,0,-1,916,855,0,0
-301,169,0,0,0,0,0,0,0,0,0,-1,923,855,0,0
-294,169,0,0,0,0,0,0,0,0,0,-1,930,855,0,0
-287,169,0,0,0,0,0,0,0,0,0,-1,937,855,0,0
-280,169,0,0,0,0,0,0,0,0,0,-1,944,855,0,0
-273,169,0,0,0,0,0,0,0,0,0,-1,951,855,0,0
-266,169,0,0,0,0,0,0,0,0,0,-1,958,855,0,0
-259,169,0,0,0,0,0,0,0,0,0,-1,965,855,0,0
-252,169,0,0,0,0,0,0,0,0,0,-1,972,855,0,0
-245,169,0,0,0,0,0,0,0,0,0,-1,979,855,0,0
-238,169,0,0,0,0,0,0,0,0,0,-1,986,855,0,0
-231,169,0,0,0,0,0,0,0,0,0,-1,993,855,0,0
-224,169,0,0,0,0,0,0,0,0,0,-1,1000,855,0,0
-217,169,0,0,0,0,0,0,0,0,0,-1,1007,855,0,0
-210,169,0,0,0,0,0,0,0,0,0,-1,1014,855,0,0
-203,169,0,0,0,0,0,0,0,0,0,-1,1021,855,0,0
-196,169,0,0,0,0,0,0,0,0,0,-1,1028,855,0,0
-189,169,0,0,0,0,0,0,0,0,0,-1,1035,855,0,0
-182,169,0,0,0,0,0,0,0,0,0,-1,1042,855,0,0
-175,169,0,0,0,0,0,0,0,0,0,-1,1049,855,0,0
-168,169,0,0,0,0,0,0,0,0,0,-1,1056,855,0,0
-161,169,0,0,0,0,0,0,0,0,0,-1,1063,855,0,0
-154,169,0,0,0,0,0,0,0,0,0,-1,1070,855,0,0
-147,169,0,0,0,0,0,0,0,0,0,-1,1077,855,0,0
-140,169,0,0,0,0,0,0,0,0,0,-1,1084,855,0,0
-133,169,0,0,0,0,0,0,0,0,0,-1,1091,855,0,0
-126,169,0,0,0,0,0,0,0,0,0,-1,1098,855,0,0
-119,169,0,0,0,0,0,0,0,0,0,-1,1105,855,0,0
-112,169,0,0,0,0,0,0,0,0,0,-1,1112,855,0,0
-105,169,0,0,0,0,0,0,0,0,0,-1,1119,855,0,0
-98,169,0,0,0,0,0,0,0,0,0,-1,1126,855,0,0
-91,169,0,0,0,0,0,0,0,0,0,-1,1133,855,0,0
-84,169,0,0,0,0,0,0,0,0,0,-1,1140,855,0,0
-77,169,0,0,0,0,0,0,0,0,0,-1,1147,855,0,0
-70,169,0,0,0,0,0,0,0,0,0,-1,1154,855,0,0
-63,169,0,0,0,0,0,0,0,0,0,-1,1161,855,0,0
-56,169,0,0,0,0,0,0,0,0,0,-1,1168,855,0,0
-49,169,0,0,0,0,0,0,0,0,0,-1,1175,855,0,0
-42,169,0,0,0,0,0,0,0,0,0,-1,1182,855,0,0
-35,169,0,0,0,0,0,0,0,0,0,-1,1189,855,0,0
-28,169,0,0,0,0,0,0,0,0,0,-1,1196,855,0,0
-21,169,0,0,0,0,0,0,0,0,0,-1,1203,855,0,0
-14,169,0,0,0,0,0,0,0,0,0,-1,1210,855,0,0
-7,169,0,0,0,0,0,0,0,0,0,-1,1217,855,0,0
0,169,0,0,0,0,0,0,0,0,0,-1,1224,855,0,0
7,169,0,0,0,0,0,0,0,0,0,-1,1231,855,0,0
14,169,0,0,0,0,0,0,0,0,0,-1,1238,855,0,0
21,169,0,0,0,0,0,0,0,0,0,-1,1245,855,0,0
28,169,0,0,0,0,0,0,0,0,0,-1,1252,855,0,0
35,169,0,0,0,0,0,0,0,0,0,-1,1259,855,0,0
42,169,0,0,0,0,0,0,0,0,0,-1,1266,855,0,0
49,169,0,0,0,0,0,0,0,0,0,-1,1273,855,0,0
56,169,0,0,0,0,0,0,0,0,0,-1,1280,855,0,0
63,169,0,0,0,0,0,0,0,0,0,-1,1287,855,0,0
70,169,0,0,0,0,0,0,0,0,0,-1,1294,855,0,0
77,169,0,0,0,0,0,0,0,0,0,-1,1301,855,0,0
84,169,0,0,0,0,0,0,0,0,0,-1,1308,855,0,0
91,169,0,0,0,0,0,0,0,0,0,-1,1315,855,0,0
98,169,0,0,0,0,0,0,0,0,0,-1,1322,855,0,0
105,169,0,0,0,0,0,0,0,0,0,-1,1329,855,0,0
112,169,0,0,0,0,0,0,0,0,0,-1,1336,855,0,0
119,169,0,0,0,0,0,0,0,0,0,-1,1343,855,0,0
126,169,0,0,0,0,0,0,0,0,0,-1,1350,855,0,0
133,169,0,0,0,0,0,0,0,0,0,-1,1357,855,0,0
140,169,0,0,0,0,0,0,0,0,0,-1,1364,855,0,0
147,169,0,0,0,0,0,0,0,0,0,-1,1371,855,0,0
154,169,0,0,0,0,0,0,0,0,0,-1,1378,855,0,0
161,169,0,0,0,0,0,0,0,0,0,-1,1385,855,0,0
168,169,0,0,0,0,0,0,0,0,0,-1,1392,855,0,0
175,169,0,0,0,0,0,0,0,0,0,-1,1399,855,0,0
182,169,0,0,0,0,0,0,0,0,0,-1,1406,855,0,0
189,169,0,0,0,0,0,0,0,0,0,-1,1413,855,0,0
196,169,0,0,0,0,0,0,0,0,0,-1,1420,855,0,0
203,169,0,0,0,0,0,0,0,0,0,-1,1427,855,0,0
210,169,0,0,0,0,0,0,0,0,0,-1,1434,855,0,0
217,169,0,0,0,0,0,0,0,0,0,-1,1441,855,0,0
224,169,0,0,0,0,0,0,0,0,0,-1,1448,855,0,0
231,169,0,0,0,0,0,0,0,0,0,-1,1455,855,0,0
238,169,0,0,0,0,0,0,0,0,0,-1,1462,855,0,0
245,169,0,0,0,0,0,0,0,0,0,-1,1469,855,0,0
252,169,0,0,0,0,0,0,0,0,0,-1,1476,855,0,0
259,169,0,0,0,0,0,0,0,0,0,-1,1483,855,0,0
266,169,0,0,0,0,0,0,0,0,0,-1,1490,855,0,0
273,169,0,0,0,0,0,0,0,0,0,-1,1497,855,0,0
280,169,0,0,0,0,0,0,0,0,0,-1,1504,855,0,0
287,169,0,0,0,0,0,0,0,0,0,-1,1511,855,0,0
294,169,0,0,0,0,0,0,0,0,0,-1,1518,855,0,0
301,169,0,0,0,0,0,0,0,0,0,-1,1525,855,0,0
308,169,0,0,0,0,0,0,0,0,0,-1,1532,855,0,0
315,169,0,0,0,0,0,0,0,0,0,-1,1539,855,0,0
322,169,0,0,0,0,0,0,0,0,0,-1,1546,855,0,0
329,169,0,0,0,0,0,0,0,0,0,-1,1553,855,0,0
336,169,0,0,0,0,0,0,0,0,0,-1,1560,855,0,0
343,169,0,0,0,0,0,0,0,0,0,-1,1567,855,0,0
350,169,0,0,0,0,0,0,0,0,0,-1,1574,855,0,0
357,169,0,0,0,0,0,0,0,0,0,-1,1581,855,0,0
364,169,0,0,0,0,0,0,0,0,0,-1,1588,855,0,0
371,169,0,0,0,0,0,0,0,0,0,-1,1595,855,0,0
378,169,0,0,0,0,0,0,0,0,0,-1,1602,855,0,0
385,169,0,0,0,0,0,0,0,0,0,-1,1609,855,0,0
392,169,0,0,0,0,0,0,0,0,0,-1,1616,855,0,0
399,169,0,0,0,0,0,0,0,0,0,-1,1623,855,0,0
406,169,0,0,0,0,0,0,0,0,0,-1,1630,855,0,0
413,169,0,0,0,0,0,0,0,0,0,-1,1637,855,0,0
420,169,0,0,0,0,0,0,0,0,0,-1,1644,855,0,0
427,169,0,0,0,0,0,0,0,0,0,-1,1651,855,0,0
434,169,0,0,0,0,0,0,0,0,0,-1,1658,855,0,0
441,169,0,0,0,0,0,0,0,0,0,-1,1665,855,0,0
448,169,0,0,0,0,0,0,0,0,0,-1,1672,855,0,0
455,169,0,0,0,0,0,0,0,0,0,-1,1679,855,0,0
462,169,0,0,0,0,0,0,0,0,0,-1,1686,855,0,0
469,169,0,0,0,0,0,0,0,0,0,-1,1693,855,0,0
476,169,0,0,0,0,0,0,0,0,0,-1,1700,855,0,0
483,169,0,0,0,0,0,0,0,0,0,-1,1707,855,0,0
490,169,0,0,0,0,0,0,0,0,0,-1,1714,855,0,0
497,169,0,0,0,0,0,0,0,0,0,-1,1721,855,0,0
504,169,0,0,0,0,0,0,0,0,0,-1,1728,855,0,0
511,169,0,0,0,0,0,0,0,0,0,-1,1735,855,0,0
518,169,0,0,0,0,0,0,0,0,0,-1,1742,855,0,0
525,169,0,0,0,0,0,0,0,0,0,-1,1749,855,0,0
532,169,0,0,0,0,0,0,0,0,0,-1,1756,855,0,0
539,169,0,0,0,0,0,0,0,0,0,-1,1763,855,0,0
546,169,0,0,0,0,0,0,0,0,0,-1,1770,855,0,0
553,169,0,0,0,0,0,0,0,0,0,-1,1777,855,0,0
560,169,0,0,0,0,0,0,0,0,0,-1,1784,855,0,0
567,169,0,0,0,0,0,0,0,0,0,-1,1791,855,0,0
574,169,0,0,0,0,0,0,0,0,0,-1,1798,855,0,0
581,169,0,0,0,0,0,0,0,0,0,-1,1805,855,0,0
588,169,0,0,0,0,0,0,0,0,0,-1,1812,855,0,0
595,169,0,0,0,0,0,0,0,0,0,-1,1819,855,0,0
602,169,0,0,0,0,0,0,0,0,0,-1,1826,855,0,0
609,169,0,0,0,0,0,0,0,0,0,-1,1833,855,0,0
616,169,83.3918,2.33069,-0.000946468,0.00543012,0.00111903,0.0056208,-0.00113714,1.40202,0.00417815,0.0441802,1840,855,83.3919,-2.3307
623,169,83.4287,2.33557,-0.000639073,0.0039466,0.000576423,0.00401795,-0.00071042,1.44765,0.00294415,0.0460986,1847,855,83.4287,-2.33557
630,169,83.4998,2.35474,-0.000553183,0.00293276,0.000259481,0.00295197,-0.000572392,1.4969,0.00218392,0.0428711,1854,855,83.4998,-2.35473
637,169,83.4899,2.46576,-0.000670379,0.0024678,9.46343e-05,0.00247065,-0.000673231,1.54068,0.00191145,0.0372897,1861,855,83.4899,-2.46574
644,169,83.3719,2.51208,-0.000903946,0.00200406,-0.000113182,0.00200845,-0.000908344,-1.53195,0.00172348,0.0362908,1868,855,83.372,-2.51209
651,169,83.3512,2.5174,-0.0012026,0.00140391,-0.000482375,0.00149031,-0.00128901,-1.39355,0.00160605,0.0370442,1875,855,83.3512,-2.5174
658,169,83.35,2.54108,0,0,0,0,0,0,0,-1,1882,855,83.35,-2.54108
665,169,74.1068,1.9809,0,0,0,0,0,0,0,-1,1889,855,74.1069,-1.98093
672,169,31.2465,2.96387,0,0,0,0,0,0,0,-1,1896,855,31.2464,-2.9639
679,169,38.4297,1.08197,0,0,0,0,0,0,0,-1,1903,855,38.4296,-1.08194
686,169,68.7524,-0.0394897,0,0,0,0,0,0,0,-1,1910,855,68.7525,0.0395155
693,169,68.9744,1.00555,-0.00252672,-0.000401648,-0.00249516,0.00124779,-0.00417616,-0.986689,0.00328012,0.0429734,1917,855,68.9744,-1.00556
700,169,68.9857,2.05029,-0.00270749,-0.000389881,-0.00266065,0.00135337,-0.00445074,-0.990777,0.00350645,0.0384566,1924,855,68.9857,-2.05027
707,169,68.8418,2.95526,-0.00303082,-0.000682386,-0.00291049,0.00128183,-0.00499503,-0.977133,0.00382949,0.0446654,1931,855,68.8418,-2.95527
714,169,68.4559,3.64026,-0.00245988,-0.000399624,-0.00310953,0.00184597,-0.00470547,-0.945349,0.00390073,0.0268261,1938,855,68.456,-3.64024
721,169,68.4585,4.62518,-0.00175089,0.00045226,-0.00293534,0.00248592,-0.00378455,-0.964906,0.00364605,0.021607,1945,855,68.4584,-4.62516
728,169,68.3712,5.59943,-0.00103354,0.00139137,-0.00215546,0.00265198,-0.00229415,-1.04159,0.00285814,0.0170198,1952,855,68.3712,-5.59945
735,169,68.2955,6.54913,-0.00014491,0.00256791,-0.00118607,0.00301333,-0.000590336,-1.21155,0.00223185,0.020139,1959,855,68.2956,-6.54912
742,169,68.2728,7.47913,0.000801306,0.00390008,-0.000108169,0.00390385,0.000797534,-1.53595,0.00238166,0.0182601,1966,855,68.2728,-7.47915
749,169,68.1793,8.30798,0.00170696,0.00510824,0.000966503,0.00536369,0.00145151,1.3124,0.00320351,0.0297276,1973,855,68.1793,-8.30799
756,169,68.301,9.12604,0,0,0,0,0,0,0,-1,1980,855,68.301,-9.12605
763,169,61.2976,7.40009,0,0,0,0,0,0,0,-1,1987,855,61.2975,-7.40007
770,169,37.2059,3.97021,0,0,0,0,0,0,0,-1,1994,855,37.2059,-3.97022
777,169,41.7505,8.7085,0,0,0,0,0,0,0,-1,2001,855,41.7505,-8.70852
784,169,40.7385,9.24359,0,0,0,0,0,0,0,-1,2008,855,40.7384,-9.24361
791,169,0,0,0,0,0,0,0,0,0,-1,2015,855,0,0
798,169,0,0,0,0,0,0,0,0,0,-1,2022,855,0,0
805,169,0,0,0,0,0,0,0,0,0,-1,2029,855,0,0
812,169,0,0,0,0,0,0,0,0,0,-1,2036,855,0,0
-700,162,0,0,0,0,0,0,0,0,0,-1,524,862,0,0
-693,162,0,0,0,0,0,0,0,0,0,-1,531,862,0,0
-686,162,0,0,0,0,0,0,0,0,0,-1,538,862,0,0
-679,162,0,0,0,0,0,0,0,0,0,-1,545,862,0,0
-672,162,0,0,0,0,0,0,0,0,0,-1,552,862,0,0
-665,162,-50.6751,7.18884,0,0,0,0,0,0,0,-1,559,862,-50.6751,-7.18885
-658,162,-50.7888,6.02673,0,0,0,0,0,0,0,-1,566,862,-50.7888,-6.02673
-651,162,-53.0629,7.56506,0,0,0,0,0,0,0,-1,573,862,-53.0628,-7.56505
-644,162,-52.2625,12.6323,0,0,0,0,0,0,0,-1,580,862,-52.2625,-12.6323
-637,162,-53.1426,11.3502,0,0,0,0,0,0,0,-1,587,862,-53.1426,-11.3502
-630,162,-53.0204,10.2773,0,0,0,0,0,0,0,-1,594,862,-53.0204,-10.2773
-623,162,-52.6419,9.18091,-0.00066572,0.000921311,0.00363751,0.00385085,-0.00359526,0.89279,0.00429985,0.0341261,601,862,-52.6419,-9.18093
-616,162,-52.562,8.11902,-0.000846576,0.0011846,0.0031214,0.00345148,-0.00311345,0.942678,0.00379194,0.0219896,608,862,-52.562,-8.11902
-609,162,-52.6863,7.1485,-0.000330789,0.00171671,0.0029716,0.00383596,-0.00245004,0.951286,0.00365851,0.0152069,615,862,-52.6864,-7.1485
-602,162,-52.7812,6.19476,0.00040018,0.00216403,0.00305668,0.00446348,-0.00189926,0.925846,0.00377166,0.0135506,622,862,-52.7812,-6.19475
-595,162,-52.8272,5.21075,0.00130321,0.00223494,0.00321189,0.00501457,-0.00147643,0.857418,0.00392878,0.0132448,629,862,-52.8272,-5.21077
-588,162,-52.8141,4.24707,0.00193018,0.00190881,0.0030911,0.00501061,-0.00117162,0.78367,0.00379177,0.0199077,636,862,-52.8141,-4.24705
-581,162,-52.9072,3.08826,0,0,0,0,0,0,0,-1,643,862,-52.9072,-3.08826
-574,162,-52.9349,1.74756,0,0,0,0,0,0,0,-1,650,862,-52.9349,-1.74753
-567,162,-53.6511,1.15533,0,0,0,0,0,0,0,-1,657,862,-53.6511,-1.15532
-560,162,-36.5075,-0.831665,0,0,0,0,0,0,0,-1,664,862,-36.5075,0.831657
-553,162,-35.9823,-1.60956,0,0,0,0,0,0,0,-1,671,862,-35.9823,1.60954
-546,162,-22.8181,-1.51154,0,0,0,0,0,0,0,-1,678,862,-22.8181,1.51155
-539,162,-53.0229,0.9328,0,0,0,0,0,0,0,-1,685,862,-53.0229,-0.932798
-532,162,-66.5229,0.850159,0,0,0,0,0,0,0,-1,692,862,-66.5229,-0.850163
-525,162,-66.6692,0.681213,0.00204774,0.000716949,0.0011372,0.00269991,6.47849e-05,0.520695,0.00177874,0.0415177,699,862,-66.6692,-0.681237
-518,162,-66.7832,0.52832,0.00154159,0.000755583,0.00103413,0.00225488,4.22959e-05,0.60381,0.00148936,0.0418184,706,862,-66.7832,-0.528316
-511,162,-66.7891,0.568604,0.00227642,0.000383305,0.0013504,0.00297897,-0.000319245,0.479718,0.0021005,0.0439478,713,862,-66.7891,-0.56862
-504,162,-66.7219,0.601074,0.00525496,0.000456801,0.00195732,0.00595212,-0.000240356,0.342169,0.00405058,0.0438699,720,862,-66.7218,-0.601091
-497,162,-66.6558,0.482239,0.00871092,0.000343624,0.00256462,0.00943443,-0.000379887,0.274966,0.00641999,0.040817,727,862,-66.6558,-0.482259
-490,162,0,0,0,0,0,0,0,0,0,-1,734,862,0,0
-483,162,0,0,0,0,0,0,0,0,0,-1,741,862,0,0
-476,162,0,0,0,0,0,0,0,0,0,-1,748,862,0,0
-469,162,0,0,0,0,0,0,0,0,0,-1,755,862,0,0
-462,162,0,0,0,0,0,0,0,0,0,-1,762,862,0,0
-455,162,0,0,0,0,0,0,0,0,0,-1,769,862,0,0
-448,162,0,0,0,0,0,0,0,0,0,-1,776,862,0,0
-441,162,0,0,0,0,0,0,0,0,0,-1,783,862,0,0
-434,162,0,0,0,0,0,0,0,0,0,-1,790,862,0,0
-427,162,0,0,0,0,0,0,0,0,0,-1,797,862,0,0
-420,162,0,0,0,0,0,0,0,0,0,-1,804,862,0,0
-413,162,0,0,0,0,0,0,0,0,0,-1,811,862,0,0
-406,162,0,0,0,0,0,0,0,0,0,-1,818,862,0,0
-399,162,0,0,0,0,0,0,0,0,0,-1,825,862,0,0
-392,162,0,0,0,0,0,0,0,0,0,-1,832,862,0,0
-385,162,0,0,0,0,0,0,0,0,0,-1,839,862,0,0
-378,162,0,0,0,0,0,0,0,0,0,-1,846,862,0,0
-371,162,0,0,0,0,0,0,0,0,0,-1,853,862,0,0
-364,162,0,0,0,0,0,0,0,0,0,-1,860,862,0,0
-357,162,0,0,0,0,0,0,0,0,0,-1,867,862,0,0
-350,162,0,0,0,0,0,0,0,0,0,-1,874,862,0,0
-343,162,0,0,0,0,0,0,0,0,0,-1,881,862,0,0
-336,162,0,0,0,0,0,0,0,0,0,-1,888,862,0,0
-329,162,0,0,0,0,0,0,0,0,0,-1,895,862,0,0
-322,162,0,0,0,0,0,0,0,0,0,-1,902,862,0,0
-315,162,0,0,0,0,0,0,0,0,0,-1,909,862,0,0
-308,162,0,0,0,0,0,0,0,0,0,-1,916,862,0,0
-301,162,0,0,0,0,0,0,0,0,0,-1,923,862,0,0
-294,162,0,0,0,0,0,0,0,0,0,-1,930,862,0,0
-287,162,0,0,0,0,0,0,0,0,0,-1,937,862,0,0
-280,162,0,0,0,0,0,0,0,0,0,-1,944,862,0,0
-273,162,0,0,0,0,0,0,0,0,0,-1,951,862,0,0
-266,162,0,0,0,0,0,0,0,0,0,-1,958,862,0,0
-259,162,0,0,0,0,0,0,0,0,0,-1,965,862,0,0
-252,162,0,0,0,0,0,0,0,0,0,-1,972,862,0,0
-245,162,0,0,0,0,0,0,0,0,0,-1,979,862,0,0
-238,162,0,0,0,0,0,0,0,0,0,-1,986,862,0,0
-231,162,0,0,0,0,0,0,0,0,0,-1,993,862,0,0
-224,162,0,0,0,0,0,0,0,0,0,-1,1000,862,0,0
-217,162,0,0,0,0,0,0,0,0,0,-1,1007,862,0,0
-210,162,0,0,0,0,0,0,0,0,0,-1,1014,862,0,0
-203,162,0,0,0,0,0,0,0,0,0,-1,1021,862,0,0
-196,162,0,0,0,0,0,0,0,0,0,-1,1028,862,0,0
-189,162,0,0,0,0,0,0,0,0,0,-1,1035,862,0,0
-182,162,0,0,0,0,0,0,0,0,0,-1,1042,862,0,0
-175,162,0,0,0,0,0,0,0,0,0,-1,1049,862,0,0
-168,162,0,0,0,0,0,0,0,0,0,-1,1056,862,0,0
-161,162,0,0,0,0,0,0,0,0,0,-1,1063,862,0,0
-154,162,0,0,0,0,0,0,0,0,0,-1,1070,862,0,0
-147,162,0,0,0,0,0,0,0,0,0,-1,1077,862,0,0
-140,162,0,0,0,0,0,0,0,0,0,-1,1084,862,0,0
-133,162,0,0,0,0,0,0,0,0,0,-1,1091,862,0,0
-126,162,0,0,0,0,0,0,0,0,0,-1,1098,862,0,0
-119,162,0,0,0,0,0,0,0,0,0,-1,1105,862,0,0
-112,162,0,0,0,0,0,0,0,0,0,-1,1112,862,0,0
-105,162,0,0,0,0,0,0,0,0,0,-1,1119,862,0,0
-98,162,0,0,0,0,0,0,0,0,0,-1,1126,862,0,0
-91,162,0,0,0,0,0,0,0,0,0,-1,1133,862,0,0
-84,162,0,0,0,0,0,0,0,0,0,-1,1140,862,0,0
-77,162,0,0,0,0,0,0,0,0,0,-1,1147,862,0,0
-70,162,0,0,0,0,0,0,0,0,0,-1,1154,862,0,0
-63,162,0,0,0,0,0,0,0,0,0,-1,1161,862,0,0
-56,162,0,0,0,0,0,0,0,0,0,-1,1168,862,0,0
-49,162,0,0,0,0,0,0,0,0,0,-1,1175,862,0,0
-42,162,0,0,0,0,0,0,0,0,0,-1,1182,862,0,0
-35,162,0,0,0,0,0,0,0,0,0,-1,1189,862,0,0
-28,162,0,0,0,0,0,0,0,0,0,-1,1196,862,0,0
-21,162,0,0,0,0,0,0,0,0,0,-1,1203,862,0,0
-14,162,0,0,0,0,0,0,0,0,0,-1,1210,862,0,0
-7,162,0,0,0,0,0,0,0,0,0,-1,1217,862,0,0
0,162,0,0,0,0,0,0,0,0,0,-1,1224,862,0,0
7,162,0,0,0,0,0,0,0,0,0,-1,1231,862,0,0
14,162,0,0,0,0,0,0,0,0,0,-1,1238,862,0,0
21,162,0,0,0,0,0,0,0,0,0,-1,1245,862,0,0
28,162,0,0,0,0,0,0,0,0,0,-1,1252,862,0,0
35,162,0,0,0,0,0,0,0,0,0,-1,1259,862,0,0
42,162,0,0,0,0,0,0,0,0,0,-1,1266,862,0,0
49,162,0,0,0,0,0,0,0,0,0,-1,1273,862,0,0
56,162,0,0,0,0,0,0,0,0,0,-1,1280,862,0,0
63,162,0,0,0,0,0,0,0,0,0,-1,1287,862,0,0
70,162,0,0,0,0,0,0,0,0,0,-1,1294,862,0,0
77,162,0,0,0,0,0,0,0,0,0,-1,1301,862,0,0
84,162,0,0,0,0,0,0,0,0,0,-1,1308,862,0,0
91,162,0,0,0,0,0,0,0,0,0,-1,1315,862,0,0
98,162,0,0,0,0,0,0,0,0,0,-1,1322,862,0,0
105,162,0,0,0,0,0,0,0,0,0,-1,1329,862,0,0
112,162,0,0,0,0,0,0,0,0,0,-1,1336,862,0,0
119,162,0,0,0,0,0,0,0,0,0,-1,1343,862,0,0
126,162,0,0,0,0,0,0,0,0,0,-1,1350,862,0,0
133,162,0,0,0,0,0,0,0,0,0,-1,1357,862,0,0
140,162,0,0,0,0,0,0,0,0,0,-1,1364,862,0,0
147,162,0,0,0,0,0,0,0,0,0,-1,1371,862,0,0
154,162,0,0,0,0,0,0,0,0,0,-1,1378,862,0,0
161,162,0,0,0,0,0,0,0,0,0,-1,1385,862,0,0
168,162,0,0,0,0,0,0,0,0,0,-1,1392,862,0,0
175,162,0,0,0,0,0,0,0,0,0,-1,1399,862,0,0
182,162,0,0,0,0,0,0,0,0,0,-1,1406,862,0,0
189,162,0,0,0,0,0,0,0,0,0,-1,1413,862,0,0
196,162,0,0,0,0,0,0,0,0,0,-1,1420,862,0,0
203,162,0,0,0,0,0,0,0,0,0,-1,1427,862,0,0
210,162,0,0,0,0,0,0,0,0,0,-1,1434,862,0,0
217,162,0,0,0,0,0,0,0,0,0,-1,1441,862,0,0
224,162,0,0,0,0,0,0,0,0,0,-1,1448,862,0,0
231,162,0,0,0,0,0,0,0,0,0,-1,1455,862,0,0
238,162,0,0,0,0,0,0,0,0,0,-1,1462,862,0,0
245,162,0,0,0,0,0,0,0,0,0,-1,1469,862,0,0
252,162,0,0,0,0,0,0,0,0,0,-1,1476,862,0,0
259,162,0,0,0,0,0,0,0,0,0,-1,1483,862,0,0
266,162,0,0,0,0,0,0,0,0,0,-1,1490,862,0,0
273,162,0,0,0,0,0,0,0,0,0,-1,1497,862,0,0
280,162,0,0,0,0,0,0,0,0,0,-1,1504,862,0,0
287,162,0,0,0,0,0,0,0,0,0,-1,1511,862,0,0
294,162,0,0,0,0,0,0,0,0,0,-1,1518,862,0,0
301,162,0,0,0,0,0,0,0,0,0,-1,1525,862,0,0
308,162,0,0,0,0,0,0,0,0,0,-1,1532,862,0,0
315,162,0,0,0,0,0,0,0,0,0,-1,1539,862,0,0
322,162,0,0,0,0,0,0,0,0,0,-1,1546,862,0,0
329,162,0,0,0,0,0,0,0,0,0,-1,1553,862,0,0
336,162,0,0,0,0,0,0,0,0,0,-1,1560,862,0,0
343,162,0,0,0,0,0,0,0,0,0,-1,1567,862,0,0
350,162,0,0,0,0,0,0,0,0,0,-1,1574,862,0,0
357,162,0,0,0,0,0,0,0,0,0,-1,1581,862,0,0
364,162,0,0,0,0,0,0,0,0,0,-1,1588,862,0,0
371,162,0,0,0,0,0,0,0,0,0,-1,1595,862,0,0
378,162,0,0,0,0,0,0,0,0,0,-1,1602,862,0,0
385,162,0,0,0,0,0,0,0,0,0,-1,1609,862,0,0
392,162,0,0,0,0,0,0,0,0,0,-1,1616,862,0,0
399,162,0,0,0,0,0,0,0,0,0,-1,1623,862,0,0
406,162,0,0,0,0,0,0,0,0,0,-1,1630,862,0,0
413,162,0,0,0,0,0,0,0,0,0,-1,1637,862,0,0
420,162,0,0,0,0,0,0,0,0,0,-1,1644,862,0,0
427,162,0,0,0,0,0,0,0,0,0,-1,1651,862,0,0
434,162,0,0,0,0,0,0,0,0,0,-1,1658,862,0,0
441,162,0,0,0,0,0,0,0,0,0,-1,1665,862,0,0
448,162,0,0,0,0,0,0,0,0,0,-1,1672,862,0,0
455,162,0,0,0,0,0,0,0,0,0,-1,1679,862,0,0
462,162,0,0,0,0,0,0,0,0,0,-1,1686,862,0,0
469,162,0,0,0,0,0,0,0,0,0,-1,1693,862,0,0
476,162,0,0,0,0,0,0,0,0,0,-1,1700,862,0,0
483,162,0,0,0,0,0,0,0,0,0,-1,1707,862,0,0
490,162,0,0,0,0,0,0,0,0,0,-1,1714,862,0,0
497,162,0,0,0,0,0,0,0,0,0,-1,1721,862,0,0
504,162,0,0,0,0,0,0,0,0,0,-1,1728,862,0,0
511,162,0,0,0,0,0,0,0,0,0,-1,1735,862,0,0
518,162,0,0,0,0,0,0,0,0,0,-1,1742,862,0,0
525,162,0,0,0,0,0,0,0,0,0,-1,1749,862,0,0
532,162,0,0,0,0,0,0,0,0,0,-1,1756,862,0,0
539,162,0,0,0,0,0,0,0,0,0,-1,1763,862,0,0
546,162,0,0,0,0,0,0,0,0,0,-1,1770,862,0,0
553,162,0,0,0,0,0,0,0,0,0,-1,1777,862,0,0
560,162,0,0,0,0,0,0,0,0,0,-1,1784,862,0,0
567,162,0,0,0,0,0,0,0,0,0,-1,1791,862,0,0
574,162,0,0,0,0,0,0,0,0,0,-1,1798,862,0,0
581,162,0,0,0,0,0,0,0,0,0,-1,1805,862,0,0
588,162,0,0,0,0,0,0,0,0,0,-1,1812,862,0,0
595,162,0,0,0,0,0,0,0,0,0,-1,1819,862,0,0
602,162,0,0,0,0,0,0,0,0,0,-1,1826,862,0,0
609,162,0,0,0,0,0,0,0,0,0,-1,1833,862,0,0
616,162,83.5525,2.19531,-0.00102644,0.00738669,0.00143632,0.00762515,-0.0012649,1.40628,0.00555329,0.0450612,1840,862,83.5525,-2.19531
623,162,83.5443,2.17267,-0.000728416,0.00543879,0.000694153,0.00551596,-0.000805581,1.46009,0.00397315,0.0474997,1847,862,83.5444,-2.17268
630,162,83.6073,2.2785,-0.000657536,0.00388614,0.000208546,0.00389569,-0.000667088,1.52503,0.00284567,0.0424799,1854,862,83.6073,-2.2785
637,162,83.5079,2.44421,-0.000774853,0.00305268,-5.7219e-05,0.00305354,-0.000775708,-1.55585,0.00233756,0.0404138,1861,862,83.508,-2.44423
644,162,83.3925,2.45068,-0.00101841,0.0023955,-0.000257577,0.00241482,-0.00103773,-1.49591,0.0020455,0.0378587,1868,862,83.3924,-2.45068
651,162,83.3738,2.45917,-0.0013378,0.00171477,-0.000596522,0.0018272,-0.00145023,-1.38451,0.00189639,0.0363392,1875,862,83.3738,-2.45916
658,162,83.3412,2.46539,-0.00205006,0.00114353,-0.00113052,0.00150322,-0.00240975,-1.26276,0.00227927,0.0385842,1882,862,83.3412,-2.46537
665,162,83.295,2.4823,0,0,0,0,0,0,0,-1,1889,862,83.2951,-2.48232
672,162,56.9712,3.04034,0,0,0,0,0,0,0,-1,1896,862,56.9711,-3.04034
679,162,26.5077,2.54785,0,0,0,0,0,0,0,-1,1903,862,26.5077,-2.54787
686,162,69.0739,-0.282166,0,0,0,0,0,0,0,-1,1910,862,69.0738,0.28219
693,162,69.947,1.09448,0,0,0,0,0,0,0,-1,1917,862,69.947,-1.09451
700,162,69.9769,2.07782,0,0,0,0,0,0,0,-1,1924,862,69.977,-2.07781
707,162,69.7317,2.95844,-0.00313373,-0.00056265,-0.00306326,0.00147388,-0.00517026,-0.984069,0.00402902,0.0362352,1931,862,69.7317,-2.95844
714,162,69.4369,3.69415,-0.00273599,-0.000406309,-0.00339374,0.00201693,-0.00515923,-0.950715,0.00427351,0.0418775,1938,862,69.4369,-3.69418
721,162,69.2766,4.75092,-0.00226898,0.000361247,-0.00346707,0.00275424,-0.00466198,-0.966673,0.00432872,0.0378516,1945,862,69.2766,-4.75089
728,162,69.2391,5.68799,-0.00190856,0.00129429,-0.00289499,0.00300127,-0.00361553,-1.03804,0.0038257,0.0288516,1952,862,69.2392,-5.68798
735,162,69.2592,6.62457,-0.00137304,0.00260519,-0.00208279,0.00349611,-0.00226396,-1.1666,0.00335084,0.0118608,1959,862,69.2592,-6.62459
742,162,69.2122,7.50818,-0.000783556,0.00428696,-0.00108608,0.0045098,-0.0010064,-1.36843,0.00339214,0.0137879,1966,862,69.2121,-7.50819
749,162,69.0614,8.36804,-0.00032136,0.00594937,-9.30712e-05,0.00595075,-0.000322741,-1.55596,0.00407901,0.0209399,1973,862,69.0614,-8.36807
756,162,68.8486,9.16766,-0.000174426,0.0075393,0.000697366,0.00760184,-0.000236965,1.48136,0.0051487,0.0467785,1980,862,68.8487,-9.16769
763,162,68.7358,10.0039,0,0,0,0,0,0,0,-1,1987,862,68.7358,-10.0039
770,162,54.8257,9.36987,0,0,0,0,0,0,0,-1,1994,862,54.8256,-9.36988
777,162,66.324,10.5801,0,0,0,0,0,0,0,-1,2001,862,66.3239,-10.5802
784,162,55.6492,10.6049,0,0,0,0,0,0,0,-1,2008,862,55.6491,-10.6049
791,162,0,0,0,0,0,0,0,0,0,-1,2015,862,0,0
798,162,0,0,0,0,0,0,0,0,0,-1,2022,862,0,0
805,162,0,0,0,0,0,0,0,0,0,-1,2029,862,0,0
812,162,0,0,0,0,0,0,0,0,0,-1,2036,862,0,0
-700,155,0,0,0,0,0,0,0,0,0,-1,524,869,0,0
-693,155,0,0,0,0,0,0,0,0,0,-1,531,869,0,0
-686,155,0,0,0,0,0,0,0,0,0,-1,538,869,0,0
-679,155,0,0,0,0,0,0,0,0,0,-1,545,869,0,0
-672,155,0,0,0,0,0,0,0,0,0,-1,552,869,0,0
-665,155,-50.9639,6.01917,0,0,0,0,0,0,0,-1,559,869,-50.9639,-6.01917
-658,155,-51.2028,4.90723,0,0,0,0,0,0,0,-1,566,869,-51.2028,-4.90722
-651,155,-51.22,3.81226,0,0,0,0,0,0,0,-1,573,869,-51.2201,-3.81228
-644,155,-53.655,7.95532,0,0,0,0,0,0,0,-1,580,869,-53.655,-7.95531
-637,155,-53.1362,11.0054,0,0,0,0,0,0,0,-1,587,869,-53.1362,-11.0055
-630,155,-53.2819,10.1995,0,0,0,0,0,0,0,-1,594,869,-53.2818,-10.1995
-623,155,-53.395,9.18512,-0.00516406,0.00333278,0.00321484,0.00441204,-0.00624332,1.2469,0.00618209,0.0316647,601,869,-53.395,-9.18513
-616,155,-53.5526,8.16071,-0.00372122,0.00294612,0.00297962,0.00408363,-0.00485873,1.20611,0.00516934,0.0176133,608,869,-53.5526,-8.16069
-609,155,-53.6888,7.15662,-0.00210703,0.00286724,0.00309156,0.00434792,-0.00358771,1.12414,0.00458864,0.0155101,615,869,-53.6888,-7.1566
-602,155,-53.7814,6.23511,-0.000540893,0.00277237,0.00341036,0.00490718,-0.0026757,1.0115,0.00444072,0.0143099,622,869,-53.7815,-6.23508
-595,155,-53.8428,5.29694,0.000841966,0.00245712,0.00351261,0.00525379,-0.0019547,0.898389,0.00430466,0.0134882,629,869,-53.8429,-5.29695
-588,155,-53.8129,4.40472,0.00154637,0.00202232,0.00313063,0.00492401,-0.00135532,0.823332,0.00381555,0.0271632,636,869,-53.8129,-4.40473
-581,155,-53.5536,3.56378,0,0,0,0,0,0,0,-1,643,869,-53.5536,-3.56377
-574,155,-50.6295,2.30585,0,0,0,0,0,0,0,-1,650,869,-50.6295,-2.30585
-567,155,-38.0134,0.582214,0,0,0,0,0,0,0,-1,657,869,-38.0134,-0.582192
-560,155,-37.1416,-0.708008,0,0,0,0,0,0,0,-1,664,869,-37.1416,0.70801
-553,155,-36.7729,-1.71521,0,0,0,0,0,0,0,-1,671,869,-36.7729,1.71523
-546,155,-22.7988,0.873657,0,0,0,0,0,0,0,-1,678,869,-22.7988,-0.873645
-539,155,-66.6699,0.453491,0,0,0,0,0,0,0,-1,685,869,-66.6699,-0.453495
-532,155,-66.637,0.585999,0,0,0,0,0,0,0,-1,692,869,-66.6369,-0.586026
-525,155,-66.5996,0.670532,0.00136404,0.000836503,0.000251428,0.00146467,0.000735868,0.380725,0.000845634,0.0416901,699,869,-66.5996,-0.670547
-518,155,-66.6777,0.612061,0.00119161,0.000776034,0.0003588,0.00139845,0.000569199,0.522933,0.000812035,0.0441152,706,869,-66.6777,-0.612055
-511,155,-66.8055,0.664551,0.00328238,0.00067056,0.00146833,0.00394151,1.1429e-05,0.421938,0.00262387,0.0447322,713,869,-66.8056,-0.664578
-504,155,-66.9363,0.838257,0,0,0,0,0,0,0,-1,720,869,-66.9363,-0.838282
-497,155,0,0,0,0,0,0,0,0,0,-1,727,869,0,0
-490,155,0,0,0,0,0,0,0,0,0,-1,734,869,0,0
-483,155,0,0,0,0,0,0,0,0,0,-1,741,869,0,0
-476,155,0,0,0,0,0,0,0,0,0,-1,748,869,0,0
-469,155,0,0,0,0,0,0,0,0,0,-1,755,869,0,0
-462,155,0,0,0,0,0,0,0,0,0,-1,762,869,0,0
-455,155,0,0,0,0,0,0,0,0,0,-1,769,869,0,0
-448,155,0,0,0,0,0,0,0,0,0,-1,776,869,0,0
-441,155,0,0,0,0,0,0,0,0,0,-1,783,869,0,0
-434,155,0,0,0,0,0,0,0,0,0,-1,790,869,0,0
-427,155,0,0,0,0,0,0,0,0,0,-1,797,869,0,0
-420,155,0,0,0,0,0,0,0,0,0,-1,804,869,0,0
-413,155,0,0,0,0,0,0,0,0,0,-1,811,869,0,0
-406,155,0,0,0,0,0,0,0,0,0,-1,818,869,0,0
-399,155,0,0,0,0,0,0,0,0,0,-1,825,869,0,0
-392,155,0,0,0,0,0,0,0,0,0,-1,832,869,0,0
-385,155,0,0,0,0,0,0,0,0,0,-1,839,869,0,0
-378,155,0,0,0,0,0,0,0,0,0,-1,846,869,0,0
-371,155,0,0,0,0,0,0,0,0,0,-1,853,869,0,0
-364,155,0,0,0,0,0,0,0,0,0,-1,860,869,0,0
-357,155,0,0,0,0,0,0,0,0,0,-1,867,869,0,0
-350,155,0,0,0,0,0,0,0,0,0,-1,874,869,0,0
-343,155,0,0,0,0,0,0,0,0,0,-1,881,869,0,0
-336,155,0,0,0,0,0,0,0,0,0,-1,888,869,0,0
-329,155,0,0,0,0,0,0,0,0,0,-1,895,869,0,0
-322,155,0,0,0,0,0,0,0,0,0,-1,902,869,0,0
-315,155,0,0,0,0,0,0,0,0,0,-1,909,869,0,0
-308,155,0,0,0,0,0,0,0,0,0,-1,916,869,0,0
-301,155,0,0,0,0,0,0,0,0,0,-1,923,869,0,0
-294,155,0,0,0,0,0,0,0,0,0,-1,930,869,0,0
-287,155,0,0,0,0,0,0,0,0,0,-1,937,869,0,0
-280,155,0,0,0,0,0,0,0,0,0,-1,944,869,0,0
-273,155,0,0,0,0,0,0,0,0,0,-1,951,869,0,0
-266,155,0,0,0,0,0,0,0,0,0,-1,958,869,0,0
-259,155,0,0,0,0,0,0,0,0,0,-1,965,869,0,0
-252,155,0,0,0,0,0,0,0,0,0,-1,972,869,0,0
-245,155,0,0,0,0,0,0,0,0,0,-1,979,869,0,0
-238,155,0,0,0,0,0,0,0,0,0,-1,986,869,0,0
-231,155,0,0,0,0,0,0,0,0,0,-1,993,869,0,0
-224,155,0,0,0,0,0,0,0,0,0,-1,1000,869,0,0
-217,155,0,0,0,0,0,0,0,0,0,-1,1007,869,0,0
-210,155,0,0,0,0,0,0,0,0,0,-1,1014,869,0,0
-203,155,0,0,0,0,0,0,0,0,0,-1,1021,869,0,0
-196,155,0,0,0,0,0,0,0,0,0,-1,1028,869,0,0
-189,155,0,0,0,0,0,0,0,0,0,-1,1035,869,0,0
-182,155,0,0,0,0,0,0,0,0,0,-1,1042,869,0,0
-175,155,0,0,0,0,0,0,0,0,0,-1,1049,869,0,0
-168,155,0,0,0,0,0,0,0,0,0,-1,1056,869,0,0
-161,155,0,0,0,0,0,0,0,0,0,-1,1063,869,0,0
-154,155,0,0,0,0,0,0,0,0,0,-1,1070,869,0,0
-147,155,0,0,0,0,0,0,0,0,0,-1,1077,869,0,0
-140,155,0,0,0,0,0,0,0,0,0,-1,1084,869,0,0
-133,155,0,0,0,0,0,0,0,0,0,-1,1091,869,0,0
-126,155,0,0,0,0,0,0,0,0,0,-1,1098,869,0,0
-119,155,0,0,0,0,0,0,0,0,0,-1,1105,869,0,0
-112,155,0,0,0,0,0,0,0,0,0,-1,1112,869,0,0
-105,155,0,0,0,0,0,0,0,0,0,-1,1119,869,0,0
-98,155,0,0,0,0,0,0,0,0,0,-1,1126,869,0,0
-91,155,0,0,0,0,0,0,0,0,0,-1,1133,869,0,0
-84,155,0,0,0,0,0,0,0,0,0,-1,1140,869,0,0
-77,155,0,0,0,0,0,0,0,0,0,-1,1147,869,0,0
-70,155,0,0,0,0,0,0,0,0,0,-1,1154,869,0,0
-63,155,0,0,0,0,0,0,0,0,0,-1,1161,869,0,0
-56,155,0,0,0,0,0,0,0,0,0,-1,1168,869,0,0
-49,155,0,0,0,0,0,0,0,0,0,-1,1175,869,0,0
-42,155,0,0,0,0,0,0,0,0,0,-1,1182,869,0,0
-35,155,0,0,0,0,0,0,0,0,0,-1,1189,869,0,0
-28,155,0,0,0,0,0,0,0,0,0,-1,1196,869,0,0
-21,155,0,0,0,0,0,0,0,0,0,-1,1203,869,0,0
-14,155,0,0,0,0,0,0,0,0,0,-1,1210,869,0,0
-7,155,0,0,0,0,0,0,0,0,0,-1,1217,869,0,0
0,155,0,0,0,0,0,0,0,0,0,-1,1224,869,0,0
7,155,0,0,0,0,0,0,0,0,0,-1,1231,869,0,0
14,155,0,0,0,0,0,0,0,0,0,-1,1238,869,0,0
21,155,0,0,0,0,0,0,0,0,0,-1,1245,869,0,0
28,155,0,0,0,0,0,0,0,0,0,-1,1252,869,0,0
35,155,0,0,0,0,0,0,0,0,0,-1,1259,869,0,0
42,155,0,0,0,0,0,0,0,0,0,-1,1266,869,0,0
49,155,0,0,0,0,0,0,0,0,0,-1,1273,869,0,0
56,155,0,0,0,0,0,0,0,0,0,-1,1280,869,0,0
63,155,0,0,0,0,0,0,0,0,0,-1,1287,869,0,0
70,155,0,0,0,0,0,0,0,0,0,-1,1294,869,0,0
77,155,0,0,0,0,0,0,0,0,0,-1,1301,869,0,0
84,155,0,0,0,0,0,0,0,0,0,-1,1308,869,0,0
91,155,0,0,0,0,0,0,0,0,0,-1,1315,869,0,0
98,155,0,0,0,0,0,0,0,0,0,-1,1322,869,0,0
105,155,0,0,0,0,0,0,0,0,0,-1,1329,869,0,0
112,155,0,0,0,0,0,0,0,0,0,-1,1336,869,0,0
119,155,0,0,0,0,0,0,0,0,0,-1,1343,869,0,0
126,155,0,0,0,0,0,0,0,0,0,-1,1350,869,0,0
133,155,0,0,0,0,0,0,0,0,0,-1,1357,869,0,0
140,155,0,0,0,0,0,0,0,0,0,-1,1364,869,0,0
147,155,0,0,0,0,0,0,0,0,0,-1,1371,869,0,0
154,155,0,0,0,0,0,0,0,0,0,-1,1378,869,0,0
161,155,0,0,0,0,0,0,0,0,0,-1,1385,869,0,0
168,155,0,0,0,0,0,0,0,0,0,-1,1392,869,0,0
175,155,0,0,0,0,0,0,0,0,0,-1,1399,869,0,0
182,155,0,0,0,0,0,0,0,0,0,-1,1406,869,0,0
189,155,0,0,0,0,0,0,0,0,0,-1,1413,869,0,0
196,155,0,0,0,0,0,0,0,0,0,-1,1420,869,0,0
203,155,0,0,0,0,0,0,0,0,0,-1,1427,869,0,0
210,155,0,0,0,0,0,0,0,0,0,-1,1434,869,0,0
217,155,0,0,0,0,0,0,0,0,0,-1,1441,869,0,0
224,155,0,0,0,0,0,0,0,0,0,-1,1448,869,0,0
231,155,0,0,0,0,0,0,0,0,0,-1,1455,869,0,0
238,155,0,0,0,0,0,0,0,0,0,-1,1462,869,0,0
245,155,0,0,0,0,0,0,0,0,0,-1,1469,869,0,0
252,155,0,0,0,0,0,0,0,0,0,-1,1476,869,0,0
259,155,0,0,0,0,0,0,0,0,0,-1,1483,869,0,0
266,155,0,0,0,0,0,0,0,0,0,-1,1490,869,0,0
273,155,0,0,0,0,0,0,0,0,0,-1,1497,869,0,0
280,155,0,0,0,0,0,0,0,0,0,-1,1504,869,0,0
287,155,0,0,0,0,0,0,0,0,0,-1,1511,869,0,0
294,155,0,0,0,0,0,0,0,0,0,-1,1518,869,0,0
301,155,0,0,0,0,0,0,0,0,0,-1,1525,869,0,0
308,155,0,0,0,0,0,0,0,0,0,-1,1532,869,0,0
315,155,0,0,0,0,0,0,0,0,0,-1,1539,869,0,0
322,155,0,0,0,0,0,0,0,0,0,-1,1546,869,0,0
329,155,0,0,0,0,0,0,0,0,0,-1,1553,869,0,0
336,155,0,0,0,0,0,0,0,0,0,-1,1560,869,0,0
343,155,0,0,0,0,0,0,0,0,0,-1,1567,869,0,0
350,155,0,0,0,0,0,0,0,0,0,-1,1574,869,0,0
357,155,0,0,0,0,0,0,0,0,0,-1,1581,869,0,0
364,155,0,0,0,0,0,0,0,0,0,-1,1588,869,0,0
371,155,0,0,0,0,0,0,0,0,0,-1,1595,869,0,0
378,155,0,0,0,0,0,0,0,0,0,-1,1602,869,0,0
385,155,0,0,0,0,0,0,0,0,0,-1,1609,869,0,0
392,155,0,0,0,0,0,0,0,0,0,-1,1616,869,0,0
399,155,0,0,0,0,0,0,0,0,0,-1,1623,869,0,0
406,155,0,0,0,0,0,0,0,0,0,-1,1630,869,0,0
413,155,0,0,0,0,0,0,0,0,0,-1,1637,869,0,0
420,155,0,0,0,0,0,0,0,0,0,-1,1644,869,0,0
427,155,0,0,0,0,0,0,0,0,0,-1,1651,869,0,0
434,155,0,0,0,0,0,0,0,0,0,-1,1658,869,0,0
441,155,0,0,0,0,0,0,0,0,0,-1,1665,869,0,0
448,155,0,0,0,0,0,0,0,0,0,-1,1672,869,0,0
455,155,0,0,0,0,0,0,0,0,0,-1,1679,869,0,0
462,155,0,0,0,0,0,0,0,0,0,-1,1686,869,0,0
469,155,0,0,0,0,0,0,0,0,0,-1,1693,869,0,0
476,155,0,0,0,0,0,0,0,0,0,-1,1700,869,0,0
483,155,0,0,0,0,0,0,0,0,0,-1,1707,869,0,0
490,155,0,0,0,0,0,0,0,0,0,-1,1714,869,0,0
497,155,0,0,0,0,0,0,0,0,0,-1,1721,869,0,0
504,155,0,0,0,0,0,0,0,0,0,-1,1728,869,0,0
511,155,0,0,0,0,0,0,0,0,0,-1,1735,869,0,0
518,155,0,0,0,0,0,0,0,0,0,-1,1742,869,0,0
525,155,0,0,0,0,0,0,0,0,0,-1,1749,869,0,0
532,155,0,0,0,0,0,0,0,0,0,-1,1756,869,0,0
539,155,0,0,0,0,0,0,0,0,0,-1,1763,869,0,0
546,155,0,0,0,0,0,0,0,0,0,-1,1770,869,0,0
553,155,0,0,0,0,0,0,0,0,0,-1,1777,869,0,0
560,155,0,0,0,0,0,0,0,0,0,-1,1784,869,0,0
567,155,0,0,0,0,0,0,0,0,0,-1,1791,869,0,0
574,155,0,0,0,0,0,0,0,0,0,-1,1798,869,0,0
581,155,0,0,0,0,0,0,0,0,0,-1,1805,869,0,0
588,155,0,0,0,0,0,0,0,0,0,-1,1812,869,0,0
595,155,0,0,0,0,0,0,0,0,0,-1,1819,869,0,0
602,155,0,0,0,0,0,0,0,0,0,-1,1826,869,0,0
609,155,0,0,0,0,0,0,0,0,0,-1,1833,869,0,0
616,155,83.6385,2.02789,-0.000787524,0.00947777,0.00220327,0.00993069,-0.00124044,1.36806,0.0070703,0.0487662,1840,869,83.6385,-2.02792
623,155,83.6477,2.18445,-0.00055077,0.00706063,0.00123403,0.0072557,-0.000745843,1.41402,0.00510395,0.0463523,1847,869,83.6477,-2.18448
630,155,83.5299,2.42462,-0.00055934,0.00496625,0.00052073,0.0050149,-0.000607985,1.47765,0.00356326,0.0445834,1854,869,83.53,-2.42463
637,155,83.4431,2.42255,-0.000742466,0.00368711,7.74904e-05,0.00368846,-0.000743822,1.55331,0.00274077,0.0419879,1861,869,83.4431,-2.42257
644,155,83.4211,2.37555,-0.00105543,0.00272599,-0.0001802,0.00273456,-0.00106399,-1.52329,0.00226269,0.0369748,1868,869,83.4211,-2.37555
651,155,83.4276,2.32495,-0.00141481,0.00190132,-0.000498713,0.00197469,-0.00148819,-1.42471,0.00200586,0.0353406,1875,869,83.4276,-2.32495
658,155,83.3875,2.3208,-0.00216967,0.0012553,-0.00100647,0.00152917,-0.00244354,-1.30512,0.00231381,0.0319449,1882,869,83.3874,-2.32077
665,155,83.3525,2.31409,-0.00265222,0.000677324,-0.00160676,0.00132624,-0.00330113,-1.18696,0.00275152,0.0426434,1889,869,83.3525,-2.31406
672,155,83.3174,2.42273,0,0,0,0,0,0,0,-1,1896,869,83.3174,-2.42274
679,155,35.1565,2.78528,0,0,0,0,0,0,0,-1,1903,869,35.1565,-2.7853
686,155,43.6101,1.63361,0,0,0,0,0,0,0,-1,1910,869,43.6101,-1.63362
693,155,70.7813,1.23804,0,0,0,0,0,0,0,-1,1917,869,70.7813,-1.23802
700,155,70.4139,2.20349,0,0,0,0,0,0,0,-1,1924,869,70.4139,-2.20352
707,155,70.7656,3.10095,0,0,0,0,0,0,0,-1,1931,869,70.7656,-3.10096
714,155,70.4391,3.7348,0,0,0,0,0,0,0,-1,1938,869,70.4391,-3.73478
721,155,70.0651,4.88153,0,0,0,0,0,0,0,-1,1945,869,70.065,-4.88155
728,155,70.2369,5.7373,-0.00256952,0.00132199,-0.00341733,0.00330868,-0.00455621,-1.0442,0.0045598,0.0220491,1952,869,70.2369,-5.73733
735,155,70.1846,6.64563,-0.002423,0.00272991,-0.00284692,0.00399313,-0.00368621,-1.15318,0.00443485,0.0170003,1959,869,70.1846,-6.64565
742,155,70.1688,7.56128,-0.00224911,0.00473672,-0.00201771,0.00527761,-0.00279,-1.30888,0.00473107,0.018957,1966,869,70.1688,-7.56129
749,155,70.0408,8.42767,-0.00227487,0.00684738,-0.00113737,0.00698705,-0.00241454,-1.44861,0.00563795,0.0186792,1973,869,70.0407,-8.42768
756,155,69.9165,9.33899,-0.00262498,0.00899539,-0.000440606,0.00901207,-0.00264166,-1.53295,0.00705542,0.0326104,1980,869,69.9165,-9.33898
763,155,69.8372,10.3066,0,0,0,0,0,0,0,-1,1987,869,69.8372,-10.3066
770,155,69.9221,12.7175,0,0,0,0,0,0,0,-1,1994,869,69.922,-12.7175
777,155,70.5415,14.3887,0,0,0,0,0,0,0,-1,2001,869,70.5416,-14.3887
784,155,69.9526,8.4718,0,0,0,0,0,0,0,-1,2008,869,69.9525,-8.47183
791,155,0,0,0,0,0,0,0,0,0,-1,2015,869,0,0
798,155,0,0,0,0,0,0,0,0,0,-1,2022,869,0,0
805,155,0,0,0,0,0,0,0,0,0,-1,2029,869,0,0
812,155,0,0,0,0,0,0,0,0,0,-1,2036,869,0,0
-700,148,0,0,0,0,0,0,0,0,0,-1,524,876,0,0
-693,148,0,0,0,0,0,0,0,0,0,-1,531,876,0,0
-686,148,0,0,0,0,0,0,0,0,0,-1,538,876,0,0
-679,148,0,0,0,0,0,0,0,0,0,-1,545,876,0,0
-672,148,-48.1407,-0.726746,0,0,0,0,0,0,0,-1,552,876,-48.1407,0.726755
-665,148,-48.2041,-3.97095,0,0,0,0,0,0,0,-1,559,876,-48.2041,3.97096
-658,148,-51.7661,3.82794,0,0,0,0,0,0,0,-1,566,876,-51.7661,-3.82797
-651,148,-52.0392,2.79663,0,0,0,0,0,0,0,-1,573,876,-52.0392,-2.79661
-644,148,-52.2687,1.81482,0,0,0,0,0,0,0,-1,580,876,-52.2687,-1.81482
-637,148,-52.5708,0.881165,0,0,0,0,0,0,0,-1,587,876,-52.5708,-0.88117
-630,148,-53.9782,10.4279,0,0,0,0,0,0,0,-1,594,876,-53.9782,-10.4279
-623,148,-54.2643,9.2782,-0.00930324,0.00562692,0.00361534,0.0064563,-0.0101326,1.34529,0.0096557,0.0328201,601,876,-54.2643,-9.2782
-616,148,-54.5117,8.17261,-0.00636794,0.0045077,0.00335185,0.00545774,-0.00731798,1.2946,0.00740208,0.0160079,608,876,-54.5117,-8.17261
-609,148,-54.6666,7.2016,-0.00361919,0.00372495,0.00345399,0.00509412,-0.00498837,1.19339,0.00582123,0.0146586,615,876,-54.6667,-7.2016
-602,148,-54.7602,6.26959,-0.00122065,0.00307973,0.00371755,0.00522412,-0.00336505,1.04759,0.00499753,0.0171849,622,876,-54.7602,-6.26959
-595,148,-54.7968,5.33698,0.000497089,0.00245637,0.00359201,0.00519993,-0.00224648,0.918524,0.00441046,0.0148863,629,876,-54.7968,-5.33696
-588,148,-54.8232,4.31219,0.00112282,0.00196856,0.00302161,0.00459675,-0.00150537,0.854921,0.00367067,0.0361724,636,876,-54.8233,-4.31217
-581,148,-54.7382,3.31616,0,0,0,0,0,0,0,-1,643,876,-54.7382,-3.31613
-574,148,-51.1478,2.54205,0,0,0,0,0,0,0,-1,650,876,-51.1478,-2.54208
-567,148,-35.6293,0.615784,0,0,0,0,0,0,0,-1,657,876,-35.6293,-0.615792
-560,148,-37.7973,-0.588135,0,0,0,0,0,0,0,-1,664,876,-37.7973,0.588143
-553,148,-18.3896,-0.00280762,0,0,0,0,0,0,0,-1,671,876,-18.3897,0.00278524
-546,148,-66.6198,0.4729,0,0,0,0,0,0,0,-1,678,876,-66.6198,-0.472931
-539,148,-66.6235,0.482117,0.000908748,0.000898624,0.000755299,0.001659,0.00014837,0.782047,0.00106001,0.0464324,685,876,-66.6236,-0.482091
-532,148,-66.6497,0.472351,0.000964547,0.000585171,1.04996e-05,0.000964837,0.000584881,0.0276479,0.000561221,0.036782,692,876,-66.6497,-0.47234
-525,148,-66.6323,0.516846,0.000918795,0.000622679,-0.000101797,0.000950414,0.00059106,-0.30116,0.000554131,0.0391384,699,876,-66.6323,-0.516859
-518,148,-66.6026,0.56012,0.00138489,0.000567003,0.000326927,0.00149951,0.000452386,0.3372,0.00088815,0.0440965,706,876,-66.6026,-0.5601
-511,148,-66.5889,0.613159,0.0040836,0.00081888,0.00168183,0.00479498,0.000107494,0.400162,0.00316143,0.0423788,713,876,-66.589,-0.613147
-504,148,-66.579,0.714722,0,0,0,0,0,0,0,-1,720,876,-66.579,-0.714707
-497,148,0,0,0,0,0,0,0,0,0,-1,727,876,0,0
-490,148,0,0,0,0,0,0,0,0,0,-1,734,876,0,0
-483,148,0,0,0,0,0,0,0,0,0,-1,741,876,0,0
-476,148,0,0,0,0,0,0,0,0,0,-1,748,876,0,0
-469,148,0,0,0,0,0,0,0,0,0,-1,755,876,0,0
-462,148,0,0,0,0,0,0,0,0,0,-1,762,876,0,0
-455,148,0,0,0,0,0,0,0,0,0,-1,769,876,0,0
-448,148,0,0,0,0,0,0,0,0,0,-1,776,876,0,0
-441,148,0,0,0,0,0,0,0,0,0,-1,783,876,0,0
-434,148,0,0,0,0,0,0,0,0,0,-1,790,876,0,0
-427,148,0,0,0,0,0,0,0,0,0,-1,797,876,0,0
-420,148,0,0,0,0,0,0,0,0,0,-1,804,876,0,0
-413,148,0,0,0,0,0,0,0,0,0,-1,811,876,0,0
-406,148,0,0,0,0,0,0,0,0,0,-1,818,876,0,0
-399,148,0,0,0,0,0,0,0,0,0,-1,825,876,0,0
-392,148,0,0,0,0,0,0,0,0,0,-1,832,876,0,0
-385,148,0,0,0,0,0,0,0,0,0,-1,839,876,0,0
-378,148,0,0,0,0,0,0,0,0,0,-1,846,876,0,0
-371,148,0,0,0,0,0,0,0,0,0,-1,853,876,0,0
-364,148,0,0,0,0,0,0,0,0,0,-1,860,876,0,0
-357,148,0,0,0,0,0,0,0,0,0,-1,867,876,0,0
-350,148,0,0,0,0,0,0,0,0,0,-1,874,876,0,0
-343,148,0,0,0,0,0,0,0,0,0,-1,881,876,0,0
-336,148,0,0,0,0,0,0,0,0,0,-1,888,876,0,0
-329,148,0,0,0,0,0,0,0,0,0,-1,895,876,0,0
-322,148,0,0,0,0,0,0,0,0,0,-1,902,876,0,0
-315,148,0,0,0,0,0,0,0,0,0,-1,909,876,0,0
-308,148,0,0,0,0,0,0,0,0,0,-1,916,876,0,0
-301,148,0,0,0,0,0,0,0,0,0,-1,923,876,0,0
-294,148,0,0,0,0,0,0,0,0,0,-1,930,876,0,0
-287,148,0,0,0,0,0,0,0,0,0,-1,937,876,0,0
-280,148,0,0,0,0,0,0,0,0,0,-1,944,876,0,0
-273,148,0,0,0,0,0,0,0,0,0,-1,951,876,0,0
-266,148,0,0,0,0,0,0,0,0,0,-1,958,876,0,0
-259,148,0,0,0,0,0,0,0,0,0,-1,965,876,0,0
-252,148,0,0,0,0,0,0,0,0,0,-1,972,876,0,0
-245,148,0,0,0,0,0,0,0,0,0,-1,979,876,0,0
-238,148,0,0,0,0,0,0,0,0,0,-1,986,876,0,0
-231,148,0,0,0,0,0,0,0,0,0,-1,993,876,0,0
-224,148,0,0,0,0,0,0,0,0,0,-1,1000,876,0,0
-217,148,0,0,0,0,0,0,0,0,0,-1,1007,876,0,0
-210,148,0,0,0,0,0,0,0,0,0,-1,1014,876,0,0
-203,148,0,0,0,0,0,0,0,0,0,-1,1021,876,0,0
-196,148,0,0,0,0,0,0,0,0,0,-1,1028,876,0,0
-189,148,0,0,0,0,0,0,0,0,0,-1,1035,876,0,0
-182,148,0,0,0,0,0,0,0,0,0,-1,1042,876,0,0
-175,148,0,0,0,0,0,0,0,0,0,-1,1049,876,0,0
-168,148,0,0,0,0,0,0,0,0,0,-1,1056,876,0,0
-161,148,0,0,0,0,0,0,0,0,0,-1,1063,876,0,0
-154,148,0,0,0,0,0,0,0,0,0,-1,1070,876,0,0
-147,148,0,0,0,0,0,0,0,0,0,-1,1077,876,0,0
-140,148,0,0,0,0,0,0,0,0,0,-1,1084,876,0,0
-133,148,0,0,0,0,0,0,0,0,0,-1,1091,876,0,0
-126,148,0,0,0,0,0,0,0,0,0,-1,1098,876,0,0
-119,148,0,0,0,0,0,0,0,0,0,-1,1105,876,0,0
-112,148,0,0,0,0,0,0,0,0,0,-1,1112,876,0,0
-105,148,0,0,0,0,0,0,0,0,0,-1,1119,876,0,0
-98,148,0,0,0,0,0,0,0,0,0,-1,1126,876,0,0
-91,148,0,0,0,0,0,0,0,0,0,-1,1133,876,0,0
-84,148,0,0,0,0,0,0,0,0,0,-1,1140,876,0,0
-77,148,0,0,0,0,0,0,0,0,0,-1,1147,876,0,0
-70,148,0,0,0,0,0,0,0,0,0,-1,1154,876,0,0
-63,148,0,0,0,0,0,0,0,0,0,-1,1161,876,0,0
-56,148,0,0,0,0,0,0,0,0,0,-1,1168,876,0,0
-49,148,0,0,0,0,0,0,0,0,0,-1,1175,876,0,0
-42,148,0,0,0,0,0,0,0,0,0,-1,1182,876,0,0
-35,148,0,0,0,0,0,0,0,0,0,-1,1189,876,0,0
-28,148,0,0,0,0,0,0,0,0,0,-1,1196,876,0,0
-21,148,0,0,0,0,0,0,0,0,0,-1,1203,876,0,0
-14,148,0,0,0,0,0,0,0,0,0,-1,1210,876,0,0
-7,148,0,0,0,0,0,0,0,0,0,-1,1217,876,0,0
0,148,0,0,0,0,0,0,0,0,0,-1,1224,876,0,0
7,148,0,0,0,0,0,0,0,0,0,-1,1231,876,0,0
14,148,0,0,0,0,0,0,0,0,0,-1,1238,876,0,0
21,148,0,0,0,0,0,0,0,0,0,-1,1245,876,0,0
28,148,0,0,0,0,0,0,0,0,0,-1,1252,876,0,0
35,148,0,0,0,0,0,0,0,0,0,-1,1259,876,0,0
42,148,0,0,0,0,0,0,0,0,0,-1,1266,876,0,0
49,148,0,0,0,0,0,0,0,0,0,-1,1273,876,0,0
56,148,0,0,0,0,0,0,0,0,0,-1,1280,876,0,0
63,148,0,0,0,0,0,0,0,0,0,-1,1287,876,0,0
70,148,0,0,0,0,0,0,0,0,0,-1,1294,876,0,0
77,148,0,0,0,0,0,0,0,0,0,-1,1301,876,0,0
84,148,0,0,0,0,0,0,0,0,0,-1,1308,876,0,0
91,148,0,0,0,0,0,0,0,0,0,-1,1315,876,0,0
98,148,0,0,0,0,0,0,0,0,0,-1,1322,876,0,0
105,148,0,0,0,0,0,0,0,0,0,-1,1329,876,0,0
112,148,0,0,0,0,0,0,0,0,0,-1,1336,876,0,0
119,148,0,0,0,0,0,0,0,0,0,-1,1343,876,0,0
126,148,0,0,0,0,0,0,0,0,0,-1,1350,876,0,0
133,148,0,0,0,0,0,0,0,0,0,-1,1357,876,0,0
140,148,0,0,0,0,0,0,0,0,0,-1,1364,876,0,0
147,148,0,0,0,0,0,0,0,0,0,-1,1371,876,0,0
154,148,0,0,0,0,0,0,0,0,0,-1,1378,876,0,0
161,148,0,0,0,0,0,0,0,0,0,-1,1385,876,0,0
168,148,0,0,0,0,0,0,0,0,0,-1,1392,876,0,0
175,148,0,0,0,0,0,0,0,0,0,-1,1399,876,0,0
182,148,0,0,0,0,0,0,0,0,0,-1,1406,876,0,0
189,148,0,0,0,0,0,0,0,0,0,-1,1413,876,0,0
196,148,0,0,0,0,0,0,0,0,0,-1,1420,876,0,0
203,148,0,0,0,0,0,0,0,0,0,-1,1427,876,0,0
210,148,0,0,0,0,0,0,0,0,0,-1,1434,876,0,0
217,148,0,0,0,0,0,0,0,0,0,-1,1441,876,0,0
224,148,0,0,0,0,0,0,0,0,0,-1,1448,876,0,0
231,148,0,0,0,0,0,0,0,0,0,-1,1455,876,0,0
238,148,0,0,0,0,0,0,0,0,0,-1,1462,876,0,0
245,148,0,0,0,0,0,0,0,0,0,-1,1469,876,0,0
252,148,0,0,0,0,0,0,0,0,0,-1,1476,876,0,0
259,148,0,0,0,0,0,0,0,0,0,-1,1483,876,0,0
266,148,0,0,0,0,0,0,0,0,0,-1,1490,876,0,0
273,148,0,0,0,0,0,0,0,0,0,-1,1497,876,0,0
280,148,0,0,0,0,0,0,0,0,0,-1,1504,876,0,0
287,148,0,0,0,0,0,0,0,0,0,-1,1511,876,0,0
294,148,0,0,0,0,0,0,0,0,0,-1,1518,876,0,0
301,148,0,0,0,0,0,0,0,0,0,-1,1525,876,0,0
308,148,0,0,0,0,0,0,0,0,0,-1,1532,876,0,0
315,148,0,0,0,0,0,0,0,0,0,-1,1539,876,0,0
322,148,0,0,0,0,0,0,0,0,0,-1,1546,876,0,0
329,148,0,0,0,0,0,0,0,0,0,-1,1553,876,0,0
336,148,0,0,0,0,0,0,0,0,0,-1,1560,876,0,0
343,148,0,0,0,0,0,0,0,0,0,-1,1567,876,0,0
350,148,0,0,0,0,0,0,0,0,0,-1,1574,876,0,0
357,148,0,0,0,0,0,0,0,0,0,-1,1581,876,0,0
364,148,0,0,0,0,0,0,0,0,0,-1,1588,876,0,0
371,148,0,0,0,0,0,0,0,0,0,-1,1595,876,0,0
378,148,0,0,0,0,0,0,0,0,0,-1,1602,876,0,0
385,148,0,0,0,0,0,0,0,0,0,-1,1609,876,0,0
392,148,0,0,0,0,0,0,0,0,0,-1,1616,876,0,0
399,148,0,0,0,0,0,0,0,0,0,-1,1623,876,0,0
406,148,0,0,0,0,0,0,0,0,0,-1,1630,876,0,0
413,148,0,0,0,0,0,0,0,0,0,-1,1637,876,0,0
420,148,0,0,0,0,0,0,0,0,0,-1,1644,876,0,0
427,148,0,0,0,0,0,0,0,0,0,-1,1651,876,0,0
434,148,0,0,0,0,0,0,0,0,0,-1,1658,876,0,0
441,148,0,0,0,0,0,0,0,0,0,-1,1665,876,0,0
448,148,0,0,0,0,0,0,0,0,0,-1,1672,876,0,0
455,148,0,0,0,0,0,0,0,0,0,-1,1679,876,0,0
462,148,0,0,0,0,0,0,0,0,0,-1,1686,876,0,0
469,148,0,0,0,0,0,0,0,0,0,-1,1693,876,0,0
476,148,0,0,0,0,0,0,0,0,0,-1,1700,876,0,0
483,148,0,0,0,0,0,0,0,0,0,-1,1707,876,0,0
490,148,0,0,0,0,0,0,0,0,0,-1,1714,876,0,0
497,148,0,0,0,0,0,0,0,0,0,-1,1721,876,0,0
504,148,0,0,0,0,0,0,0,0,0,-1,1728,876,0,0
511,148,0,0,0,0,0,0,0,0,0,-1,1735,876,0,0
518,148,0,0,0,0,0,0,0,0,0,-1,1742,876,0,0
525,148,0,0,0,0,0,0,0,0,0,-1,1749,876,0,0
532,148,0,0,0,0,0,0,0,0,0,-1,1756,876,0,0
539,148,0,0,0,0,0,0,0,0,0,-1,1763,876,0,0
546,148,0,0,0,0,0,0,0,0,0,-1,1770,876,0,0
553,148,0,0,0,0,0,0,0,0,0,-1,1777,876,0,0
560,148,0,0,0,0,0,0,0,0,0,-1,1784,876,0,0
567,148,0,0,0,0,0,0,0,0,0,-1,1791,876,0,0
574,148,0,0,0,0,0,0,0,0,0,-1,1798,876,0,0
581,148,0,0,0,0,0,0,0,0,0,-1,1805,876,0,0
588,148,0,0,0,0,0,0,0,0,0,-1,1812,876,0,0
595,148,0,0,0,0,0,0,0,0,0,-1,1819,876,0,0
602,148,0,0,0,0,0,0,0,0,0,-1,1826,876,0,0
609,148,0,0,0,0,0,0,0,0,0,-1,1833,876,0,0
616,148,0,0,0,0,0,0,0,0,0,-1,1840,876,0,0
623,148,83.5405,2.35645,0,0,0,0,0,0,0,-1,1847,876,83.5406,-2.35642
630,148,82.9966,2.61658,0,0,0,0,0,0,0,-1,1854,876,82.9966,-2.61657
637,148,83.2932,2.5246,-0.000241506,0.00417159,7.82255e-05,0.00417298,-0.000242892,1.55308,0.00286638,0.0400859,1861,876,83.2932,-2.52457
644,148,83.377,2.31543,-0.000686369,0.00296929,-0.000206788,0.00298095,-0.00069803,-1.51447,0.00225626,0.0387561,1868,876,83.3769,-2.31543
651,148,83.4567,2.16699,-0.00114867,0.00201772,-0.000460727,0.00208339,-0.00121434,-1.4292,0.00192586,0.0392241,1875,876,83.4566,-2.16702
658,148,83.3835,2.30554,-0.00194129,0.00131321,-0.000884987,0.0015383,-0.00216638,-1.32174,0.00214912,0.0357154,1882,876,83.3835,-2.30556
665,148,83.2257,2.51379,-0.00244682,0.000624078,-0.00148688,0.00122602,-0.00304875,-1.18613,0.00254173,0.028293,1889,876,83.2258,-2.51377
672,148,83.1339,2.71906,0,0,0,0,0,0,0,-1,1896,876,83.134,-2.71904
679,148,83.0853,2.65747,0,0,0,0,0,0,0,-1,1903,876,83.0853,-2.65747
686,148,21.6195,2.40845,0,0,0,0,0,0,0,-1,1910,876,21.6196,-2.40846
693,148,48.1387,1.97351,0,0,0,0,0,0,0,-1,1917,876,48.1387,-1.97351
700,148,70.8271,2.61066,0,0,0,0,0,0,0,-1,1924,876,70.8271,-2.61066
707,148,71.8064,3.302,0,0,0,0,0,0,0,-1,1931,876,71.8065,-3.302
714,148,71.6136,4.1123,0,0,0,0,0,0,0,-1,1938,876,71.6137,-4.11231
721,148,71.2273,4.95544,-0.00253821,0.000430119,-0.00379978,0.0030253,-0.00513339,-0.971583,0.00476255,0.0384419,1945,876,71.2273,-4.95546
728,148,71.2233,5.78003,-0.00261002,0.00132412,-0.00365124,0.00350445,-0.00479035,-1.03248,0.00480815,0.0237715,1952,876,71.2233,-5.78002
735,148,71.1768,6.69739,-0.00259318,0.00286924,-0.00329838,0.00442042,-0.00414435,-1.1312,0.00494573,0.0229873,1959,876,71.1767,-6.69737
742,148,71.0845,7.59161,-0.00243353,0.00527878,-0.0025832,0.00606405,-0.0032188,-1.27568,0.00544272,0.0229963,1966,876,71.0845,-7.59163
749,148,70.9602,8.45599,-0.00219836,0.00798232,-0.00166892,0.00824892,-0.00246497,-1.41239,0.00647917,0.0227811,1973,876,70.9603,-8.45597
756,148,70.8186,9.36371,-0.00188333,0.0108546,-0.000805521,0.0109054,-0.00193407,-1.50789,0.00799331,0.0283503,1980,876,70.8185,-9.36374
763,148,70.7017,10.4095,-0.0018597,0.0141155,-3.41168e-05,0.0141155,-0.00185978,-1.56866,0.0100876,0.0467442,1987,876,70.7017,-10.4095
770,148,70.9866,11.9332,0,0,0,0,0,0,0,-1,1994,876,70.9866,-11.9332
777,148,71.7007,13.3925,0,0,0,0,0,0,0,-1,2001,876,71.7006,-13.3925
784,148,72.7542,14.8773,0,0,0,0,0,0,0,-1,2008,876,72.7542,-14.8772
791,148,71.4524,10.6003,0,0,0,0,0,0,0,-1,2015,876,71.4523,-10.6003
798,148,0,0,0,0,0,0,0,0,0,-1,2022,876,0,0
805,148,0,0,0,0,0,0,0,0,0,-1,2029,876,0,0
812,148,0,0,0,0,0,0,0,0,0,-1,2036,876,0,0
-700,141,0,0,0,0,0,0,0,0,0,-1,524,883,0,0
-693,141,0,0,0,0,0,0,0,0,0,-1,531,883,0,0
-686,141,0,0,0,0,0,0,0,0,0,-1,538,883,0,0
-679,141,0,0,0,0,0,0,0,0,0,-1,545,883,0,0
-672,141,-48.7804,-0.600891,0,0,0,0,0,0,0,-1,552,883,-48.7804,0.600898
-665,141,-48.764,-3.67065,0,0,0,0,0,0,0,-1,559,883,-48.764,3.67066
-658,141,-52.3438,3.12531,0,0,0,0,0,0,0,-1,566,883,-52.3438,-3.1253
-651,141,-53.1779,1.50293,0,0,0,0,0,0,0,-1,573,883,-53.1778,-1.50292
-644,141,-52.4205,-0.191956,0,0,0,0,0,0,0,-1,580,883,-52.4205,0.191941
-637,141,-52.859,0.400024,0,0,0,0,0,0,0,-1,587,883,-52.859,-0.400006
-630,141,-54.806,10.5195,0,0,0,0,0,0,0,-1,594,883,-54.806,-10.5195
-623,141,-55.1561,9.25897,-0.0123611,0.00762947,0.00406112,0.00842299,-0.0131546,1.37783,0.0125573,0.0382007,601,883,-55.1561,-9.25896
-616,141,-55.4853,8.15808,-0.0082751,0.00585732,0.00372982,0.00678129,-0.00919907,1.32796,0.00926139,0.0156448,608,883,-55.4853,-8.15808
-609,141,-55.6331,7.2373,-0.00466168,0.00438186,0.00374756,0.00573296,-0.00601278,1.22477,0.00678205,0.0139724,615,883,-55.6331,-7.23732
-602,141,-55.7133,6.31134,-0.00186566,0.00318092,0.00385998,0.00526919,-0.00395392,1.07489,0.00534298,0.0169218,622,883,-55.7133,-6.31132
-595,141,-55.6671,5.34839,-0.000213516,0.00228274,0.00354098,0.00478913,-0.0027199,0.95484,0.00438986,0.0219596,629,883,-55.6671,-5.34836
-588,141,-56.1289,4.36139,0.000217538,0.00169283,0.00287514,0.00392344,-0.00201307,0.91097,0.0034861,0.0413025,636,883,-56.1289,-4.36137
-581,141,-56.4897,3.33344,0,0,0,0,0,0,0,-1,643,883,-56.4897,-3.33342
-574,141,-42.7302,0.864685,0,0,0,0,0,0,0,-1,650,883,-42.7301,-0.864692
-567,141,-30.5335,0.480103,0,0,0,0,0,0,0,-1,657,883,-30.5335,-0.480081
-560,141,-30.5542,0.23175,0,0,0,0,0,0,0,-1,664,883,-30.5542,-0.231742
-553,141,-32.0876,1.39459,0,0,0,0,0,0,0,-1,671,883,-32.0876,-1.3946
-546,141,-66.6297,0.496033,0,0,0,0,0,0,0,-1,678,883,-66.6297,-0.496034
-539,141,-66.6245,0.490601,-3.37994e-05,0.000524404,0.000564445,0.000874981,-0.000384377,1.01501,0.000745255,0.0301305,685,883,-66.6244,-0.490612
-532,141,-66.6996,0.430542,0.000192193,0.000200292,-0.00023775,0.000434026,-4.15418e-05,-0.793913,0.000304145,0.0294835,692,883,-66.6996,-0.430531
-525,141,-66.6968,0.413818,0.000607303,0.000311441,-0.000103459,0.000639892,0.000278852,-0.305152,0.000370456,0.0384833,699,883,-66.6968,-0.413809
-518,141,-66.6776,0.444031,0.00187903,0.000379282,0.000620691,0.00210259,0.000155725,0.345709,0.00135281,0.0440923,706,883,-66.6776,-0.444045
-511,141,-66.6522,0.606812,0.00488453,0.000801519,0.00192975,0.00565224,3.38131e-05,0.378632,0.00375694,0.0395969,713,883,-66.6522,-0.606787
-504,141,-66.637,0.741699,0,0,0,0,0,0,0,-1,720,883,-66.637,-0.741682
-497,141,0,0,0,0,0,0,0,0,0,-1,727,883,0,0
-490,141,0,0,0,0,0,0,0,0,0,-1,734,883,0,0
-483,141,0,0,0,0,0,0,0,0,0,-1,741,883,0,0
-476,141,0,0,0,0,0,0,0,0,0,-1,748,883,0,0
-469,141,0,0,0,0,0,0,0,0,0,-1,755,883,0,0
-462,141,0,0,0,0,0,0,0,0,0,-1,762,883,0,0
-455,141,0,0,0,0,0,0,0,0,0,-1,769,883,0,0
-448,141,0,0,0,0,0,0,0,0,0,-1,776,883,0,0
-441,141,0,0,0,0,0,0,0,0,0,-1,783,883,0,0
-434,141,0,0,0,0,0,0,0,0,0,-1,790,883,0,0
-427,141,0,0,0,0,0,0,0,0,0,-1,797,883,0,0
-420,141,0,0,0,0,0,0,0,0,0,-1,804,883,0,0
-413,141,0,0,0,0,0,0,0,0,0,-1,811,883,0,0
-406,141,0,0,0,0,0,0,0,0,0,-1,818,883,0,0
-399,141,0,0,0,0,0,0,0,0,0,-1,825,883,0,0
-392,141,0,0,0,0,0,0,0,0,0,-1,832,883,0,0
-385,141,0,0,0,0,0,0,0,0,0,-1,839,883,0,0
-378,141,0,0,0,0,0,0,0,0,0,-1,846,883,0,0
-371,141,0,0,0,0,0,0,0,0,0,-1,853,883,0,0
-364,141,0,0,0,0,0,0,0,0,0,-1,860,883,0,0
-357,141,0,0,0,0,0,0,0,0,0,-1,867,883,0,0
-350,141,0,0,0,0,0,0,0,0,0,-1,874,883,0,0
-343,141,0,0,0,0,0,0,0,0,0,-1,881,883,0,0
-336,141,0,0,0,0,0,0,0,0,0,-1,888,883,0,0
-329,141,0,0,0,0,0,0,0,0,0,-1,895,883,0,0
-322,141,0,0,0,0,0,0,0,0,0,-1,902,883,0,0
-315,141,0,0,0,0,0,0,0,0,0,-1,909,883,0,0
-308,141,0,0,0,0,0,0,0,0,0,-1,916,883,0,0
-301,141,0,0,0,0,0,0,0,0,0,-1,923,883,0,0
-294,141,0,0,0,0,0,0,0,0,0,-1,930,883,0,0
-287,141,0,0,0,0,0,0,0,0,0,-1,937,883,0,0
-280,141,0,0,0,0,0,0,0,0,0,-1,944,883,0,0
-273,141,0,0,0,0,0,0,0,0,0,-1,951,883,0,0
-266,141,0,0,0,0,0,0,0,0,0,-1,958,883,0,0
-259,141,0,0,0,0,0,0,0,0,0,-1,965,883,0,0
-252,141,0,0,0,0,0,0,0,0,0,-1,972,883,0,0
-245,141,0,0,0,0,0,0,0,0,0,-1,979,883,0,0
-238,141,0,0,0,0,0,0,0,0,0,-1,986,883,0,0
-231,141,0,0,0,0,0,0,0,0,0,-1,993,883,0,0
-224,141,0,0,0,0,0,0,0,0,0,-1,1000,883,0,0
-217,141,0,0,0,0,0,0,0,0,0,-1,1007,883,0,0
-210,141,0,0,0,0,0,0,0,0,0,-1,1014,883,0,0
-203,141,0,0,0,0,0,0,0,0,0,-1,1021,883,0,0
-196,141,0,0,0,0,0,0,0,0,0,-1,1028,883,0,0
-189,141,0,0,0,0,0,0,0,0,0,-1,1035,883,0,0
-182,141,0,0,0,0,0,0,0,0,0,-1,1042,883,0,0
-175,141,0,0,0,0,0,0,0,0,0,-1,1049,883,0,0
-168,141,0,0,0,0,0,0,0,0,0,-1,1056,883,0,0
-161,141,0,0,0,0,0,0,0,0,0,-1,1063,883,0,0
-154,141,0,0,0,0,0,0,0,0,0,-1,1070,883,0,0
-147,141,0,0,0,0,0,0,0,0,0,-1,1077,883,0,0
-140,141,0,0,0,0,0,0,0,0,0,-1,1084,883,0,0
-133,141,0,0,0,0,0,0,0,0,0,-1,1091,883,0,0
-126,141,0,0,0,0,0,0,0,0,0,-1,1098,883,0,0
-119,141,0,0,0,0,0,0,0,0,0,-1,1105,883,0,0
-112,141,0,0,0,0,0,0,0,0,0,-1,1112,883,0,0
-105,141,0,0,0,0,0,0,0,0,0,-1,1119,883,0,0
-98,141,0,0,0,0,0,0,0,0,0,-1,1126,883,0,0
-91,141,0,0,0,0,0,0,0,0,0,-1,1133,883,0,0
-84,141,0,0,0,0,0,0,0,0,0,-1,1140,883,0,0
-77,141,0,0,0,0,0,0,0,0,0,-1,1147,883,0,0
-70,141,0,0,0,0,0,0,0,0,0,-1,1154,883,0,0
-63,141,0,0,0,0,0,0,0,0,0,-1,1161,883,0,0
-56,141,0,0,0,0,0,0,0,0,0,-1,1168,883,0,0
-49,141,0,0,0,0,0,0,0,0,0,-1,1175,883,0,0
-42,141,0,0,0,0,0,0,0,0,0,-1,1182,883,0,0
-35,141,0,0,0,0,0,0,0,0,0,-1,1189,883,0,0
-28,141,0,0,0,0,0,0,0,0,0,-1,1196,883,0,0
-21,141,0,0,0,0,0,0,0,0,0,-1,1203,883,0,0
-14,141,0,0,0,0,0,0,0,0,0,-1,1210,883,0,0
-7,141,0,0,0,0,0,0,0,0,0,-1,1217,883,0,0
0,141,0,0,0,0,0,0,0,0,0,-1,1224,883,0,0
7,141,0,0,0,0,0,0,0,0,0,-1,1231,883,0,0
14,141,0,0,0,0,0,0,0,0,0,-1,1238,883,0,0
21,141,0,0,0,0,0,0,0,0,0,-1,1245,883,0,0
28,141,0,0,0,0,0,0,0,0,0,-1,1252,883,0,0
35,141,0,0,0,0,0,0,0,0,0,-1,1259,883,0,0
42,141,0,0,0,0,0,0,0,0,0,-1,1266,883,0,0
49,141,0,0,0,0,0,0,0,0,0,-1,1273,883,0,0
56,141,0,0,0,0,0,0,0,0,0,-1,1280,883,0,0
63,141,0,0,0,0,0,0,0,0,0,-1,1287,883,0,0
70,141,0,0,0,0,0,0,0,0,0,-1,1294,883,0,0
77,141,0,0,0,0,0,0,0,0,0,-1,1301,883,0,0
84,141,0,0,0,0,0,0,0,0,0,-1,1308,883,0,0
91,141,0,0,0,0,0,0,0,0,0,-1,1315,883,0,0
98,141,0,0,0,0,0,0,0,0,0,-1,1322,883,0,0
105,141,0,0,0,0,0,0,0,0,0,-1,1329,883,0,0
112,141,0,0,0,0,0,0,0,0,0,-1,1336,883,0,0
119,141,0,0,0,0,0,0,0,0,0,-1,1343,883,0,0
126,141,0,0,0,0,0,0,0,0,0,-1,1350,883,0,0
133,141,0,0,0,0,0,0,0,0,0,-1,1357,883,0,0
140,141,0,0,0,0,0,0,0,0,0,-1,1364,883,0,0
147,141,0,0,0,0,0,0,0,0,0,-1,1371,883,0,0
154,141,0,0,0,0,0,0,0,0,0,-1,1378,883,0,0
161,141,0,0,0,0,0,0,0,0,0,-1,1385,883,0,0
168,141,0,0,0,0,0,0,0,0,0,-1,1392,883,0,0
175,141,0,0,0,0,0,0,0,0,0,-1,1399,883,0,0
182,141,0,0,0,0,0,0,0,0,0,-1,1406,883,0,0
189,141,0,0,0,0,0,0,0,0,0,-1,1413,883,0,0
196,141,0,0,0,0,0,0,0,0,0,-1,1420,883,0,0
203,141,0,0,0,0,0,0,0,0,0,-1,1427,883,0,0
210,141,0,0,0,0,0,0,0,0,0,-1,1434,883,0,0
217,141,0,0,0,0,0,0,0,0,0,-1,1441,883,0,0
224,141,0,0,0,0,0,0,0,0,0,-1,1448,883,0,0
231,141,0,0,0,0,0,0,0,0,0,-1,1455,883,0,0
238,141,0,0,0,0,0,0,0,0,0,-1,1462,883,0,0
245,141,0,0,0,0,0,0,0,0,0,-1,1469,883,0,0
252,141,0,0,0,0,0,0,0,0,0,-1,1476,883,0,0
259,141,0,0,0,0,0,0,0,0,0,-1,1483,883,0,0
266,141,0,0,0,0,0,0,0,0,0,-1,1490,883,0,0
273,141,0,0,0,0,0,0,0,0,0,-1,1497,883,0,0
280,141,0,0,0,0,0,0,0,0,0,-1,1504,883,0,0
287,141,0,0,0,0,0,0,0,0,0,-1,1511,883,0,0
294,141,0,0,0,0,0,0,0,0,0,-1,1518,883,0,0
301,141,0,0,0,0,0,0,0,0,0,-1,1525,883,0,0
308,141,0,0,0,0,0,0,0,0,0,-1,1532,883,0,0
315,141,0,0,0,0,0,0,0,0,0,-1,1539,883,0,0
322,141,0,0,0,0,0,0,0,0,0,-1,1546,883,0,0
329,141,0,0,0,0,0,0,0,0,0,-1,1553,883,0,0
336,141,0,0,0,0,0,0,0,0,0,-1,1560,883,0,0
343,141,0,0,0,0,0,0,0,0,0,-1,1567,883,0,0
350,141,0,0,0,0,0,0,0,0,0,-1,1574,883,0,0
357,141,0,0,0,0,0,0,0,0,0,-1,1581,883,0,0
364,141,0,0,0,0,0,0,0,0,0,-1,1588,883,0,0
371,141,0,0,0,0,0,0,0,0,0,-1,1595,883,0,0
378,141,0,0,0,0,0,0,0,0,0,-1,1602,883,0,0
385,141,0,0,0,0,0,0,0,0,0,-1,1609,883,0,0
392,141,0,0,0,0,0,0,0,0,0,-1,1616,883,0,0
399,141,0,0,0,0,0,0,0,0,0,-1,1623,883,0,0
406,141,0,0,0,0,0,0,0,0,0,-1,1630,883,0,0
413,141,0,0,0,0,0,0,0,0,0,-1,1637,883,0,0
420,141,0,0,0,0,0,0,0,0,0,-1,1644,883,0,0
427,141,0,0,0,0,0,0,0,0,0,-1,1651,883,0,0
434,141,0,0,0,0,0,0,0,0,0,-1,1658,883,0,0
441,141,0,0,0,0,0,0,0,0,0,-1,1665,883,0,0
448,141,0,0,0,0,0,0,0,0,0,-1,1672,883,0,0
455,141,0,0,0,0,0,0,0,0,0,-1,1679,883,0,0
462,141,0,0,0,0,0,0,0,0,0,-1,1686,883,0,0
469,141,0,0,0,0,0,0,0,0,0,-1,1693,883,0,0
476,141,0,0,0,0,0,0,0,0,0,-1,1700,883,0,0
483,141,0,0,0,0,0,0,0,0,0,-1,1707,883,0,0
490,141,0,0,0,0,0,0,0,0,0,-1,1714,883,0,0
497,141,0,0,0,0,0,0,0,0,0,-1,1721,883,0,0
504,141,0,0,0,0,0,0,0,0,0,-1,1728,883,0,0
511,141,0,0,0,0,0,0,0,0,0,-1,1735,883,0,0
518,141,0,0,0,0,0,0,0,0,0,-1,1742,883,0,0
525,141,0,0,0,0,0,0,0,0,0,-1,1749,883,0,0
532,141,0,0,0,0,0,0,0,0,0,-1,1756,883,0,0
539,141,0,0,0,0,0,0,0,0,0,-1,1763,883,0,0
546,141,0,0,0,0,0,0,0,0,0,-1,1770,883,0,0
553,141,0,0,0,0,0,0,0,0,0,-1,1777,883,0,0
560,141,0,0,0,0,0,0,0,0,0,-1,1784,883,0,0
567,141,0,0,0,0,0,0,0,0,0,-1,1791,883,0,0
574,141,0,0,0,0,0,0,0,0,0,-1,1798,883,0,0
581,141,0,0,0,0,0,0,0,0,0,-1,1805,883,0,0
588,141,0,0,0,0,0,0,0,0,0,-1,1812,883,0,0
595,141,0,0,0,0,0,0,0,0,0,-1,1819,883,0,0
602,141,0,0,0,0,0,0,0,0,0,-1,1826,883,0,0
609,141,0,0,0,0,0,0,0,0,0,-1,1833,883,0,0
616,141,0,0,0,0,0,0,0,0,0,-1,1840,883,0,0
623,141,83.2089,2.28076,0.000999965,0.0094292,0.00186781,0.00982454,0.000604626,1.36222,0.00635774,0.0459937,1847,883,83.2089,-2.28079
630,141,83.1387,2.49774,0.000790804,0.00667417,0.00075835,0.00677035,0.000694627,1.44465,0.00430076,0.0464088,1854,883,83.1386,-2.49772
637,141,83.2659,2.53113,0.000351791,0.00481183,1.72397e-05,0.0048119,0.000351724,1.56693,0.00309736,0.0449826,1861,883,83.2659,-2.53113
644,141,83.3243,2.2644,-0.000191253,0.00339029,-0.000368488,0.00342781,-0.000228772,-1.46933,0.00236515,0.0424702,1868,883,83.3244,-2.26441
651,141,83.5367,2.12231,-0.000719055,0.00229398,-0.000603984,0.00241054,-0.000835619,-1.38015,0.00194631,0.0413724,1875,883,83.5367,-2.12231
658,141,83.5308,2.22516,-0.00150343,0.00149455,-0.000932282,0.00176081,-0.00176969,-1.2926,0.00203834,0.0373018,1882,883,83.5308,-2.22518
665,141,83.2366,2.474,-0.00200596,0.000658914,-0.00149558,0.00132951,-0.00267656,-1.14929,0.00235609,0.0301448,1889,883,83.2366,-2.47401
672,141,83.233,2.49225,-0.00197042,2.05415e-05,-0.00182172,0.00110102,-0.00305091,-1.03546,0.00248367,0.025602,1896,883,83.233,-2.49222
679,141,83.1744,2.55536,-0.00195577,-0.000357037,-0.0020914,0.00108256,-0.00339536,-0.967939,0.00269783,0.0391474,1903,883,83.1745,-2.55538
686,141,83.0568,2.75909,0,0,0,0,0,0,0,-1,1910,883,83.0568,-2.7591
693,141,51.7202,1.76593,0,0,0,0,0,0,0,-1,1917,883,51.7202,-1.76595
700,141,62.7651,1.95361,0,0,0,0,0,0,0,-1,1924,883,62.7651,-1.95364
707,141,72.3369,3.32953,0,0,0,0,0,0,0,-1,1931,883,72.3369,-3.32956
714,141,72.0637,4.13391,0,0,0,0,0,0,0,-1,1938,883,72.0637,-4.13392
721,141,72.167,4.95514,-0.00261804,0.000290725,-0.00382979,0.00293299,-0.00526031,-0.966864,0.0047936,0.0246269,1945,883,72.167,-4.95513
728,141,72.2466,5.82703,-0.00280967,0.00113508,-0.00380352,0.00344721,-0.0051218,-1.02459,0.00497871,0.0188461,1952,883,72.2466,-5.82701
735,141,72.1564,6.84308,-0.00288005,0.00281309,-0.00363906,0.00458666,-0.00465363,-1.1173,0.00533493,0.0228845,1959,883,72.1563,-6.84307
742,141,71.9985,7.64874,-0.00266161,0.00567459,-0.00302251,0.00665514,-0.00364216,-1.25709,0.00602939,0.0228856,1966,883,71.9986,-7.64877
749,141,71.9496,8.45593,-0.00206911,0.00911099,-0.002049,0.00947469,-0.0024328,-1.39513,0.00726447,0.0162031,1973,883,71.9496,-8.45595
756,141,71.8579,9.35767,-0.00104249,0.0128216,-0.000985755,0.0128913,-0.00111223,-1.50017,0.00898793,0.0231326,1980,883,71.8579,-9.35766
763,141,71.626,10.1156,0.000304717,0.016962,0.000165839,0.0169636,0.000303066,1.56084,0.0112094,0.0446873,1987,883,71.626,-10.1156
770,141,71.3499,10.8929,0,0,0,0,0,0,0,-1,1994,883,71.3498,-10.8929
777,141,72.8596,12.3964,0,0,0,0,0,0,0,-1,2001,883,72.8597,-12.3963
784,141,73.3435,9.80182,0,0,0,0,0,0,0,-1,2008,883,73.3434,-9.80183
791,141,73.7993,11.1595,0,0,0,0,0,0,0,-1,2015,883,73.7994,-11.1595
798,141,0,0,0,0,0,0,0,0,0,-1,2022,883,0,0
805,141,0,0,0,0,0,0,0,0,0,-1,2029,883,0,0
812,141,0,0,0,0,0,0,0,0,0,-1,2036,883,0,0
-700,134,0,0,0,0,0,0,0,0,0,-1,524,890,0,0
-693,134,0,0,0,0,0,0,0,0,0,-1,531,890,0,0
-686,134,0,0,0,0,0,0,0,0,0,-1,538,890,0,0
-679,134,0,0,0,0,0,0,0,0,0,-1,545,890,0,0
-672,134,-49.3306,-0.500671,0,0,0,0,0,0,0,-1,552,890,-49.3306,0.500651
-665,134,-49.3356,-3.00098,0,0,0,0,0,0,0,-1,559,890,-49.3356,3.00096
-658,134,-49.3368,-5.46246,0,0,0,0,0,0,0,-1,566,890,-49.3368,5.46248
-651,134,-53.0905,0.530762,0,0,0,0,0,0,0,-1,573,890,-53.0905,-0.530792
-644,134,-51.8253,-1.26782,0,0,0,0,0,0,0,-1,580,890,-51.8253,1.26783
-637,134,-50.5067,-2.83545,0,0,0,0,0,0,0,-1,587,890,-50.5066,2.83545
-630,134,-55.7804,9.78827,0,0,0,0,0,0,0,-1,594,890,-55.7804,-9.78827
-623,134,-56.075,9.04053,-0.0141005,0.0095091,0.00523774,0.0106189,-0.0152103,1.362,0.0149909,0.0368942,601,890,-56.075,-9.0405
-616,134,-56.4513,8.19153,-0.00937314,0.00710601,0.00461003,0.00830799,-0.0105751,1.31574,0.0109283,0.0159721,608,890,-56.4513,-8.19152
-609,134,-56.607,7.28259,-0.0051964,0.00487845,0.00434904,0.00649609,-0.00681403,1.2147,0.00768533,0.0114301,615,890,-56.607,-7.28257
-602,134,-56.6427,6.34937,-0.00226552,0.0031159,0.00419474,0.00540874,-0.00455836,1.07057,0.00576148,0.012846,622,890,-56.6427,-6.34939
-595,134,-56.4781,5.49811,-0.000801677,0.00199763,0.00372024,0.0045728,-0.00337685,0.965321,0.00460701,0.0340924,629,890,-56.4781,-5.49812
-588,134,-56.2878,4.60309,0,0,0,0,0,0,0,-1,636,890,-56.2878,-4.6031
-581,134,-55.6422,3.07727,0,0,0,0,0,0,0,-1,643,890,-55.6422,-3.07728
-574,134,-31.1517,0.757751,0,0,0,0,0,0,0,-1,650,890,-31.1517,-0.757758
-567,134,-30.9003,0.296326,0,0,0,0,0,0,0,-1,657,890,-30.9002,-0.296302
-560,134,-22.9123,0.106567,0,0,0,0,0,0,0,-1,664,890,-22.9123,-0.106594
-553,134,-66.6158,0.49469,0,0,0,0,0,0,0,-1,671,890,-66.6158,-0.49468
-546,134,-66.6341,0.513184,-0.000151139,-0.000237045,0.000901805,0.000708736,-0.00109692,0.761601,0.00105049,0.0305481,678,890,-66.6341,-0.513196
-539,134,-66.6292,0.519409,-0.000860968,-6.43559e-05,0.000473771,0.000156294,-0.00108162,1.13494,0.000778424,0.0175812,685,890,-66.6292,-0.519424
-532,134,-66.6324,0.531799,-0.000451153,-0.000305852,-0.000275876,-9.32207e-05,-0.000663784,-0.914148,0.000414954,0.0227688,692,890,-66.6324,-0.531772
-525,134,-66.6516,0.473267,0.000536225,-2.69846e-05,8.66009e-05,0.00054924,-3.99999e-05,0.149174,0.000380196,0.035425,699,890,-66.6516,-0.473256
-518,134,-66.5505,0.512024,0.00235883,0.000254488,0.000937976,0.00271622,-0.000102902,0.36404,0.00184607,0.0442988,706,890,-66.5505,-0.512018
-511,134,-66.5078,0.679626,0.00530195,0.000790435,0.00218726,0.00618825,-9.58655e-05,0.384991,0.00415782,0.0454642,713,890,-66.5078,-0.679604
-504,134,0,0,0,0,0,0,0,0,0,-1,720,890,0,0
-497,134,0,0,0,0,0,0,0,0,0,-1,727,890,0,0
-490,134,0,0,0,0,0,0,0,0,0,-1,734,890,0,0
-483,134,0,0,0,0,0,0,0,0,0,-1,741,890,0,0
-476,134,0,0,0,0,0,0,0,0,0,-1,748,890,0,0
-469,134,0,0,0,0,0,0,0,0,0,-1,755,890,0,0
-462,134,0,0,0,0,0,0,0,0,0,-1,762,890,0,0
-455,134,0,0,0,0,0,0,0,0,0,-1,769,890,0,0
-448,134,0,0,0,0,0,0,0,0,0,-1,776,890,0,0
-441,134,0,0,0,0,0,0,0,0,0,-1,783,890,0,0
-434,134,0,0,0,0,0,0,0,0,0,-1,790,890,0,0
-427,134,0,0,0,0,0,0,0,0,0,-1,797,890,0,0
-420,134,0,0,0,0,0,0,0,0,0,-1,804,890,0,0
-413,134,0,0,0,0,0,0,0,0,0,-1,811,890,0,0
-406,134,0,0,0,0,0,0,0,0,0,-1,818,890,0,0
-399,134,0,0,0,0,0,0,0,0,0,-1,825,890,0,0
-392,134,0,0,0,0,0,0,0,0,0,-1,832,890,0,0
-385,134,0,0,0,0,0,0,0,0,0,-1,839,890,0,0
-378,134,0,0,0,0,0,0,0,0,0,-1,846,890,0,0
-371,134,0,0,0,0,0,0,0,0,0,-1,853,890,0,0
-364,134,0,0,0,0,0,0,0,0,0,-1,860,890,0,0
-357,134,0,0,0,0,0,0,0,0,0,-1,867,890,0,0
-350,134,0,0,0,0,0,0,0,0,0,-1,874,890,0,0
-343,134,0,0,0,0,0,0,0,0,0,-1,881,890,0,0
-336,134,0,0,0,0,0,0,0,0,0,-1,888,890,0,0
-329,134,0,0,0,0,0,0,0,0,0,-1,895,890,0,0
-322,134,0,0,0,0,0,0,0,0,0,-1,902,890,0,0
-315,134,0,0,0,0,0,0,0,0,0,-1,909,890,0,0
-308,134,0,0,0,0,0,0,0,0,0,-1,916,890,0,0
-301,134,0,0,0,0,0,0,0,0,0,-1,923,890,0,0
-294,134,0,0,0,0,0,0,0,0,0,-1,930,890,0,0
-287,134,0,0,0,0,0,0,0,0,0,-1,937,890,0,0
-280,134,0,0,0,0,0,0,0,0,0,-1,944,890,0,0
-273,134,0,0,0,0,0,0,0,0,0,-1,951,890,0,0
-266,134,0,0,0,0,0,0,0,0,0,-1,958,890,0,0
-259,134,0,0,0,0,0,0,0,0,0,-1,965,890,0,0
-252,134,0,0,0,0,0,0,0,0,0,-1,972,890,0,0
-245,134,0,0,0,0,0,0,0,0,0,-1,979,890,0,0
-238,134,0,0,0,0,0,0,0,0,0,-1,986,890,0,0
-231,134,0,0,0,0,0,0,0,0,0,-1,993,890,0,0
-224,134,0,0,0,0,0,0,0,0,0,-1,1000,890,0,0
-217,134,0,0,0,0,0,0,0,0,0,-1,1007,890,0,0
-210,134,0,0,0,0,0,0,0,0,0,-1,1014,890,0,0
-203,134,0,0,0,0,0,0,0,0,0,-1,1021,890,0,0
-196,134,0,0,0,0,0,0,0,0,0,-1,1028,890,0,0
-189,134,0,0,0,0,0,0,0,0,0,-1,1035,890,0,0
-182,134,0,0,0,0,0,0,0,0,0,-1,1042,890,0,0
-175,134,0,0,0,0,0,0,0,0,0,-1,1049,890,0,0
-168,134,0,0,0,0,0,0,0,0,0,-1,1056,890,0,0
-161,134,0,0,0,0,0,0,0,0,0,-1,1063,890,0,0
-154,134,0,0,0,0,0,0,0,0,0,-1,1070,890,0,0
-147,134,0,0,0,0,0,0,0,0,0,-1,1077,890,0,0
-140,134,0,0,0,0,0,0,0,0,0,-1,1084,890,0,0
-133,134,0,0,0,0,0,0,0,0,0,-1,1091,890,0,0
-126,134,0,0,0,0,0,0,0,0,0,-1,1098,890,0,0
-119,134,0,0,0,0,0,0,0,0,0,-1,1105,890,0,0
-112,134,0,0,0,0,0,0,0,0,0,-1,1112,890,0,0
-105,134,0,0,0,0,0,0,0,0,0,-1,1119,890,0,0
-98,134,0,0,0,0,0,0,0,0,0,-1,1126,890,0,0
-91,134,0,0,0,0,0,0,0,0,0,-1,1133,890,0,0
-84,134,0,0,0,0,0,0,0,0,0,-1,1140,890,0,0
-77,134,0,0,0,0,0,0,0,0,0,-1,1147,890,0,0
-70,134,0,0,0,0,0,0,0,0,0,-1,1154,890,0,0
-63,134,0,0,0,0,0,0,0,0,0,-1,1161,890,0,0
-56,134,0,0,0,0,0,0,0,0,0,-1,1168,890,0,0
-49,134,0,0,0,0,0,0,0,0,0,-1,1175,890,0,0
-42,134,0,0,0,0,0,0,0,0,0,-1,1182,890,0,0
-35,134,0,0,0,0,0,0,0,0,0,-1,1189,890,0,0
-28,134,0,0,0,0,0,0,0,0,0,-1,1196,890,0,0
-21,134,0,0,0,0,0,0,0,0,0,-1,1203,890,0,0
-14,134,0,0,0,0,0,0,0,0,0,-1,1210,890,0,0
-7,134,0,0,0,0,0,0,0,0,0,-1,1217,890,0,0
0,134,0,0,0,0,0,0,0,0,0,-1,1224,890,0,0
7,134,0,0,0,0,0,0,0,0,0,-1,1231,890,0,0
14,134,0,0,0,0,0,0,0,0,0,-1,1238,890,0,0
21,134,0,0,0,0,0,0,0,0,0,-1,1245,890,0,0
28,134,0,0,0,0,0,0,0,0,0,-1,1252,890,0,0
35,134,0,0,0,0,0,0,0,0,0,-1,1259,890,0,0
42,134,0,0,0,0,0,0,0,0,0,-1,1266,890,0,0
49,134,0,0,0,0,0,0,0,0,0,-1,1273,890,0,0
56,134,0,0,0,0,0,0,0,0,0,-1,1280,890,0,0
63,134,0,0,0,0,0,0,0,0,0,-1,1287,890,0,0
70,134,0,0,0,0,0,0,0,0,0,-1,1294,890,0,0
77,134,0,0,0,0,0,0,0,0,0,-1,1301,890,0,0
84,134,0,0,0,0,0,0,0,0,0,-1,1308,890,0,0
91,134,0,0,0,0,0,0,0,0,0,-1,1315,890,0,0
98,134,0,0,0,0,0,0,0,0,0,-1,1322,890,0,0
105,134,0,0,0,0,0,0,0,0,0,-1,1329,890,0,0
112,134,0,0,0,0,0,0,0,0,0,-1,1336,890,0,0
119,134,0,0,0,0,0,0,0,0,0,-1,1343,890,0,0
126,134,0,0,0,0,0,0,0,0,0,-1,1350,890,0,0
133,134,0,0,0,0,0,0,0,0,0,-1,1357,890,0,0
140,134,0,0,0,0,0,0,0,0,0,-1,1364,890,0,0
147,134,0,0,0,0,0,0,0,0,0,-1,1371,890,0,0
154,134,0,0,0,0,0,0,0,0,0,-1,1378,890,0,0
161,134,0,0,0,0,0,0,0,0,0,-1,1385,890,0,0
168,134,0,0,0,0,0,0,0,0,0,-1,1392,890,0,0
175,134,0,0,0,0,0,0,0,0,0,-1,1399,890,0,0
182,134,0,0,0,0,0,0,0,0,0,-1,1406,890,0,0
189,134,0,0,0,0,0,0,0,0,0,-1,1413,890,0,0
196,134,0,0,0,0,0,0,0,0,0,-1,1420,890,0,0
203,134,0,0,0,0,0,0,0,0,0,-1,1427,890,0,0
210,134,0,0,0,0,0,0,0,0,0,-1,1434,890,0,0
217,134,0,0,0,0,0,0,0,0,0,-1,1441,890,0,0
224,134,0,0,0,0,0,0,0,0,0,-1,1448,890,0,0
231,134,0,0,0,0,0,0,0,0,0,-1,1455,890,0,0
238,134,0,0,0,0,0,0,0,0,0,-1,1462,890,0,0
245,134,0,0,0,0,0,0,0,0,0,-1,1469,890,0,0
252,134,0,0,0,0,0,0,0,0,0,-1,1476,890,0,0
259,134,0,0,0,0,0,0,0,0,0,-1,1483,890,0,0
266,134,0,0,0,0,0,0,0,0,0,-1,1490,890,0,0
273,134,0,0,0,0,0,0,0,0,0,-1,1497,890,0,0
280,134,0,0,0,0,0,0,0,0,0,-1,1504,890,0,0
287,134,0,0,0,0,0,0,0,0,0,-1,1511,890,0,0
294,134,0,0,0,0,0,0,0,0,0,-1,1518,890,0,0
301,134,0,0,0,0,0,0,0,0,0,-1,1525,890,0,0
308,134,0,0,0,0,0,0,0,0,0,-1,1532,890,0,0
315,134,0,0,0,0,0,0,0,0,0,-1,1539,890,0,0
322,134,0,0,0,0,0,0,0,0,0,-1,1546,890,0,0
329,134,0,0,0,0,0,0,0,0,0,-1,1553,890,0,0
336,134,0,0,0,0,0,0,0,0,0,-1,1560,890,0,0
343,134,0,0,0,0,0,0,0,0,0,-1,1567,890,0,0
350,134,0,0,0,0,0,0,0,0,0,-1,1574,890,0,0
357,134,0,0,0,0,0,0,0,0,0,-1,1581,890,0,0
364,134,0,0,0,0,0,0,0,0,0,-1,1588,890,0,0
371,134,0,0,0,0,0,0,0,0,0,-1,1595,890,0,0
378,134,0,0,0,0,0,0,0,0,0,-1,1602,890,0,0
385,134,0,0,0,0,0,0,0,0,0,-1,1609,890,0,0
392,134,0,0,0,0,0,0,0,0,0,-1,1616,890,0,0
399,134,0,0,0,0,0,0,0,0,0,-1,1623,890,0,0
406,134,0,0,0,0,0,0,0,0,0,-1,1630,890,0,0
413,134,0,0,0,0,0,0,0,0,0,-1,1637,890,0,0
420,134,0,0,0,0,0,0,0,0,0,-1,1644,890,0,0
427,134,0,0,0,0,0,0,0,0,0,-1,1651,890,0,0
434,134,0,0,0,0,0,0,0,0,0,-1,1658,890,0,0
441,134,0,0,0,0,0,0,0,0,0,-1,1665,890,0,0
448,134,0,0,0,0,0,0,0,0,0,-1,1672,890,0,0
455,134,0,0,0,0,0,0,0,0,0,-1,1679,890,0,0
462,134,0,0,0,0,0,0,0,0,0,-1,1686,890,0,0
469,134,0,0,0,0,0,0,0,0,0,-1,1693,890,0,0
476,134,0,0,0,0,0,0,0,0,0,-1,1700,890,0,0
483,134,0,0,0,0,0,0,0,0,0,-1,1707,890,0,0
490,134,0,0,0,0,0,0,0,0,0,-1,1714,890,0,0
497,134,0,0,0,0,0,0,0,0,0,-1,1721,890,0,0
504,134,0,0,0,0,0,0,0,0,0,-1,1728,890,0,0
511,134,0,0,0,0,0,0,0,0,0,-1,1735,890,0,0
518,134,0,0,0,0,0,0,0,0,0,-1,1742,890,0,0
525,134,0,0,0,0,0,0,0,0,0,-1,1749,890,0,0
532,134,0,0,0,0,0,0,0,0,0,-1,1756,890,0,0
539,134,0,0,0,0,0,0,0,0,0,-1,1763,890,0,0
546,134,0,0,0,0,0,0,0,0,0,-1,1770,890,0,0
553,134,0,0,0,0,0,0,0,0,0,-1,1777,890,0,0
560,134,0,0,0,0,0,0,0,0,0,-1,1784,890,0,0
567,134,0,0,0,0,0,0,0,0,0,-1,1791,890,0,0
574,134,0,0,0,0,0,0,0,0,0,-1,1798,890,0,0
581,134,0,0,0,0,0,0,0,0,0,-1,1805,890,0,0
588,134,0,0,0,0,0,0,0,0,0,-1,1812,890,0,0
595,134,0,0,0,0,0,0,0,0,0,-1,1819,890,0,0
602,134,0,0,0,0,0,0,0,0,0,-1,1826,890,0,0
609,134,0,0,0,0,0,0,0,0,0,-1,1833,890,0,0
616,134,0,0,0,0,0,0,0,0,0,-1,1840,890,0,0
623,134,83.4042,2.24512,0.00114253,0.0115822,0.00237251,0.0120961,0.00062865,1.35749,0.00786289,0.0470698,1847,890,83.4042,-2.24512
630,134,83.2583,2.45551,0.00102394,0.00827064,0.000996505,0.00840517,0.000889402,1.4366,0.00533176,0.047116,1854,890,83.2583,-2.45548
637,134,83.2496,2.58264,0.000715489,0.00604907,6.3796e-05,0.00604983,0.000714727,1.55884,0.00381735,0.0452676,1861,890,83.2497,-2.58264
644,134,83.3,2.57239,0.000234161,0.00433365,-0.000461159,0.00438489,0.000182924,-1.46015,0.00286423,0.041331,1868,890,83.3,-2.57237
651,134,83.4464,2.31805,-0.000256209,0.00301449,-0.000723235,0.00316728,-0.000408997,-1.3626,0.00226022,0.0427993,1875,890,83.4464,-2.31808
658,134,83.4767,2.29254,-0.000964729,0.00204158,-0.000949595,0.0023164,-0.00123955,-1.28908,0.00208417,0.0400431,1882,890,83.4766,-2.29255
665,134,83.2771,2.36041,-0.00146469,0.00103105,-0.00141254,0.00166797,-0.00210162,-1.14719,0.00218117,0.0350078,1889,890,83.2771,-2.36043
672,134,83.2811,2.36279,-0.00153085,0.000278509,-0.00167858,0.00128068,-0.00253302,-1.03256,0.00224107,0.0260801,1896,890,83.2811,-2.3628
679,134,83.2552,2.4082,-0.00160563,-0.0002308,-0.00193015,0.00113069,-0.00296713,-0.956468,0.00244379,0.0244533,1903,890,83.2552,-2.40823
686,134,83.2271,2.49072,0,0,0,0,0,0,0,-1,1910,890,83.2271,-2.49071
693,134,34.5778,2.48096,0,0,0,0,0,0,0,-1,1917,890,34.5777,-2.48099
700,134,73.0376,1.93237,0,0,0,0,0,0,0,-1,1924,890,73.0376,-1.93236
707,134,72.9801,2.89319,0,0,0,0,0,0,0,-1,1931,890,72.9802,-2.89322
714,134,73.0548,3.95654,-0.00278744,-0.000129851,-0.00324846,0.00205108,-0.00496837,-0.979542,0.00416772,0.0312474,1938,890,73.0548,-3.95655
721,134,73.1481,4.81964,-0.00284932,0.000294248,-0.0036681,0.00271313,-0.00526821,-0.987814,0.00468608,0.0287722,1945,890,73.1481,-4.81966
728,134,73.1744,5.77332,-0.00321418,0.00102892,-0.00377714,0.00323955,-0.00542481,-1.04128,0.00505512,0.0254455,1952,890,73.1745,-5.77331
735,134,73.0817,6.84247,-0.00339164,0.00265979,-0.00386711,0.00454421,-0.00527607,-1.11736,0.00567499,0.0317789,1959,890,73.0816,-6.84248
742,134,72.9402,7.7226,-0.00317319,0.00571015,-0.00353464,0.00694493,-0.00440797,-1.23471,0.00660893,0.0208753,1966,890,72.9402,-7.72257
749,134,72.917,8.48444,-0.00239819,0.00965502,-0.00272548,0.0102427,-0.00298583,-1.35844,0.00801138,0.0140674,1973,890,72.917,-8.48443
756,134,72.8315,9.28479,-0.000944395,0.0140528,-0.0016625,0.0142349,-0.00112648,-1.46171,0.00988686,0.0179649,1980,890,72.8317,-9.28476
763,134,72.6377,10.1067,0.00113258,0.0188082,-0.000424506,0.0188184,0.0011224,-1.5468,0.0121887,0.0385512,1987,890,72.6377,-10.1067
770,134,72.4336,10.9316,0,0,0,0,0,0,0,-1,1994,890,72.4336,-10.9317
777,134,74.8572,9.58441,0,0,0,0,0,0,0,-1,2001,890,74.8572,-9.58442
784,134,75.1489,10.8398,0,0,0,0,0,0,0,-1,2008,890,75.1489,-10.8398
791,134,75.4202,12.0895,0,0,0,0,0,0,0,-1,2015,890,75.4202,-12.0896
798,134,0,0,0,0,0,0,0,0,0,-1,2022,890,0,0
805,134,0,0,0,0,0,0,0,0,0,-1,2029,890,0,0
812,134,0,0,0,0,0,0,0,0,0,-1,2036,890,0,0
-700,127,0,0,0,0,0,0,0,0,0,-1,524,897,0,0
-693,127,0,0,0,0,0,0,0,0,0,-1,531,897,0,0
-686,127,0,0,0,0,0,0,0,0,0,-1,538,897,0,0
-679,127,-52.0821,4.30957,0,0,0,0,0,0,0,-1,545,897,-52.0821,-4.30955
-672,127,-50.373,4.8219,0,0,0,0,0,0,0,-1,552,897,-50.373,-4.8219
-665,127,-49.6271,-2.44153,0,0,0,0,0,0,0,-1,559,897,-49.6271,2.44154
-658,127,-48.965,-4.18744,0,0,0,0,0,0,0,-1,566,897,-48.965,4.18745
-651,127,-52.9149,-0.455505,0,0,0,0,0,0,0,-1,573,897,-52.9149,0.455524
-644,127,-51.6913,-2.33765,0,0,0,0,0,0,0,-1,580,897,-51.6914,2.33763
-637,127,-50.3104,-4.18658,0,0,0,0,0,0,0,-1,587,897,-50.3104,4.18656
-630,127,-57.2132,9.57306,0,0,0,0,0,0,0,-1,594,897,-57.2132,-9.57309
-623,127,-57.3217,8.94147,-0.0133905,0.0107876,0.00607368,0.0122276,-0.0148305,1.33801,0.0156461,0.0252541,601,897,-57.3217,-8.94146
-616,127,-57.4401,8.19257,-0.00876531,0.00780811,0.00526117,0.00933718,-0.0102944,1.28796,0.0113388,0.0142571,608,897,-57.4401,-8.19256
-609,127,-57.5571,7.29327,-0.00485259,0.00503212,0.00476077,0.00695211,-0.00677259,1.18745,0.00792418,0.0150269,615,897,-57.5571,-7.29325
-602,127,-57.5694,6.41278,-0.00239646,0.00298644,0.00439039,0.00544469,-0.00485471,1.06037,0.00594961,0.0176782,622,897,-57.5694,-6.41278
-595,127,-57.3293,5.59998,0,0,0,0,0,0,0,-1,629,897,-57.3293,-5.6
-588,127,-56.898,4.34094,0,0,0,0,0,0,0,-1,636,897,-56.898,-4.34092
-581,127,-56.2147,3.03046,0,0,0,0,0,0,0,-1,643,897,-56.2147,-3.03045
-574,127,-25.2603,0.511169,0,0,0,0,0,0,0,-1,650,897,-25.2603,-0.51117
-567,127,-24.5417,-0.0447388,0,0,0,0,0,0,0,-1,657,897,-24.5417,0.0447226
-560,127,-18.9678,1.21667,0,0,0,0,0,0,0,-1,664,897,-18.9677,-1.2167
-553,127,-66.6085,0.567871,0,0,0,0,0,0,0,-1,671,897,-66.6085,-0.5679
-546,127,-66.601,0.53949,-0.000427843,-0.000767386,0.000728964,0.000150858,-0.00134609,0.67099,0.000951671,0.0228972,678,897,-66.6009,-0.53948
-539,127,-66.5983,0.527344,-0.00107971,-0.000589532,0.000265098,-0.000473587,-0.00119566,1.1585,0.000695264,0.0193357,685,897,-66.5983,-0.527343
-532,127,-66.5527,0.546875,-0.000397443,-0.000733992,-0.000319137,-0.000204934,-0.000926501,-0.542782,0.000561953,0.0166762,692,897,-66.5527,-0.546881
-525,127,-66.5564,0.597961,0.00092862,-0.000408871,0.00019084,0.000955317,-0.000435568,0.138991,0.000821504,0.0329946,699,897,-66.5564,-0.597964
-518,127,-66.4937,0.654602,0.00288515,5.25484e-06,0.00102061,0.00321017,-0.000319761,0.308298,0.00225427,0.0423785,706,897,-66.4937,-0.654621
-511,127,-66.3455,0.769043,0.00566827,0.000692573,0.00215306,0.00647056,-0.000109724,0.356692,0.00435074,0.0457021,713,897,-66.3455,-0.769029
-504,127,0,0,0,0,0,0,0,0,0,-1,720,897,0,0
-497,127,0,0,0,0,0,0,0,0,0,-1,727,897,0,0
-490,127,0,0,0,0,0,0,0,0,0,-1,734,897,0,0
-483,127,0,0,0,0,0,0,0,0,0,-1,741,897,0,0
-476,127,0,0,0,0,0,0,0,0,0,-1,748,897,0,0
-469,127,0,0,0,0,0,0,0,0,0,-1,755,897,0,0
-462,127,0,0,0,0,0,0,0,0,0,-1,762,897,0,0
-455,127,0,0,0,0,0,0,0,0,0,-1,769,897,0,0
-448,127,0,0,0,0,0,0,0,0,0,-1,776,897,0,0
-441,127,0,0,0,0,0,0,0,0,0,-1,783,897,0,0
-434,127,0,0,0,0,0,0,0,0,0,-1,790,897,0,0
-427,127,0,0,0,0,0,0,0,0,0,-1,797,897,0,0
-420,127,0,0,0,0,0,0,0,0,0,-1,804,897,0,0
-413,127,0,0,0,0,0,0,0,0,0,-1,811,897,0,0
-406,127,0,0,0,0,0,0,0,0,0,-1,818,897,0,0
-399,127,0,0,0,0,0,0,0,0,0,-1,825,897,0,0
-392,127,0,0,0,0,0,0,0,0,0,-1,832,897,0,0
-385,127,0,0,0,0,0,0,0,0,0,-1,839,897,0,0
-378,127,0,0,0,0,0,0,0,0,0,-1,846,897,0,0
-371,127,0,0,0,0,0,0,0,0,0,-1,853,897,0,0
-364,127,0,0,0,0,0,0,0,0,0,-1,860,897,0,0
-357,127,0,0,0,0,0,0,0,0,0,-1,867,897,0,0
-350,127,0,0,0,0,0,0,0,0,0,-1,874,897,0,0
-343,127,0,0,0,0,0,0,0,0,0,-1,881,897,0,0
-336,127,0,0,0,0,0,0,0,0,0,-1,888,897,0,0
-329,127,0,0,0,0,0,0,0,0,0,-1,895,897,0,0
-322,127,0,0,0,0,0,0,0,0,0,-1,902,897,0,0
-315,127,0,0,0,0,0,0,0,0,0,-1,909,897,0,0
-308,127,0,0,0,0,0,0,0,0,0,-1,916,897,0,0
-301,127,0,0,0,0,0,0,0,0,0,-1,923,897,0,0
-294,127,0,0,0,0,0,0,0,0,0,-1,930,897,0,0
-287,127,0,0,0,0,0,0,0,0,0,-1,937,897,0,0
-280,127,0,0,0,0,0,0,0,0,0,-1,944,897,0,0
-273,127,0,0,0,0,0,0,0,0,0,-1,951,897,0,0
-266,127,0,0,0,0,0,0,0,0,0,-1,958,897,0,0
-259,127,0,0,0,0,0,0,0,0,0,-1,965,897,0,0
-252,127,0,0,0,0,0,0,0,0,0,-1,972,897,0,0
-245,127,0,0,0,0,0,0,0,0,0,-1,979,897,0,0
-238,127,0,0,0,0,0,0,0,0,0,-1,986,897,0,0
-231,127,0,0,0,0,0,0,0,0,0,-1,993,897,0,0
-224,127,0,0,0,0,0,0,0,0,0,-1,1000,897,0,0
-217,127,0,0,0,0,0,0,0,0,0,-1,1007,897,0,0
-210,127,0,0,0,0,0,0,0,0,0,-1,1014,897,0,0
-203,127,0,0,0,0,0,0,0,0,0,-1,1021,897,0,0
-196,127,0,0,0,0,0,0,0,0,0,-1,1028,897,0,0
-189,127,0,0,0,0,0,0,0,0,0,-1,1035,897,0,0
-182,127,0,0,0,0,0,0,0,0,0,-1,1042,897,0,0
-175,127,0,0,0,0,0,0,0,0,0,-1,1049,897,0,0
-168,127,0,0,0,0,0,0,0,0,0,-1,1056,897,0,0
-161,127,0,0,0,0,0,0,0,0,0,-1,1063,897,0,0
-154,127,0,0,0,0,0,0,0,0,0,-1,1070,897,0,0
-147,127,0,0,0,0,0,0,0,0,0,-1,1077,897,0,0
-140,127,0,0,0,0,0,0,0,0,0,-1,1084,897,0,0
-133,127,0,0,0,0,0,0,0,0,0,-1,1091,897,0,0
-126,127,0,0,0,0,0,0,0,0,0,-1,1098,897,0,0
-119,127,0,0,0,0,0,0,0,0,0,-1,1105,897,0,0
-112,127,0,0,0,0,0,0,0,0,0,-1,1112,897,0,0
-105,127,0,0,0,0,0,0,0,0,0,-1,1119,897,0,0
-98,127,0,0,0,0,0,0,0,0,0,-1,1126,897,0,0
-91,127,0,0,0,0,0,0,0,0,0,-1,1133,897,0,0
-84,127,0,0,0,0,0,0,0,0,0,-1,1140,897,0,0
-77,127,0,0,0,0,0,0,0,0,0,-1,1147,897,0,0
-70,127,0,0,0,0,0,0,0,0,0,-1,1154,897,0,0
-63,127,0,0,0,0,0,0,0,0,0,-1,1161,897,0,0
-56,127,0,0,0,0,0,0,0,0,0,-1,1168,897,0,0
-49,127,0,0,0,0,0,0,0,0,0,-1,1175,897,0,0
-42,127,0,0,0,0,0,0,0,0,0,-1,1182,897,0,0
-35,127,0,0,0,0,0,0,0,0,0,-1,1189,897,0,0
-28,127,0,0,0,0,0,0,0,0,0,-1,1196,897,0,0
-21,127,0,0,0,0,0,0,0,0,0,-1,1203,897,0,0
-14,127,0,0,0,0,0,0,0,0,0,-1,1210,897,0,0
-7,127,0,0,0,0,0,0,0,0,0,-1,1217,897,0,0
0,127,0,0,0,0,0,0,0,0,0,-1,1224,897,0,0
7,127,0,0,0,0,0,0,0,0,0,-1,1231,897,0,0
14,127,0,0,0,0,0,0,0,0,0,-1,1238,897,0,0
21,127,0,0,0,0,0,0,0,0,0,-1,1245,897,0,0
28,127,0,0,0,0,0,0,0,0,0,-1,1252,897,0,0
35,127,0,0,0,0,0,0,0,0,0,-1,1259,897,0,0
42,127,0,0,0,0,0,0,0,0,0,-1,1266,897,0,0
49,127,0,0,0,0,0,0,0,0,0,-1,1273,897,0,0
56,127,0,0,0,0,0,0,0,0,0,-1,1280,897,0,0
63,127,0,0,0,0,0,0,0,0,0,-1,1287,897,0,0
70,127,0,0,0,0,0,0,0,0,0,-1,1294,897,0,0
77,127,0,0,0,0,0,0,0,0,0,-1,1301,897,0,0
84,127,0,0,0,0,0,0,0,0,0,-1,1308,897,0,0
91,127,0,0,0,0,0,0,0,0,0,-1,1315,897,0,0
98,127,0,0,0,0,0,0,0,0,0,-1,1322,897,0,0
105,127,0,0,0,0,0,0,0,0,0,-1,1329,897,0,0
112,127,0,0,0,0,0,0,0,0,0,-1,1336,897,0,0
119,127,0,0,0,0,0,0,0,0,0,-1,1343,897,0,0
126,127,0,0,0,0,0,0,0,0,0,-1,1350,897,0,0
133,127,0,0,0,0,0,0,0,0,0,-1,1357,897,0,0
140,127,0,0,0,0,0,0,0,0,0,-1,1364,897,0,0
147,127,0,0,0,0,0,0,0,0,0,-1,1371,897,0,0
154,127,0,0,0,0,0,0,0,0,0,-1,1378,897,0,0
161,127,0,0,0,0,0,0,0,0,0,-1,1385,897,0,0
168,127,0,0,0,0,0,0,0,0,0,-1,1392,897,0,0
175,127,0,0,0,0,0,0,0,0,0,-1,1399,897,0,0
182,127,0,0,0,0,0,0,0,0,0,-1,1406,897,0,0
189,127,0,0,0,0,0,0,0,0,0,-1,1413,897,0,0
196,127,0,0,0,0,0,0,0,0,0,-1,1420,897,0,0
203,127,0,0,0,0,0,0,0,0,0,-1,1427,897,0,0
210,127,0,0,0,0,0,0,0,0,0,-1,1434,897,0,0
217,127,0,0,0,0,0,0,0,0,0,-1,1441,897,0,0
224,127,0,0,0,0,0,0,0,0,0,-1,1448,897,0,0
231,127,0,0,0,0,0,0,0,0,0,-1,1455,897,0,0
238,127,0,0,0,0,0,0,0,0,0,-1,1462,897,0,0
245,127,0,0,0,0,0,0,0,0,0,-1,1469,897,0,0
252,127,0,0,0,0,0,0,0,0,0,-1,1476,897,0,0
259,127,0,0,0,0,0,0,0,0,0,-1,1483,897,0,0
266,127,0,0,0,0,0,0,0,0,0,-1,1490,897,0,0
273,127,0,0,0,0,0,0,0,0,0,-1,1497,897,0,0
280,127,0,0,0,0,0,0,0,0,0,-1,1504,897,0,0
287,127,0,0,0,0,0,0,0,0,0,-1,1511,897,0,0
294,127,0,0,0,0,0,0,0,0,0,-1,1518,897,0,0
301,127,0,0,0,0,0,0,0,0,0,-1,1525,897,0,0
308,127,0,0,0,0,0,0,0,0,0,-1,1532,897,0,0
315,127,0,0,0,0,0,0,0,0,0,-1,1539,897,0,0
322,127,0,0,0,0,0,0,0,0,0,-1,1546,897,0,0
329,127,0,0,0,0,0,0,0,0,0,-1,1553,897,0,0
336,127,0,0,0,0,0,0,0,0,0,-1,1560,897,0,0
343,127,0,0,0,0,0,0,0,0,0,-1,1567,897,0,0
350,127,0,0,0,0,0,0,0,0,0,-1,1574,897,0,0
357,127,0,0,0,0,0,0,0,0,0,-1,1581,897,0,0
364,127,0,0,0,0,0,0,0,0,0,-1,1588,897,0,0
371,127,0,0,0,0,0,0,0,0,0,-1,1595,897,0,0
378,127,0,0,0,0,0,0,0,0,0,-1,1602,897,0,0
385,127,0,0,0,0,0,0,0,0,0,-1,1609,897,0,0
392,127,0,0,0,0,0,0,0,0,0,-1,1616,897,0,0
399,127,0,0,0,0,0,0,0,0,0,-1,1623,897,0,0
406,127,0,0,0,0,0,0,0,0,0,-1,1630,897,0,0
413,127,0,0,0,0,0,0,0,0,0,-1,1637,897,0,0
420,127,0,0,0,0,0,0,0,0,0,-1,1644,897,0,0
427,127,0,0,0,0,0,0,0,0,0,-1,1651,897,0,0
434,127,0,0,0,0,0,0,0,0,0,-1,1658,897,0,0
441,127,0,0,0,0,0,0,0,0,0,-1,1665,897,0,0
448,127,0,0,0,0,0,0,0,0,0,-1,1672,897,0,0
455,127,0,0,0,0,0,0,0,0,0,-1,1679,897,0,0
462,127,0,0,0,0,0,0,0,0,0,-1,1686,897,0,0
469,127,0,0,0,0,0,0,0,0,0,-1,1693,897,0,0
476,127,0,0,0,0,0,0,0,0,0,-1,1700,897,0,0
483,127,0,0,0,0,0,0,0,0,0,-1,1707,897,0,0
490,127,0,0,0,0,0,0,0,0,0,-1,1714,897,0,0
497,127,0,0,0,0,0,0,0,0,0,-1,1721,897,0,0
504,127,0,0,0,0,0,0,0,0,0,-1,1728,897,0,0
511,127,0,0,0,0,0,0,0,0,0,-1,1735,897,0,0
518,127,0,0,0,0,0,0,0,0,0,-1,1742,897,0,0
525,127,0,0,0,0,0,0,0,0,0,-1,1749,897,0,0
532,127,0,0,0,0,0,0,0,0,0,-1,1756,897,0,0
539,127,0,0,0,0,0,0,0,0,0,-1,1763,897,0,0
546,127,0,0,0,0,0,0,0,0,0,-1,1770,897,0,0
553,127,0,0,0,0,0,0,0,0,0,-1,1777,897,0,0
560,127,0,0,0,0,0,0,0,0,0,-1,1784,897,0,0
567,127,0,0,0,0,0,0,0,0,0,-1,1791,897,0,0
574,127,0,0,0,0,0,0,0,0,0,-1,1798,897,0,0
581,127,0,0,0,0,0,0,0,0,0,-1,1805,897,0,0
588,127,0,0,0,0,0,0,0,0,0,-1,1812,897,0,0
595,127,0,0,0,0,0,0,0,0,0,-1,1819,897,0,0
602,127,0,0,0,0,0,0,0,0,0,-1,1826,897,0,0
609,127,0,0,0,0,0,0,0,0,0,-1,1833,897,0,0
616,127,0,0,0,0,0,0,0,0,0,-1,1840,897,0,0
623,127,0,0,0,0,0,0,0,0,0,-1,1847,897,0,0
630,127,83.334,2.508,0,0,0,0,0,0,0,-1,1854,897,83.334,-2.50798
637,127,82.9768,2.89056,0,0,0,0,0,0,0,-1,1861,897,82.9769,-2.89058
644,127,83.1715,2.82104,0.000765873,0.00499899,-0.000345876,0.00502706,0.000737799,-1.4898,0.00313452,0.0415804,1868,897,83.1715,-2.82105
651,127,83.2695,2.6037,0.000255306,0.00350237,-0.000658385,0.00363079,0.000126889,-1.37817,0.00237936,0.043847,1875,897,83.2695,-2.60368
658,127,83.2925,2.44226,-0.000448776,0.00240668,-0.00081968,0.00262525,-0.000667341,-1.31021,0.00200989,0.0429281,1882,897,83.2925,-2.44229
665,127,83.2357,2.35736,-0.00101891,0.00129824,-0.00116441,0.00178227,-0.00150294,-1.17684,0.001899,0.0382474,1889,897,83.2357,-2.35734
672,127,83.2306,2.31,-0.00121814,0.000475827,-0.00138496,0.00125227,-0.00199458,-1.05983,0.00189083,0.0340328,1896,897,83.2306,-2.31002
679,127,83.3086,2.32611,-0.00138856,-0.000117272,-0.00163369,0.00100007,-0.0025059,-0.970929,0.00208548,0.0282943,1903,897,83.3085,-2.32608
686,127,83.2867,2.42322,0,0,0,0,0,0,0,-1,1910,897,83.2868,-2.42323
693,127,59.2523,2.33673,0,0,0,0,0,0,0,-1,1917,897,59.2524,-2.33674
700,127,58.717,1.80957,0,0,0,0,0,0,0,-1,1924,897,58.717,-1.80956
707,127,73.6234,2.45685,0,0,0,0,0,0,0,-1,1931,897,73.6234,-2.45687
714,127,74.2833,3.99091,-0.00309193,8.08897e-05,-0.00312565,0.00199967,-0.00501072,-1.02023,0.00417004,0.0308262,1938,897,74.2833,-3.99088
721,127,74.259,5.05798,-0.00330988,0.000453581,-0.00354479,0.00258513,-0.00544143,-1.02941,0.00473094,0.0296413,1945,897,74.259,-5.05795
728,127,74.0637,5.89716,-0.00378012,0.00111936,-0.00374687,0.00314626,-0.00580702,-1.07492,0.00524471,0.0273663,1952,897,74.0638,-5.89713
735,127,73.965,6.8432,-0.00402862,0.0026624,-0.00403611,0.00455928,-0.0059255,-1.13145,0.0060705,0.0217733,1959,897,73.965,-6.8432
742,127,73.8763,7.69763,-0.00381088,0.00574107,-0.00388205,0.00711979,-0.0051896,-1.22954,0.00713589,0.0198044,1966,897,73.8764,-7.69761
749,127,73.8074,8.51031,-0.00292665,0.0100405,-0.00311256,0.0107489,-0.00363507,-1.34701,0.00863653,0.0141968,1973,897,73.8073,-8.5103
756,127,73.6978,9.2785,-0.00118734,0.0150497,-0.00188014,0.0152645,-0.0014022,-1.45701,0.0106745,0.0163008,1980,897,73.6979,-9.2785
763,127,73.5613,10.0367,0.00136287,0.0203709,-0.000337321,0.0203769,0.00135688,-1.55306,0.0131556,0.025069,1987,897,73.5614,-10.0368
770,127,73.4902,10.7872,0,0,0,0,0,0,0,-1,1994,897,73.4903,-10.7872
777,127,76.3003,10.8735,0,0,0,0,0,0,0,-1,2001,897,76.3003,-10.8735
784,127,77.5664,11.5637,0,0,0,0,0,0,0,-1,2008,897,77.5663,-11.5637
791,127,76.7629,12.9143,0,0,0,0,0,0,0,-1,2015,897,76.763,-12.9143
798,127,0,0,0,0,0,0,0,0,0,-1,2022,897,0,0
805,127,0,0,0,0,0,0,0,0,0,-1,2029,897,0,0
812,127,0,0,0,0,0,0,0,0,0,-1,2036,897,0,0
-700,120,0,0,0,0,0,0,0,0,0,-1,524,904,0,0
-693,120,0,0,0,0,0,0,0,0,0,-1,531,904,0,0
-686,120,0,0,0,0,0,0,0,0,0,-1,538,904,0,0
-679,120,-52.0888,4.76025,0,0,0,0,0,0,0,-1,545,904,-52.0888,-4.76024
-672,120,-51.1454,5.42755,0,0,0,0,0,0,0,-1,552,904,-51.1454,-5.42753
-665,120,-50.2376,-2.67987,0,0,0,0,0,0,0,-1,559,904,-50.2376,2.67988
-658,120,-54.6443,7.5307,0,0,0,0,0,0,0,-1,566,904,-54.6443,-7.53071
-651,120,-52.9452,-1.22644,0,0,0,0,0,0,0,-1,573,904,-52.9452,1.22647
-644,120,-51.6526,-3.15863,0,0,0,0,0,0,0,-1,580,904,-51.6526,3.15864
-637,120,-57.9681,10.2548,0,0,0,0,0,0,0,-1,587,904,-57.9681,-10.2548
-630,120,-58.1136,9.6568,-0.0167747,0.0158446,0.00663619,0.017143,-0.0180731,1.37758,0.0203344,0.0466652,594,904,-58.1136,-9.65682
-623,120,-58.3087,8.94568,-0.0120534,0.0121308,0.00579232,0.0134465,-0.0133691,1.34744,0.015482,0.0167395,601,904,-58.3087,-8.9457
-616,120,-58.3973,8.14355,-0.00774975,0.00844143,0.00514135,0.00993605,-0.00924437,1.28789,0.0110762,0.012461,608,904,-58.3973,-8.14355
-609,120,-58.4719,7.30676,-0.0043729,0.00504381,0.00467742,0.00697224,-0.00630132,1.17975,0.00766676,0.0156617,615,904,-58.4719,-7.30677
-602,120,-58.5192,6.48322,-0.00252864,0.00274337,0.0042653,0.00512147,-0.00490674,1.06218,0.00579024,0.0189531,622,904,-58.5192,-6.48324
-595,120,-58.3913,5.65619,-0.00157179,0.00155153,0.00368907,0.00399587,-0.00401613,0.985622,0.00462574,0.0385807,629,904,-58.3913,-5.6562
-588,120,-58.3209,4.97742,0,0,0,0,0,0,0,-1,636,904,-58.3209,-4.97739
-581,120,-58.6276,4.17224,0,0,0,0,0,0,0,-1,643,904,-58.6276,-4.17225
-574,120,-27.5438,0.505066,0,0,0,0,0,0,0,-1,650,904,-27.5438,-0.505085
-567,120,-25.2822,-0.410645,0,0,0,0,0,0,0,-1,657,904,-25.2821,0.410629
-560,120,-27.3358,1.10327,0,0,0,0,0,0,0,-1,664,904,-27.3358,-1.10324
-553,120,-66.5008,0.815735,0,0,0,0,0,0,0,-1,671,904,-66.5008,-0.81573
-546,120,-66.555,0.605896,-0.00100093,-0.00120575,0.000325977,-0.000761653,-0.00144503,0.633196,0.000834694,0.0307653,678,904,-66.555,-0.605895
-539,120,-66.5555,0.548889,-0.00154766,-0.000960403,-0.000161967,-0.000918694,-0.00158937,-1.31876,0.000921338,0.0237723,685,904,-66.5555,-0.548914
-532,120,-66.5402,0.589966,-0.000590687,-0.000854622,-0.000587713,-0.000120307,-0.001325,-0.674958,0.000846088,0.0263811,692,904,-66.5402,-0.589946
-525,120,-66.5987,0.605164,0.00106179,-0.000319984,-6.94979e-05,0.00106527,-0.000323471,-0.0501277,0.000839053,0.034939,699,904,-66.5987,-0.605179
-518,120,-66.7673,0.702942,0.0031233,0.000314749,0.00063858,0.00326167,0.000176373,0.213394,0.00211811,0.0401978,706,904,-66.7673,-0.702935
-511,120,-66.4044,0.558655,0.00564121,0.00108165,0.00156516,0.00612677,0.000596091,0.300817,0.00390103,0.0396863,713,904,-66.4044,-0.55864
-504,120,0,0,0,0,0,0,0,0,0,-1,720,904,0,0
-497,120,0,0,0,0,0,0,0,0,0,-1,727,904,0,0
-490,120,0,0,0,0,0,0,0,0,0,-1,734,904,0,0
-483,120,0,0,0,0,0,0,0,0,0,-1,741,904,0,0
-476,120,0,0,0,0,0,0,0,0,0,-1,748,904,0,0
-469,120,0,0,0,0,0,0,0,0,0,-1,755,904,0,0
-462,120,0,0,0,0,0,0,0,0,0,-1,762,904,0,0
-455,120,0,0,0,0,0,0,0,0,0,-1,769,904,0,0
-448,120,0,0,0,0,0,0,0,0,0,-1,776,904,0,0
-441,120,0,0,0,0,0,0,0,0,0,-1,783,904,0,0
-434,120,0,0,0,0,0,0,0,0,0,-1,790,904,0,0
-427,120,0,0,0,0,0,0,0,0,0,-1,797,904,0,0
-420,120,0,0,0,0,0,0,0,0,0,-1,804,904,0,0
-413,120,0,0,0,0,0,0,0,0,0,-1,811,904,0,0
-406,120,0,0,0,0,0,0,0,0,0,-1,818,904,0,0
-399,120,0,0,0,0,0,0,0,0,0,-1,825,904,0,0
-392,120,0,0,0,0,0,0,0,0,0,-1,832,904,0,0
-385,120,0,0,0,0,0,0,0,0,0,-1,839,904,0,0
-378,120,0,0,0,0,0,0,0,0,0,-1,846,904,0,0
-371,120,0,0,0,0,0,0,0,0,0,-1,853,904,0,0
-364,120,0,0,0,0,0,0,0,0,0,-1,860,904,0,0
-357,120,0,0,0,0,0,0,0,0,0,-1,867,904,0,0
-350,120,0,0,0,0,0,0,0,0,0,-1,874,904,0,0
-343,120,0,0,0,0,0,0,0,0,0,-1,881,904,0,0
-336,120,0,0,0,0,0,0,0,0,0,-1,888,904,0,0
-329,120,0,0,0,0,0,0,0,0,0,-1,895,904,0,0
-322,120,0,0,0,0,0,0,0,0,0,-1,902,904,0,0
-315,120,0,0,0,0,0,0,0,0,0,-1,909,904,0,0
-308,120,0,0,0,0,0,0,0,0,0,-1,916,904,0,0
-301,120,0,0,0,0,0,0,0,0,0,-1,923,904,0,0
-294,120,0,0,0,0,0,0,0,0,0,-1,930,904,0,0
-287,120,0,0,0,0,0,0,0,0,0,-1,937,904,0,0
-280,120,0,0,0,0,0,0,0,0,0,-1,944,904,0,0
-273,120,0,0,0,0,0,0,0,0,0,-1,951,904,0,0
-266,120,0,0,0,0,0,0,0,0,0,-1,958,904,0,0
-259,120,0,0,0,0,0,0,0,0,0,-1,965,904,0,0
-252,120,0,0,0,0,0,0,0,0,0,-1,972,904,0,0
-245,120,0,0,0,0,0,0,0,0,0,-1,979,904,0,0
-238,120,0,0,0,0,0,0,0,0,0,-1,986,904,0,0
-231,120,0,0,0,0,0,0,0,0,0,-1,993,904,0,0
-224,120,0,0,0,0,0,0,0,0,0,-1,1000,904,0,0
-217,120,0,0,0,0,0,0,0,0,0,-1,1007,904,0,0
-210,120,0,0,0,0,0,0,0,0,0,-1,1014,904,0,0
-203,120,0,0,0,0,0,0,0,0,0,-1,1021,904,0,0
-196,120,0,0,0,0,0,0,0,0,0,-1,1028,904,0,0
-189,120,0,0,0,0,0,0,0,0,0,-1,1035,904,0,0
-182,120,0,0,0,0,0,0,0,0,0,-1,1042,904,0,0
-175,120,0,0,0,0,0,0,0,0,0,-1,1049,904,0,0
-168,120,0,0,0,0,0,0,0,0,0,-1,1056,904,0,0
-161,120,0,0,0,0,0,0,0,0,0,-1,1063,904,0,0
-154,120,0,0,0,0,0,0,0,0,0,-1,1070,904,0,0
-147,120,0,0,0,0,0,0,0,0,0,-1,1077,904,0,0
-140,120,0,0,0,0,0,0,0,0,0,-1,1084,904,0,0
-133,120,0,0,0,0,0,0,0,0,0,-1,1091,904,0,0
-126,120,0,0,0,0,0,0,0,0,0,-1,1098,904,0,0
-119,120,0,0,0,0,0,0,0,0,0,-1,1105,904,0,0
-112,120,0,0,0,0,0,0,0,0,0,-1,1112,904,0,0
-105,120,0,0,0,0,0,0,0,0,0,-1,1119,904,0,0
-98,120,0,0,0,0,0,0,0,0,0,-1,1126,904,0,0
-91,120,0,0,0,0,0,0,0,0,0,-1,1133,904,0,0
-84,120,0,0,0,0,0,0,0,0,0,-1,1140,904,0,0
-77,120,0,0,0,0,0,0,0,0,0,-1,1147,904,0,0
-70,120,0,0,0,0,0,0,0,0,0,-1,1154,904,0,0
-63,120,0,0,0,0,0,0,0,0,0,-1,1161,904,0,0
-56,120,0,0,0,0,0,0,0,0,0,-1,1168,904,0,0
-49,120,0,0,0,0,0,0,0,0,0,-1,1175,904,0,0
-42,120,0,0,0,0,0,0,0,0,0,-1,1182,904,0,0
-35,120,0,0,0,0,0,0,0,0,0,-1,1189,904,0,0
-28,120,0,0,0,0,0,0,0,0,0,-1,1196,904,0,0
-21,120,0,0,0,0,0,0,0,0,0,-1,1203,904,0,0
-14,120,0,0,0,0,0,0,0,0,0,-1,1210,904,0,0
-7,120,0,0,0,0,0,0,0,0,0,-1,1217,904,0,0
0,120,0,0,0,0,0,0,0,0,0,-1,1224,904,0,0
7,120,0,0,0,0,0,0,0,0,0,-1,1231,904,0,0
14,120,0,0,0,0,0,0,0,0,0,-1,1238,904,0,0
21,120,0,0,0,0,0,0,0,0,0,-1,1245,904,0,0
28,120,0,0,0,0,0,0,0,0,0,-1,1252,904,0,0
35,120,0,0,0,0,0,0,0,0,0,-1,1259,904,0,0
42,120,0,0,0,0,0,0,0,0,0,-1,1266,904,0,0
49,120,0,0,0,0,0,0,0,0,0,-1,1273,904,0,0
56,120,0,0,0,0,0,0,0,0,0,-1,1280,904,0,0
63,120,0,0,0,0,0,0,0,0,0,-1,1287,904,0,0
70,120,0,0,0,0,0,0,0,0,0,-1,1294,904,0,0
77,120,0,0,0,0,0,0,0,0,0,-1,1301,904,0,0
84,120,0,0,0,0,0,0,0,0,0,-1,1308,904,0,0
91,120,0,0,0,0,0,0,0,0,0,-1,1315,904,0,0
98,120,0,0,0,0,0,0,0,0,0,-1,1322,904,0,0
105,120,0,0,0,0,0,0,0,0,0,-1,1329,904,0,0
112,120,0,0,0,0,0,0,0,0,0,-1,1336,904,0,0
119,120,0,0,0,0,0,0,0,0,0,-1,1343,904,0,0
126,120,0,0,0,0,0,0,0,0,0,-1,1350,904,0,0
133,120,0,0,0,0,0,0,0,0,0,-1,1357,904,0,0
140,120,0,0,0,0,0,0,0,0,0,-1,1364,904,0,0
147,120,0,0,0,0,0,0,0,0,0,-1,1371,904,0,0
154,120,0,0,0,0,0,0,0,0,0,-1,1378,904,0,0
161,120,0,0,0,0,0,0,0,0,0,-1,1385,904,0,0
168,120,0,0,0,0,0,0,0,0,0,-1,1392,904,0,0
175,120,0,0,0,0,0,0,0,0,0,-1,1399,904,0,0
182,120,0,0,0,0,0,0,0,0,0,-1,1406,904,0,0
189,120,0,0,0,0,0,0,0,0,0,-1,1413,904,0,0
196,120,0,0,0,0,0,0,0,0,0,-1,1420,904,0,0
203,120,0,0,0,0,0,0,0,0,0,-1,1427,904,0,0
210,120,0,0,0,0,0,0,0,0,0,-1,1434,904,0,0
217,120,0,0,0,0,0,0,0,0,0,-1,1441,904,0,0
224,120,0,0,0,0,0,0,0,0,0,-1,1448,904,0,0
231,120,0,0,0,0,0,0,0,0,0,-1,1455,904,0,0
238,120,0,0,0,0,0,0,0,0,0,-1,1462,904,0,0
245,120,0,0,0,0,0,0,0,0,0,-1,1469,904,0,0
252,120,0,0,0,0,0,0,0,0,0,-1,1476,904,0,0
259,120,0,0,0,0,0,0,0,0,0,-1,1483,904,0,0
266,120,0,0,0,0,0,0,0,0,0,-1,1490,904,0,0
273,120,0,0,0,0,0,0,0,0,0,-1,1497,904,0,0
280,120,0,0,0,0,0,0,0,0,0,-1,1504,904,0,0
287,120,0,0,0,0,0,0,0,0,0,-1,1511,904,0,0
294,120,0,0,0,0,0,0,0,0,0,-1,1518,904,0,0
301,120,0,0,0,0,0,0,0,0,0,-1,1525,904,0,0
308,120,0,0,0,0,0,0,0,0,0,-1,1532,904,0,0
315,120,0,0,0,0,0,0,0,0,0,-1,1539,904,0,0
322,120,0,0,0,0,0,0,0,0,0,-1,1546,904,0,0
329,120,0,0,0,0,0,0,0,0,0,-1,1553,904,0,0
336,120,0,0,0,0,0,0,0,0,0,-1,1560,904,0,0
343,120,0,0,0,0,0,0,0,0,0,-1,1567,904,0,0
350,120,0,0,0,0,0,0,0,0,0,-1,1574,904,0,0
357,120,0,0,0,0,0,0,0,0,0,-1,1581,904,0,0
364,120,0,0,0,0,0,0,0,0,0,-1,1588,904,0,0
371,120,0,0,0,0,0,0,0,0,0,-1,1595,904,0,0
378,120,0,0,0,0,0,0,0,0,0,-1,1602,904,0,0
385,120,0,0,0,0,0,0,0,0,0,-1,1609,904,0,0
392,120,0,0,0,0,0,0,0,0,0,-1,1616,904,0,0
399,120,0,0,0,0,0,0,0,0,0,-1,1623,904,0,0
406,120,0,0,0,0,0,0,0,0,0,-1,1630,904,0,0
413,120,0,0,0,0,0,0,0,0,0,-1,1637,904,0,0
420,120,0,0,0,0,0,0,0,0,0,-1,1644,904,0,0
427,120,0,0,0,0,0,0,0,0,0,-1,1651,904,0,0
434,120,0,0,0,0,0,0,0,0,0,-1,1658,904,0,0
441,120,0,0,0,0,0,0,0,0,0,-1,1665,904,0,0
448,120,0,0,0,0,0,0,0,0,0,-1,1672,904,0,0
455,120,0,0,0,0,0,0,0,0,0,-1,1679,904,0,0
462,120,0,0,0,0,0,0,0,0,0,-1,1686,904,0,0
469,120,0,0,0,0,0,0,0,0,0,-1,1693,904,0,0
476,120,0,0,0,0,0,0,0,0,0,-1,1700,904,0,0
483,120,0,0,0,0,0,0,0,0,0,-1,1707,904,0,0
490,120,0,0,0,0,0,0,0,0,0,-1,1714,904,0,0
497,120,0,0,0,0,0,0,0,0,0,-1,1721,904,0,0
504,120,0,0,0,0,0,0,0,0,0,-1,1728,904,0,0
511,120,0,0,0,0,0,0,0,0,0,-1,1735,904,0,0
518,120,0,0,0,0,0,0,0,0,0,-1,1742,904,0,0
525,120,0,0,0,0,0,0,0,0,0,-1,1749,904,0,0
532,120,0,0,0,0,0,0,0,0,0,-1,1756,904,0,0
539,120,0,0,0,0,0,0,0,0,0,-1,1763,904,0,0
546,120,0,0,0,0,0,0,0,0,0,-1,1770,904,0,0
553,120,0,0,0,0,0,0,0,0,0,-1,1777,904,0,0
560,120,0,0,0,0,0,0,0,0,0,-1,1784,904,0,0
567,120,0,0,0,0,0,0,0,0,0,-1,1791,904,0,0
574,120,0,0,0,0,0,0,0,0,0,-1,1798,904,0,0
581,120,0,0,0,0,0,0,0,0,0,-1,1805,904,0,0
588,120,0,0,0,0,0,0,0,0,0,-1,1812,904,0,0
595,120,0,0,0,0,0,0,0,0,0,-1,1819,904,0,0
602,120,0,0,0,0,0,0,0,0,0,-1,1826,904,0,0
609,120,0,0,0,0,0,0,0,0,0,-1,1833,904,0,0
616,120,0,0,0,0,0,0,0,0,0,-1,1840,904,0,0
623,120,0,0,0,0,0,0,0,0,0,-1,1847,904,0,0
630,120,83.4109,2.45709,0.00139643,0.00957117,0.00182478,0.00996,0.0010076,1.36085,0.00633092,0.0393622,1854,904,83.4109,-2.45707
637,120,83.3086,2.72571,0.00144907,0.00703331,0.000544499,0.00708591,0.00139648,1.4745,0.0043341,0.0435638,1861,904,83.3085,-2.72571
644,120,83.234,2.79773,0.00119071,0.00507472,-0.000175289,0.00508262,0.00118282,-1.52579,0.00307103,0.0429117,1868,904,83.234,-2.79774
651,120,83.1504,2.67841,0.000762418,0.00360634,-0.000514463,0.00369654,0.000672213,-1.39722,0.00227366,0.0454894,1875,904,83.1504,-2.67841
658,120,83.1613,2.59027,0.000145561,0.00254842,-0.000608427,0.0026937,2.85334e-07,-1.33641,0.0017957,0.0453095,1882,904,83.1613,-2.59026
665,120,83.2234,2.51086,-0.000428406,0.0014749,-0.000809706,0.00177276,-0.00072626,-1.21831,0.00148438,0.0376854,1889,904,83.2233,-2.51085
672,120,83.321,2.39124,-0.000816678,0.000610407,-0.000934311,0.00107248,-0.00127875,-1.11151,0.00135923,0.0350822,1896,904,83.321,-2.39121
679,120,83.3341,2.29205,-0.00114667,-6.25247e-05,-0.00112879,0.000647605,-0.0018568,-1.00925,0.00150105,0.0323889,1903,904,83.3341,-2.29203
686,120,83.2697,2.38483,-0.00149642,-0.000464504,-0.00155938,0.000662062,-0.00262299,-0.945166,0.0020061,0.0347919,1910,904,83.2697,-2.38483
693,120,83.3611,2.42462,0,0,0,0,0,0,0,-1,1917,904,83.3611,-2.4246
700,120,42.2007,3.00946,0,0,0,0,0,0,0,-1,1924,904,42.2007,-3.00944
707,120,75.217,3.5387,0,0,0,0,0,0,0,-1,1931,904,75.2171,-3.53868
714,120,75.272,4.4884,-0.00345066,0.000115224,-0.00275118,0.00161068,-0.00494612,-1.0729,0.00394546,0.0339951,1938,904,75.272,-4.4884
721,120,75.1207,5.32642,-0.00381959,0.000491117,-0.00314255,0.00214643,-0.0054749,-1.08598,0.0045379,0.0287221,1945,904,75.1208,-5.32642
728,120,74.9451,6.14227,-0.00435939,0.00115262,-0.0033864,0.00276277,-0.00596954,-1.12696,0.00515367,0.0187015,1952,904,74.945,-6.14225
735,120,74.8612,6.88104,-0.00465841,0.00264577,-0.00381927,0.00427806,-0.00629069,-1.16691,0.00613864,0.0143583,1959,904,74.8613,-6.88105
742,120,74.7656,7.72266,-0.00440262,0.00566359,-0.00384661,0.00696519,-0.00570422,-1.24451,0.00732675,0.0153048,1966,904,74.7657,-7.72263
749,120,74.7008,8.52454,-0.00333761,0.0101578,-0.00319344,0.0108753,-0.00405513,-1.34978,0.00891482,0.0123747,1973,904,74.7008,-8.52451
756,120,74.5706,9.30524,-0.00129207,0.0156255,-0.00190969,0.0158384,-0.00150496,-1.45978,0.0110947,0.0158158,1980,904,74.5705,-9.30526
763,120,74.4092,10.0266,0.00167061,0.0214012,-0.000190597,0.021403,0.00166877,-1.56114,0.0137462,0.0347026,1987,904,74.4092,-10.0265
770,120,74.2668,10.7664,0,0,0,0,0,0,0,-1,1994,904,74.2668,-10.7664
777,120,77.7629,11.9034,0,0,0,0,0,0,0,-1,2001,904,77.763,-11.9034
784,120,78.0063,12.8853,0,0,0,0,0,0,0,-1,2008,904,78.0063,-12.8852
791,120,78.2561,13.8319,0,0,0,0,0,0,0,-1,2015,904,78.2561,-13.8319
798,120,78.5127,14.8143,0,0,0,0,0,0,0,-1,2022,904,78.5128,-14.8143
805,120,0,0,0,0,0,0,0,0,0,-1,2029,904,0,0
812,120,0,0,0,0,0,0,0,0,0,-1,2036,904,0,0
-700,113,0,0,0,0,0,0,0,0,0,-1,524,911,0,0
-693,113,0,0,0,0,0,0,0,0,0,-1,531,911,0,0
-686,113,0,0,0,0,0,0,0,0,0,-1,538,911,0,0
-679,113,-55.9637,4.78546,0,0,0,0,0,0,0,-1,545,911,-55.9637,-4.78548
-672,113,-52.5881,5.49811,0,0,0,0,0,0,0,-1,552,911,-52.5881,-5.49808
-665,113,-56.8114,7.23682,0,0,0,0,0,0,0,-1,559,911,-56.8114,-7.23679
-658,113,-54.1535,7.58624,0,0,0,0,0,0,0,-1,566,911,-54.1535,-7.58627
-651,113,-53.3762,7.8313,0,0,0,0,0,0,0,-1,573,911,-53.3762,-7.8313
-644,113,-48.5211,7.83691,0,0,0,0,0,0,0,-1,580,911,-48.5211,-7.83694
-637,113,-59.0519,10.5716,0,0,0,0,0,0,0,-1,587,911,-59.0519,-10.5716
-630,113,-59.1287,9.73773,-0.0155892,0.0180522,0.00690197,0.0194132,-0.0169501,1.37611,0.0210104,0.0280926,594,911,-59.1288,-9.73776
-623,113,-59.2684,8.93311,-0.0112955,0.0134874,0.00611165,0.0149126,-0.0127207,1.34169,0.0159709,0.0147215,601,911,-59.2684,-8.93312
-616,113,-59.3128,8.12823,-0.00732531,0.00902594,0.00544967,0.0106758,-0.00897515,1.27683,0.0113596,0.0133994,608,911,-59.3128,-8.12825
-609,113,-59.3529,7.38483,-0.00442464,0.00510351,0.00497394,0.00722685,-0.00654798,1.16732,0.00795612,0.0128379,615,911,-59.3529,-7.38481
-602,113,-59.4161,6.50739,-0.00297272,0.00265564,0.00451302,0.00516001,-0.00547709,1.06418,0.00614224,0.0225207,622,911,-59.4161,-6.50736
-595,113,-59.4645,5.8103,-0.0020579,0.0015134,0.00391836,0.0040338,-0.0045783,0.999196,0.00497551,0.0313336,629,911,-59.4646,-5.81028
-588,113,-59.3929,4.89783,-0.00169272,0.000837115,0.00312966,0.00294782,-0.00380342,0.977446,0.00390825,0.0390356,636,911,-59.393,-4.89784
-581,113,-59.4332,4.07941,0,0,0,0,0,0,0,-1,643,911,-59.4333,-4.07944
-574,113,-59.4156,3.00183,0,0,0,0,0,0,0,-1,650,911,-59.4156,-3.00182
-567,113,-21.8396,0.437378,0,0,0,0,0,0,0,-1,657,911,-21.8396,-0.437351
-560,113,-66.5169,0.761658,0,0,0,0,0,0,0,-1,664,911,-66.5169,-0.761629
-553,113,-66.52,0.665894,-0.00065321,-0.00138686,0.000673556,-0.000253069,-0.001787,0.53605,0.00111658,0.0465268,671,911,-66.52,-0.665916
-546,113,-66.5541,0.663757,-0.0011173,-0.00141893,0.000146399,-0.00105793,-0.0014783,0.385274,0.000879556,0.0336331,678,911,-66.554,-0.663774
-539,113,-66.5393,0.607788,-0.00147982,-0.00105443,-0.000392363,-0.00082082,-0.00171343,-1.03377,0.000989536,0.0328052,685,911,-66.5393,-0.607819
-532,113,-66.5612,0.544922,-0.000473523,-0.000681254,-0.000789574,0.000218988,-0.00137376,-0.720001,0.000996889,0.0352107,692,911,-66.5612,-0.544933
-525,113,-66.7054,0.505981,0.00101463,-3.86607e-05,-0.000534741,0.00123852,-0.000262551,-0.396514,0.00092569,0.0377584,699,911,-66.7054,-0.50597
-518,113,-66.7709,0.585205,0.00289693,0.000693542,-3.81827e-05,0.0028976,0.000692881,-0.0173221,0.00174718,0.0416336,706,911,-66.7709,-0.585214
-511,113,-66.7294,0.525208,0.00528086,0.00157571,0.000867403,0.00547387,0.0013827,0.218949,0.00328676,0.0404724,713,911,-66.7293,-0.525208
-504,113,0,0,0,0,0,0,0,0,0,-1,720,911,0,0
-497,113,0,0,0,0,0,0,0,0,0,-1,727,911,0,0
-490,113,0,0,0,0,0,0,0,0,0,-1,734,911,0,0
-483,113,0,0,0,0,0,0,0,0,0,-1,741,911,0,0
-476,113,0,0,0,0,0,0,0,0,0,-1,748,911,0,0
-469,113,0,0,0,0,0,0,0,0,0,-1,755,911,0,0
-462,113,0,0,0,0,0,0,0,0,0,-1,762,911,0,0
-455,113,0,0,0,0,0,0,0,0,0,-1,769,911,0,0
-448,113,0,0,0,0,0,0,0,0,0,-1,776,911,0,0
-441,113,0,0,0,0,0,0,0,0,0,-1,783,911,0,0
-434,113,0,0,0,0,0,0,0,0,0,-1,790,911,0,0
-427,113,0,0,0,0,0,0,0,0,0,-1,797,911,0,0
-420,113,0,0,0,0,0,0,0,0,0,-1,804,911,0,0
-413,113,0,0,0,0,0,0,0,0,0,-1,811,911,0,0
-406,113,0,0,0,0,0,0,0,0,0,-1,818,911,0,0
-399,113,0,0,0,0,0,0,0,0,0,-1,825,911,0,0
-392,113,0,0,0,0,0,0,0,0,0,-1,832,911,0,0
-385,113,0,0,0,0,0,0,0,0,0,-1,839,911,0,0
-378,113,0,0,0,0,0,0,0,0,0,-1,846,911,0,0
-371,113,0,0,0,0,0,0,0,0,0,-1,853,911,0,0
-364,113,0,0,0,0,0,0,0,0,0,-1,860,911,0,0
-357,113,0,0,0,0,0,0,0,0,0,-1,867,911,0,0
-350,113,0,0,0,0,0,0,0,0,0,-1,874,911,0,0
-343,113,0,0,0,0,0,0,0,0,0,-1,881,911,0,0
-336,113,0,0,0,0,0,0,0,0,0,-1,888,911,0,0
-329,113,0,0,0,0,0,0,0,0,0,-1,895,911,0,0
-322,113,0,0,0,0,0,0,0,0,0,-1,902,911,0,0
-315,113,0,0,0,0,0,0,0,0,0,-1,909,911,0,0
-308,113,0,0,0,0,0,0,0,0,0,-1,916,911,0,0
-301,113,0,0,0,0,0,0,0,0,0,-1,923,911,0,0
-294,113,0,0,0,0,0,0,0,0,0,-1,930,911,0,0
-287,113,0,0,0,0,0,0,0,0,0,-1,937,911,0,0
-280,113,0,0,0,0,0,0,0,0,0,-1,944,911,0,0
-273,113,0,0,0,0,0,0,0,0,0,-1,951,911,0,0
-266,113,0,0,0,0,0,0,0,0,0,-1,958,911,0,0
-259,113,0,0,0,0,0,0,0,0,0,-1,965,911,0,0
-252,113,0,0,0,0,0,0,0,0,0,-1,972,911,0,0
-245,113,0,0,0,0,0,0,0,0,0,-1,979,911,0,0
-238,113,0,0,0,0,0,0,0,0,0,-1,986,911,0,0
-231,113,0,0,0,0,0,0,0,0,0,-1,993,911,0,0
-224,113,0,0,0,0,0,0,0,0,0,-1,1000,911,0,0
-217,113,0,0,0,0,0,0,0,0,0,-1,1007,911,0,0
-210,113,0,0,0,0,0,0,0,0,0,-1,1014,911,0,0
-203,113,0,0,0,0,0,0,0,0,0,-1,1021,911,0,0
-196,113,0,0,0,0,0,0,0,0,0,-1,1028,911,0,0
-189,113,0,0,0,0,0,0,0,0,0,-1,1035,911,0,0
-182,113,0,0,0,0,0,0,0,0,0,-1,1042,911,0,0
-175,113,0,0,0,0,0,0,0,0,0,-1,1049,911,0,0
-168,113,0,0,0,0,0,0,0,0,0,-1,1056,911,0,0
-161,113,0,0,0,0,0,0,0,0,0,-1,1063,911,0,0
-154,113,0,0,0,0,0,0,0,0,0,-1,1070,911,0,0
-147,113,0,0,0,0,0,0,0,0,0,-1,1077,911,0,0
-140,113,0,0,0,0,0,0,0,0,0,-1,1084,911,0,0
-133,113,0,0,0,0,0,0,0,0,0,-1,1091,911,0,0
-126,113,0,0,0,0,0,0,0,0,0,-1,1098,911,0,0
-119,113,0,0,0,0,0,0,0,0,0,-1,1105,911,0,0
-112,113,0,0,0,0,0,0,0,0,0,-1,1112,911,0,0
-105,113,0,0,0,0,0,0,0,0,0,-1,1119,911,0,0
-98,113,0,0,0,0,0,0,0,0,0,-1,1126,911,0,0
-91,113,0,0,0,0,0,0,0,0,0,-1,1133,911,0,0
-84,113,0,0,0,0,0,0,0,0,0,-1,1140,911,0,0
-77,113,0,0,0,0,0,0,0,0,0,-1,1147,911,0,0
-70,113,0,0,0,0,0,0,0,0,0,-1,1154,911,0,0
-63,113,0,0,0,0,0,0,0,0,0,-1,1161,911,0,0
-56,113,0,0,0,0,0,0,0,0,0,-1,1168,911,0,0
-49,113,0,0,0,0,0,0,0,0,0,-1,1175,911,0,0
-42,113,0,0,0,0,0,0,0,0,0,-1,1182,911,0,0
-35,113,0,0,0,0,0,0,0,0,0,-1,1189,911,0,0
-28,113,0,0,0,0,0,0,0,0,0,-1,1196,911,0,0
-21,113,0,0,0,0,0,0,0,0,0,-1,1203,911,0,0
-14,113,0,0,0,0,0,0,0,0,0,-1,1210,911,0,0
-7,113,0,0,0,0,0,0,0,0,0,-1,1217,911,0,0
0,113,0,0,0,0,0,0,0,0,0,-1,1224,911,0,0
7,113,0,0,0,0,0,0,0,0,0,-1,1231,911,0,0
14,113,0,0,0,0,0,0,0,0,0,-1,1238,911,0,0
21,113,0,0,0,0,0,0,0,0,0,-1,1245,911,0,0
28,113,0,0,0,0,0,0,0,0,0,-1,1252,911,0,0
35,113,0,0,0,0,0,0,0,0,0,-1,1259,911,0,0
42,113,0,0,0,0,0,0,0,0,0,-1,1266,911,0,0
49,113,0,0,0,0,0,0,0,0,0,-1,1273,911,0,0
56,113,0,0,0,0,0,0,0,0,0,-1,1280,911,0,0
63,113,0,0,0,0,0,0,0,0,0,-1,1287,911,0,0
70,113,0,0,0,0,0,0,0,0,0,-1,1294,911,0,0
77,113,0,0,0,0,0,0,0,0,0,-1,1301,911,0,0
84,113,0,0,0,0,0,0,0,0,0,-1,1308,911,0,0
91,113,0,0,0,0,0,0,0,0,0,-1,1315,911,0,0
98,113,0,0,0,0,0,0,0,0,0,-1,1322,911,0,0
105,113,0,0,0,0,0,0,0,0,0,-1,1329,911,0,0
112,113,0,0,0,0,0,0,0,0,0,-1,1336,911,0,0
119,113,0,0,0,0,0,0,0,0,0,-1,1343,911,0,0
126,113,0,0,0,0,0,0,0,0,0,-1,1350,911,0,0
133,113,0,0,0,0,0,0,0,0,0,-1,1357,911,0,0
140,113,0,0,0,0,0,0,0,0,0,-1,1364,911,0,0
147,113,0,0,0,0,0,0,0,0,0,-1,1371,911,0,0
154,113,0,0,0,0,0,0,0,0,0,-1,1378,911,0,0
161,113,0,0,0,0,0,0,0,0,0,-1,1385,911,0,0
168,113,0,0,0,0,0,0,0,0,0,-1,1392,911,0,0
175,113,0,0,0,0,0,0,0,0,0,-1,1399,911,0,0
182,113,0,0,0,0,0,0,0,0,0,-1,1406,911,0,0
189,113,0,0,0,0,0,0,0,0,0,-1,1413,911,0,0
196,113,0,0,0,0,0,0,0,0,0,-1,1420,911,0,0
203,113,0,0,0,0,0,0,0,0,0,-1,1427,911,0,0
210,113,0,0,0,0,0,0,0,0,0,-1,1434,911,0,0
217,113,0,0,0,0,0,0,0,0,0,-1,1441,911,0,0
224,113,0,0,0,0,0,0,0,0,0,-1,1448,911,0,0
231,113,0,0,0,0,0,0,0,0,0,-1,1455,911,0,0
238,113,0,0,0,0,0,0,0,0,0,-1,1462,911,0,0
245,113,0,0,0,0,0,0,0,0,0,-1,1469,911,0,0
252,113,0,0,0,0,0,0,0,0,0,-1,1476,911,0,0
259,113,0,0,0,0,0,0,0,0,0,-1,1483,911,0,0
266,113,0,0,0,0,0,0,0,0,0,-1,1490,911,0,0
273,113,0,0,0,0,0,0,0,0,0,-1,1497,911,0,0
280,113,0,0,0,0,0,0,0,0,0,-1,1504,911,0,0
287,113,0,0,0,0,0,0,0,0,0,-1,1511,911,0,0
294,113,0,0,0,0,0,0,0,0,0,-1,1518,911,0,0
301,113,0,0,0,0,0,0,0,0,0,-1,1525,911,0,0
308,113,0,0,0,0,0,0,0,0,0,-1,1532,911,0,0
315,113,0,0,0,0,0,0,0,0,0,-1,1539,911,0,0
322,113,0,0,0,0,0,0,0,0,0,-1,1546,911,0,0
329,113,0,0,0,0,0,0,0,0,0,-1,1553,911,0,0
336,113,0,0,0,0,0,0,0,0,0,-1,1560,911,0,0
343,113,0,0,0,0,0,0,0,0,0,-1,1567,911,0,0
350,113,0,0,0,0,0,0,0,0,0,-1,1574,911,0,0
357,113,0,0,0,0,0,0,0,0,0,-1,1581,911,0,0
364,113,0,0,0,0,0,0,0,0,0,-1,1588,911,0,0
371,113,0,0,0,0,0,0,0,0,0,-1,1595,911,0,0
378,113,0,0,0,0,0,0,0,0,0,-1,1602,911,0,0
385,113,0,0,0,0,0,0,0,0,0,-1,1609,911,0,0
392,113,0,0,0,0,0,0,0,0,0,-1,1616,911,0,0
399,113,0,0,0,0,0,0,0,0,0,-1,1623,911,0,0
406,113,0,0,0,0,0,0,0,0,0,-1,1630,911,0,0
413,113,0,0,0,0,0,0,0,0,0,-1,1637,911,0,0
420,113,0,0,0,0,0,0,0,0,0,-1,1644,911,0,0
427,113,0,0,0,0,0,0,0,0,0,-1,1651,911,0,0
434,113,0,0,0,0,0,0,0,0,0,-1,1658,911,0,0
441,113,0,0,0,0,0,0,0,0,0,-1,1665,911,0,0
448,113,0,0,0,0,0,0,0,0,0,-1,1672,911,0,0
455,113,0,0,0,0,0,0,0,0,0,-1,1679,911,0,0
462,113,0,0,0,0,0,0,0,0,0,-1,1686,911,0,0
469,113,0,0,0,0,0,0,0,0,0,-1,1693,911,0,0
476,113,0,0,0,0,0,0,0,0,0,-1,1700,911,0,0
483,113,0,0,0,0,0,0,0,0,0,-1,1707,911,0,0
490,113,0,0,0,0,0,0,0,0,0,-1,1714,911,0,0
497,113,0,0,0,0,0,0,0,0,0,-1,1721,911,0,0
504,113,0,0,0,0,0,0,0,0,0,-1,1728,911,0,0
511,113,0,0,0,0,0,0,0,0,0,-1,1735,911,0,0
518,113,0,0,0,0,0,0,0,0,0,-1,1742,911,0,0
525,113,0,0,0,0,0,0,0,0,0,-1,1749,911,0,0
532,113,0,0,0,0,0,0,0,0,0,-1,1756,911,0,0
539,113,0,0,0,0,0,0,0,0,0,-1,1763,911,0,0
546,113,0,0,0,0,0,0,0,0,0,-1,1770,911,0,0
553,113,0,0,0,0,0,0,0,0,0,-1,1777,911,0,0
560,113,0,0,0,0,0,0,0,0,0,-1,1784,911,0,0
567,113,0,0,0,0,0,0,0,0,0,-1,1791,911,0,0
574,113,0,0,0,0,0,0,0,0,0,-1,1798,911,0,0
581,113,0,0,0,0,0,0,0,0,0,-1,1805,911,0,0
588,113,0,0,0,0,0,0,0,0,0,-1,1812,911,0,0
595,113,0,0,0,0,0,0,0,0,0,-1,1819,911,0,0
602,113,0,0,0,0,0,0,0,0,0,-1,1826,911,0,0
609,113,0,0,0,0,0,0,0,0,0,-1,1833,911,0,0
616,113,0,0,0,0,0,0,0,0,0,-1,1840,911,0,0
623,113,0,0,0,0,0,0,0,0,0,-1,1847,911,0,0
630,113,83.5078,2.24683,0.00107903,0.00928956,0.00241086,0.00994512,0.000423474,1.3053,0.00649353,0.0394332,1854,911,83.5079,-2.24681
637,113,83.5853,2.50073,0.00139875,0.00679259,0.000857251,0.00692555,0.00126579,1.41691,0.00425829,0.0413845,1861,911,83.5853,-2.50073
644,113,83.3351,2.70148,0.00137549,0.00489114,-1.08059e-05,0.00489117,0.00137546,-1.56772,0.00291264,0.039197,1868,911,83.3351,-2.7015
651,113,83.3213,2.50476,0.00112367,0.00350551,-0.000414939,0.00357573,0.00105345,-1.40316,0.00212171,0.040939,1875,911,83.3213,-2.50473
658,113,83.3337,2.41754,0.00069533,0.00253114,-0.000485195,0.00265148,0.000574984,-1.32767,0.00161058,0.0426211,1882,911,83.3337,-2.41756
665,113,83.3466,2.39703,0.000235999,0.00155314,-0.000540888,0.00174678,4.23513e-05,-1.227,0.00115067,0.0377039,1889,911,83.3465,-2.39704
672,113,83.3676,2.32178,-0.000322596,0.000674743,-0.000545459,0.000915125,-0.000562978,-1.15571,0.000861418,0.0376638,1896,911,83.3675,-2.32176
679,113,83.3474,2.24182,-0.000847485,-8.93852e-05,-0.000648164,0.000282428,-0.0012193,-1.04998,0.000921549,0.0328253,1903,911,83.3474,-2.24181
686,113,83.3621,2.36243,-0.00132228,-0.000580215,-0.0010685,0.000179838,-0.00208233,-0.952507,0.00145188,0.0291918,1910,911,83.362,-2.36244
693,113,83.17,2.50708,0,0,0,0,0,0,0,-1,1917,911,83.17,-2.5071
700,113,43.897,2.79669,0,0,0,0,0,0,0,-1,1924,911,43.897,-2.79671
707,113,75.4258,3.55444,0,0,0,0,0,0,0,-1,1931,911,75.4258,-3.55447
714,113,75.9375,4.51398,0,0,0,0,0,0,0,-1,1938,911,75.9376,-4.51401
721,113,75.8385,5.40619,0,0,0,0,0,0,0,-1,1945,911,75.8385,-5.40616
728,113,75.886,6.14709,-0.00471876,0.00121826,-0.00301096,0.00247798,-0.00597848,-1.17455,0.00501984,0.0278742,1952,911,75.886,-6.14707
735,113,75.7418,6.93207,-0.00505832,0.00271275,-0.003579,0.00410989,-0.00645546,-1.19862,0.00614981,0.0231221,1959,911,75.7418,-6.93206
742,113,75.6045,7.69073,-0.00481375,0.00564705,-0.00381579,0.00689101,-0.00605771,-1.25566,0.0074811,0.0144383,1966,911,75.6045,-7.69075
749,113,75.5723,8.50806,-0.00367861,0.0102129,-0.00339834,0.0109997,-0.0044654,-1.34328,0.0091906,0.0115903,1973,911,75.5722,-8.50804
756,113,75.4724,9.323,-0.001503,0.0159603,-0.00226558,0.0162494,-0.00179214,-1.44386,0.0114771,0.0163121,1980,911,75.4725,-9.32301
763,113,75.2722,10.2502,0.00153973,0.0219704,-0.000674761,0.0219927,0.00151747,-1.53782,0.014183,0.0394071,1987,911,75.2721,-10.2503
770,113,75.1399,11.1854,0,0,0,0,0,0,0,-1,1994,911,75.1398,-11.1854
777,113,58.1719,9.65338,0,0,0,0,0,0,0,-1,2001,911,58.172,-9.6534
784,113,79.3757,13.6559,0,0,0,0,0,0,0,-1,2008,911,79.3756,-13.6559
791,113,74.5583,10.0654,0,0,0,0,0,0,0,-1,2015,911,74.5583,-10.0654
798,113,74.8208,11.6051,0,0,0,0,0,0,0,-1,2022,911,74.8207,-11.6051
805,113,0,0,0,0,0,0,0,0,0,-1,2029,911,0,0
812,113,0,0,0,0,0,0,0,0,0,-1,2036,911,0,0
-700,106,0,0,0,0,0,0,0,0,0,-1,524,918,0,0
-693,106,0,0,0,0,0,0,0,0,0,-1,531,918,0,0
-686,106,0,0,0,0,0,0,0,0,0,-1,538,918,0,0
-679,106,-60.4137,10.3801,0,0,0,0,0,0,0,-1,545,918,-60.4137,-10.3802
-672,106,-59.9378,11.2709,0,0,0,0,0,0,0,-1,552,918,-59.9378,-11.271
-665,106,-53.5263,9.70886,0,0,0,0,0,0,0,-1,559,918,-53.5263,-9.70888
-658,106,-53.7712,10.2163,0,0,0,0,0,0,0,-1,566,918,-53.7712,-10.2163
-651,106,-52.8008,8.01733,0,0,0,0,0,0,0,-1,573,918,-52.8008,-8.01734
-644,106,-58.6345,11.3256,0,0,0,0,0,0,0,-1,580,918,-58.6344,-11.3256
-637,106,-59.2777,10.5143,-0.0163265,0.0246892,0.00832371,0.026314,-0.0179513,1.37801,0.0257082,0.0481318,587,918,-59.2777,-10.5143
-630,106,-59.9349,9.83307,-0.0126341,0.019354,0.00740279,0.0209841,-0.0142642,1.35405,0.0204735,0.0215238,594,918,-59.9349,-9.83307
-623,106,-60.2025,8.87128,-0.00911623,0.0141628,0.00661087,0.0159092,-0.0108626,1.31253,0.0155479,0.0213706,601,918,-60.2025,-8.87128
-616,106,-60.2691,8.08624,-0.00591149,0.00929903,0.00591617,0.0113292,-0.00794164,1.24024,0.0111832,0.0214396,608,918,-60.2691,-8.08627
-609,106,-60.2572,7.40417,-0.00376047,0.00517038,0.00541235,0.00772162,-0.00631171,1.13031,0.00811576,0.0142286,615,918,-60.2572,-7.4042
-602,106,-60.3,6.56,-0.00275826,0.00264607,0.00491894,0.00555618,-0.00566837,1.03657,0.00648061,0.0239253,622,918,-60.3,-6.56003
-595,106,-60.475,5.76215,-0.00195155,0.001425,0.00431618,0.00437135,-0.00489789,0.971825,0.00535448,0.0295819,629,918,-60.475,-5.76213
-588,106,-60.5229,4.92572,-0.00156035,0.000610419,0.00348719,0.00317723,-0.00412716,0.936271,0.00422906,0.0360636,636,918,-60.5229,-4.92569
-581,106,-60.0711,4.21912,0,0,0,0,0,0,0,-1,643,918,-60.0711,-4.21909
-574,106,-60.2056,3.00964,0,0,0,0,0,0,0,-1,650,918,-60.2056,-3.00967
-567,106,-41.3706,0.420776,0,0,0,0,0,0,0,-1,657,918,-41.3706,-0.420794
-560,106,-66.5142,0.611816,0,0,0,0,0,0,0,-1,664,918,-66.5142,-0.61184
-553,106,-66.5762,0.636108,-0.000680878,-0.00175197,0.000528569,-0.000463965,-0.00196889,0.38942,0.00118852,0.0364248,671,918,-66.5762,-0.636089
-546,106,-66.5654,0.577576,-0.00107866,-0.00166452,-4.69985e-05,-0.00107491,-0.00166826,-0.0795441,0.000976456,0.0372288,678,918,-66.5654,-0.577561
-539,106,-66.4197,0.479736,-0.00126933,-0.00121045,-0.000697189,-0.000542077,-0.0019377,-0.806497,0.00115434,0.0386165,685,918,-66.4197,-0.479753
-532,106,-66.5681,0.449463,-0.000331405,-0.000691651,-0.00125454,0.000755873,-0.00177893,-0.714097,0.00150268,0.0395331,692,918,-66.5681,-0.449484
-525,106,-66.8226,0.403259,0.000961383,5.98374e-05,-0.00132781,0.00191285,-0.000891627,-0.621759,0.00165456,0.0386857,699,918,-66.8226,-0.40326
-518,106,-66.765,0.528931,0.00258826,0.0010003,-0.00107621,0.00313168,0.000456874,-0.46759,0.00195339,0.0425954,706,918,-66.7649,-0.528954
-511,106,0,0,0,0,0,0,0,0,0,-1,713,918,0,0
-504,106,0,0,0,0,0,0,0,0,0,-1,720,918,0,0
-497,106,0,0,0,0,0,0,0,0,0,-1,727,918,0,0
-490,106,0,0,0,0,0,0,0,0,0,-1,734,918,0,0
-483,106,0,0,0,0,0,0,0,0,0,-1,741,918,0,0
-476,106,0,0,0,0,0,0,0,0,0,-1,748,918,0,0
-469,106,0,0,0,0,0,0,0,0,0,-1,755,918,0,0
-462,106,0,0,0,0,0,0,0,0,0,-1,762,918,0,0
-455,106,0,0,0,0,0,0,0,0,0,-1,769,918,0,0
-448,106,0,0,0,0,0,0,0,0,0,-1,776,918,0,0
-441,106,0,0,0,0,0,0,0,0,0,-1,783,918,0,0
-434,106,0,0,0,0,0,0,0,0,0,-1,790,918,0,0
-427,106,0,0,0,0,0,0,0,0,0,-1,797,918,0,0
-420,106,0,0,0,0,0,0,0,0,0,-1,804,918,0,0
-413,106,0,0,0,0,0,0,0,0,0,-1,811,918,0,0
-406,106,0,0,0,0,0,0,0,0,0,-1,818,918,0,0
-399,106,0,0,0,0,0,0,0,0,0,-1,825,918,0,0
-392,106,0,0,0,0,0,0,0,0,0,-1,832,918,0,0
-385,106,0,0,0,0,0,0,0,0,0,-1,839,918,0,0
-378,106,0,0,0,0,0,0,0,0,0,-1,846,918,0,0
-371,106,0,0,0,0,0,0,0,0,0,-1,853,918,0,0
-364,106,0,0,0,0,0,0,0,0,0,-1,860,918,0,0
-357,106,0,0,0,0,0,0,0,0,0,-1,867,918,0,0
-350,106,0,0,0,0,0,0,0,0,0,-1,874,918,0,0
-343,106,0,0,0,0,0,0,0,0,0,-1,881,918,0,0
-336,106,0,0,0,0,0,0,0,0,0,-1,888,918,0,0
-329,106,0,0,0,0,0,0,0,0,0,-1,895,918,0,0
-322,106,0,0,0,0,0,0,0,0,0,-1,902,918,0,0
-315,106,0,0,0,0,0,0,0,0,0,-1,909,918,0,0
-308,106,0,0,0,0,0,0,0,0,0,-1,916,918,0,0
-301,106,0,0,0,0,0,0,0,0,0,-1,923,918,0,0
-294,106,0,0,0,0,0,0,0,0,0,-1,930,918,0,0
-287,106,0,0,0,0,0,0,0,0,0,-1,937,918,0,0
-280,106,0,0,0,0,0,0,0,0,0,-1,944,918,0,0
-273,106,0,0,0,0,0,0,0,0,0,-1,951,918,0,0
-266,106,0,0,0,0,0,0,0,0,0,-1,958,918,0,0
-259,106,0,0,0,0,0,0,0,0,0,-1,965,918,0,0
-252,106,0,0,0,0,0,0,0,0,0,-1,972,918,0,0
-245,106,0,0,0,0,0,0,0,0,0,-1,979,918,0,0
-238,106,0,0,0,0,0,0,0,0,0,-1,986,918,0,0
-231,106,0,0,0,0,0,0,0,0,0,-1,993,918,0,0
-224,106,0,0,0,0,0,0,0,0,0,-1,1000,918,0,0
-217,106,0,0,0,0,0,0,0,0,0,-1,1007,918,0,0
-210,106,0,0,0,0,0,0,0,0,0,-1,1014,918,0,0
-203,106,0,0,0,0,0,0,0,0,0,-1,1021,918,0,0
-196,106,0,0,0,0,0,0,0,0,0,-1,1028,918,0,0
-189,106,0,0,0,0,0,0,0,0,0,-1,1035,918,0,0
-182,106,0,0,0,0,0,0,0,0,0,-1,1042,918,0,0
-175,106,0,0,0,0,0,0,0,0,0,-1,1049,918,0,0
-168,106,0,0,0,0,0,0,0,0,0,-1,1056,918,0,0
-161,106,0,0,0,0,0,0,0,0,0,-1,1063,918,0,0
-154,106,0,0,0,0,0,0,0,0,0,-1,1070,918,0,0
-147,106,0,0,0,0,0,0,0,0,0,-1,1077,918,0,0
-140,106,0,0,0,0,0,0,0,0,0,-1,1084,918,0,0
-133,106,0,0,0,0,0,0,0,0,0,-1,1091,918,0,0
-126,106,0,0,0,0,0,0,0,0,0,-1,1098,918,0,0
-119,106,0,0,0,0,0,0,0,0,0,-1,1105,918,0,0
-112,106,0,0,0,0,0,0,0,0,0,-1,1112,918,0,0
-105,106,0,0,0,0,0,0,0,0,0,-1,1119,918,0,0
-98,106,0,0,0,0,0,0,0,0,0,-1,1126,918,0,0
-91,106,0,0,0,0,0,0,0,0,0,-1,1133,918,0,0
-84,106,0,0,0,0,0,0,0,0,0,-1,1140,918,0,0
-77,106,0,0,0,0,0,0,0,0,0,-1,1147,918,0,0
-70,106,0,0,0,0,0,0,0,0,0,-1,1154,918,0,0
-63,106,0,0,0,0,0,0,0,0,0,-1,1161,918,0,0
-56,106,0,0,0,0,0,0,0,0,0,-1,1168,918,0,0
-49,106,0,0,0,0,0,0,0,0,0,-1,1175,918,0,0
-42,106,0,0,0,0,0,0,0,0,0,-1,1182,918,0,0
-35,106,0,0,0,0,0,0,0,0,0,-1,1189,918,0,0
-28,106,0,0,0,0,0,0,0,0,0,-1,1196,918,0,0
-21,106,0,0,0,0,0,0,0,0,0,-1,1203,918,0,0
-14,106,0,0,0,0,0,0,0,0,0,-1,1210,918,0,0
-7,106,0,0,0,0,0,0,0,0,0,-1,1217,918,0,0
0,106,0,0,0,0,0,0,0,0,0,-1,1224,918,0,0
7,106,0,0,0,0,0,0,0,0,0,-1,1231,918,0,0
14,106,0,0,0,0,0,0,0,0,0,-1,1238,918,0,0
21,106,0,0,0,0,0,0,0,0,0,-1,1245,918,0,0
28,106,0,0,0,0,0,0,0,0,0,-1,1252,918,0,0
35,106,0,0,0,0,0,0,0,0,0,-1,1259,918,0,0
42,106,0,0,0,0,0,0,0,0,0,-1,1266,918,0,0
49,106,0,0,0,0,0,0,0,0,0,-1,1273,918,0,0
56,106,0,0,0,0,0,0,0,0,0,-1,1280,918,0,0
63,106,0,0,0,0,0,0,0,0,0,-1,1287,918,0,0
70,106,0,0,0,0,0,0,0,0,0,-1,1294,918,0,0
77,106,0,0,0,0,0,0,0,0,0,-1,1301,918,0,0
84,106,0,0,0,0,0,0,0,0,0,-1,1308,918,0,0
91,106,0,0,0,0,0,0,0,0,0,-1,1315,918,0,0
98,106,0,0,0,0,0,0,0,0,0,-1,1322,918,0,0
105,106,0,0,0,0,0,0,0,0,0,-1,1329,918,0,0
112,106,0,0,0,0,0,0,0,0,0,-1,1336,918,0,0
119,106,0,0,0,0,0,0,0,0,0,-1,1343,918,0,0
126,106,0,0,0,0,0,0,0,0,0,-1,1350,918,0,0
133,106,0,0,0,0,0,0,0,0,0,-1,1357,918,0,0
140,106,0,0,0,0,0,0,0,0,0,-1,1364,918,0,0
147,106,0,0,0,0,0,0,0,0,0,-1,1371,918,0,0
154,106,0,0,0,0,0,0,0,0,0,-1,1378,918,0,0
161,106,0,0,0,0,0,0,0,0,0,-1,1385,918,0,0
168,106,0,0,0,0,0,0,0,0,0,-1,1392,918,0,0
175,106,0,0,0,0,0,0,0,0,0,-1,1399,918,0,0
182,106,0,0,0,0,0,0,0,0,0,-1,1406,918,0,0
189,106,0,0,0,0,0,0,0,0,0,-1,1413,918,0,0
196,106,0,0,0,0,0,0,0,0,0,-1,1420,918,0,0
203,106,0,0,0,0,0,0,0,0,0,-1,1427,918,0,0
210,106,0,0,0,0,0,0,0,0,0,-1,1434,918,0,0
217,106,0,0,0,0,0,0,0,0,0,-1,1441,918,0,0
224,106,0,0,0,0,0,0,0,0,0,-1,1448,918,0,0
231,106,0,0,0,0,0,0,0,0,0,-1,1455,918,0,0
238,106,0,0,0,0,0,0,0,0,0,-1,1462,918,0,0
245,106,0,0,0,0,0,0,0,0,0,-1,1469,918,0,0
252,106,0,0,0,0,0,0,0,0,0,-1,1476,918,0,0
259,106,0,0,0,0,0,0,0,0,0,-1,1483,918,0,0
266,106,0,0,0,0,0,0,0,0,0,-1,1490,918,0,0
273,106,0,0,0,0,0,0,0,0,0,-1,1497,918,0,0
280,106,0,0,0,0,0,0,0,0,0,-1,1504,918,0,0
287,106,0,0,0,0,0,0,0,0,0,-1,1511,918,0,0
294,106,0,0,0,0,0,0,0,0,0,-1,1518,918,0,0
301,106,0,0,0,0,0,0,0,0,0,-1,1525,918,0,0
308,106,0,0,0,0,0,0,0,0,0,-1,1532,918,0,0
315,106,0,0,0,0,0,0,0,0,0,-1,1539,918,0,0
322,106,0,0,0,0,0,0,0,0,0,-1,1546,918,0,0
329,106,0,0,0,0,0,0,0,0,0,-1,1553,918,0,0
336,106,0,0,0,0,0,0,0,0,0,-1,1560,918,0,0
343,106,0,0,0,0,0,0,0,0,0,-1,1567,918,0,0
350,106,0,0,0,0,0,0,0,0,0,-1,1574,918,0,0
357,106,0,0,0,0,0,0,0,0,0,-1,1581,918,0,0
364,106,0,0,0,0,0,0,0,0,0,-1,1588,918,0,0
371,106,0,0,0,0,0,0,0,0,0,-1,1595,918,0,0
378,106,0,0,0,0,0,0,0,0,0,-1,1602,918,0,0
385,106,0,0,0,0,0,0,0,0,0,-1,1609,918,0,0
392,106,0,0,0,0,0,0,0,0,0,-1,1616,918,0,0
399,106,0,0,0,0,0,0,0,0,0,-1,1623,918,0,0
406,106,0,0,0,0,0,0,0,0,0,-1,1630,918,0,0
413,106,0,0,0,0,0,0,0,0,0,-1,1637,918,0,0
420,106,0,0,0,0,0,0,0,0,0,-1,1644,918,0,0
427,106,0,0,0,0,0,0,0,0,0,-1,1651,918,0,0
434,106,0,0,0,0,0,0,0,0,0,-1,1658,918,0,0
441,106,0,0,0,0,0,0,0,0,0,-1,1665,918,0,0
448,106,0,0,0,0,0,0,0,0,0,-1,1672,918,0,0
455,106,0,0,0,0,0,0,0,0,0,-1,1679,918,0,0
462,106,0,0,0,0,0,0,0,0,0,-1,1686,918,0,0
469,106,0,0,0,0,0,0,0,0,0,-1,1693,918,0,0
476,106,0,0,0,0,0,0,0,0,0,-1,1700,918,0,0
483,106,0,0,0,0,0,0,0,0,0,-1,1707,918,0,0
490,106,0,0,0,0,0,0,0,0,0,-1,1714,918,0,0
497,106,0,0,0,0,0,0,0,0,0,-1,1721,918,0,0
504,106,0,0,0,0,0,0,0,0,0,-1,1728,918,0,0
511,106,0,0,0,0,0,0,0,0,0,-1,1735,918,0,0
518,106,0,0,0,0,0,0,0,0,0,-1,1742,918,0,0
525,106,0,0,0,0,0,0,0,0,0,-1,1749,918,0,0
532,106,0,0,0,0,0,0,0,0,0,-1,1756,918,0,0
539,106,0,0,0,0,0,0,0,0,0,-1,1763,918,0,0
546,106,0,0,0,0,0,0,0,0,0,-1,1770,918,0,0
553,106,0,0,0,0,0,0,0,0,0,-1,1777,918,0,0
560,106,0,0,0,0,0,0,0,0,0,-1,1784,918,0,0
567,106,0,0,0,0,0,0,0,0,0,-1,1791,918,0,0
574,106,0,0,0,0,0,0,0,0,0,-1,1798,918,0,0
581,106,0,0,0,0,0,0,0,0,0,-1,1805,918,0,0
588,106,0,0,0,0,0,0,0,0,0,-1,1812,918,0,0
595,106,0,0,0,0,0,0,0,0,0,-1,1819,918,0,0
602,106,0,0,0,0,0,0,0,0,0,-1,1826,918,0,0
609,106,0,0,0,0,0,0,0,0,0,-1,1833,918,0,0
616,106,0,0,0,0,0,0,0,0,0,-1,1840,918,0,0
623,106,0,0,0,0,0,0,0,0,0,-1,1847,918,0,0
630,106,83.3774,2.08728,0.00106814,0.00942292,0.00270642,0.010223,0.000268047,1.28336,0.00672777,0.0399246,1854,918,83.3774,-2.08725
637,106,83.4625,2.18829,0.00157145,0.00682902,0.000953932,0.00699675,0.00140372,1.39675,0.00427413,0.0410279,1861,918,83.4625,-2.18827
644,106,83.5593,2.31671,0.00166852,0.00488806,5.72339e-06,0.00488807,0.00166851,1.56902,0.0028691,0.0401044,1868,918,83.5593,-2.31672
651,106,83.5039,2.50568,0.00152599,0.00349577,-0.000414275,0.00357935,0.00144241,-1.37171,0.00207947,0.0412796,1875,918,83.504,-2.50567
658,106,83.5214,2.18372,0,0,0,0,0,0,0,-1,1882,918,83.5214,-2.18371
665,106,83.3308,2.42737,0.000884783,0.00161235,-0.000381933,0.00177603,0.000721109,-1.16593,0.00103141,0.0386019,1889,918,83.3308,-2.42736
672,106,83.2285,2.4787,0.000251964,0.000736882,-0.000260228,0.000850099,0.000138748,-1.16043,0.000526611,0.0408562,1896,918,83.2285,-2.47871
679,106,83.2653,2.37531,-0.000422252,-0.000115282,-0.000247636,2.25767e-05,-0.000560111,-1.06282,0.000381156,0.0365515,1903,918,83.2653,-2.37533
686,106,83.3837,2.38715,-0.00101432,-0.000702398,-0.000631806,-0.000207588,-0.00150913,-0.906403,0.000944525,0.0321201,1910,918,83.3837,-2.38715
693,106,83.2034,2.49518,-0.00162807,-0.000934592,-0.00105356,-0.000172182,-0.00239048,-0.944372,0.00153947,0.0414797,1917,918,83.2033,-2.4952
700,106,83.1895,2.63434,0,0,0,0,0,0,0,-1,1924,918,83.1895,-2.63436
707,106,59.4137,3.22595,0,0,0,0,0,0,0,-1,1931,918,59.4136,-3.22598
714,106,76.4142,4.42346,0,0,0,0,0,0,0,-1,1938,918,76.4142,-4.42347
721,106,76.7549,5.42194,-0.00432604,0.000616989,-0.00240749,0.00159575,-0.0053048,-1.18466,0.00417146,0.035552,1945,918,76.7549,-5.42191
728,106,76.7758,6.24133,-0.00487238,0.00146581,-0.00265966,0.00243398,-0.00584055,-1.22169,0.0049104,0.033491,1952,918,76.7757,-6.24131
735,106,76.6593,6.99335,-0.0052152,0.00300477,-0.00331812,0.00417702,-0.00638744,-1.2312,0.00614373,0.0290912,1959,918,76.6593,-6.99334
742,106,76.5012,7.70667,-0.00500795,0.00583218,-0.0036835,0.00696538,-0.00614115,-1.27234,0.00757204,0.0152536,1966,918,76.5013,-7.70664
749,106,76.4353,8.47583,-0.00389084,0.010373,-0.00341593,0.0111488,-0.00466669,-1.34746,0.00938327,0.012675,1973,918,76.4354,-8.47583
756,106,76.3555,9.23651,-0.00160935,0.0163388,-0.00233492,0.0166376,-0.00190813,-1.44353,0.0117794,0.0144588,1980,918,76.3554,-9.2365
763,106,76.2266,10.1671,0.00156172,0.0225962,-0.00074232,0.0226224,0.00153556,-1.53556,0.0145967,0.0315079,1987,918,76.2266,-10.167
770,106,76.5706,10.8198,0,0,0,0,0,0,0,-1,1994,918,76.5705,-10.8198
777,106,78.1221,11.8693,0,0,0,0,0,0,0,-1,2001,918,78.1222,-11.8693
784,106,78.7424,11.3701,0,0,0,0,0,0,0,-1,2008,918,78.7425,-11.3701
791,106,75.1431,10.694,0,0,0,0,0,0,0,-1,2015,918,75.143,-10.6939
798,106,74.9373,11.025,0,0,0,0,0,0,0,-1,2022,918,74.9373,-11.0249
805,106,0,0,0,0,0,0,0,0,0,-1,2029,918,0,0
812,106,0,0,0,0,0,0,0,0,0,-1,2036,918,0,0
-700,99,0,0,0,0,0,0,0,0,0,-1,524,925,0,0
-693,99,0,0,0,0,0,0,0,0,0,-1,531,925,0,0
-686,99,0,0,0,0,0,0,0,0,0,-1,538,925,0,0
-679,99,-60.0285,9.58405,0,0,0,0,0,0,0,-1,545,925,-60.0285,-9.58402
-672,99,-59.5222,10.1797,0,0,0,0,0,0,0,-1,552,925,-59.5222,-10.1797
-665,99,-58.8331,10.9661,0,0,0,0,0,0,0,-1,559,925,-58.8331,-10.9661
-658,99,-58.6227,11.3068,0,0,0,0,0,0,0,-1,566,925,-58.6227,-11.3068
-651,99,-58.2084,11.0227,0,0,0,0,0,0,0,-1,573,925,-58.2084,-11.0227
-644,99,-59.9439,10.8112,0,0,0,0,0,0,0,-1,580,925,-59.9439,-10.8112
-637,99,-60.3667,10.3466,-0.0113633,0.0261456,0.00839786,0.0279399,-0.0131577,1.36029,0.0242339,0.0370636,587,925,-60.3667,-10.3466
-630,99,-60.7904,9.81183,-0.00888616,0.0203488,0.00752988,0.0221742,-0.0107116,1.33296,0.0193673,0.0213639,594,925,-60.7904,-9.81183
-623,99,-61.1057,8.914,-0.00636906,0.0146654,0.00673291,0.0166359,-0.00833959,1.28608,0.0146824,0.0148654,601,925,-61.1056,-8.91403
-616,99,-61.1379,8.11627,-0.00415246,0.00949527,0.00606333,0.0117999,-0.00645707,1.20757,0.01069,0.0169971,608,925,-61.138,-8.11627
-609,99,-61.1261,7.44293,-0.00281411,0.00523282,0.00558633,0.00809379,-0.00567508,1.09749,0.00799024,0.0130717,615,925,-61.1261,-7.44296
-602,99,-61.1329,6.70038,-0.00222754,0.00261645,0.00508666,0.0058283,-0.00543939,1.00759,0.00650669,0.0193166,622,925,-61.1329,-6.70035
-595,99,-61.2797,5.91821,-0.00156389,0.00126209,0.00452532,0.00458989,-0.00489169,0.936722,0.00547512,0.0262968,629,925,-61.2796,-5.9182
-588,99,-61.3408,5.08264,-0.00121332,0.000303997,0.00370573,0.00332793,-0.00423725,0.886366,0.00437826,0.030893,636,925,-61.3408,-5.08264
-581,99,-60.9409,4.35443,0,0,0,0,0,0,0,-1,643,925,-60.9409,-4.35441
-574,99,-58.6707,2.4903,0,0,0,0,0,0,0,-1,650,925,-58.6707,-2.49027
-567,99,-50.5977,0.659485,0,0,0,0,0,0,0,-1,657,925,-50.5977,-0.659461
-560,99,-66.4312,0.454041,0,0,0,0,0,0,0,-1,664,925,-66.4312,-0.454042
-553,99,-66.5577,0.549255,-0.000673722,-0.0021989,0.00025229,-0.000633072,-0.00223955,0.15975,0.00133309,0.0393974,671,925,-66.5577,-0.549248
-546,99,-66.5324,0.481628,-0.000990591,-0.00199564,-0.000445291,-0.000821689,-0.00216455,-0.362542,0.00126172,0.0411974,678,925,-66.5324,-0.481659
-539,99,-66.3932,0.36554,-0.00103843,-0.00142613,-0.00130936,9.13524e-05,-0.00255591,-0.711906,0.00173519,0.0398678,685,925,-66.3932,-0.365545
-532,99,-66.638,0.377136,-0.000200364,-0.000760488,-0.00223131,0.00176839,-0.00272924,-0.722967,0.00261638,0.0432199,692,925,-66.638,-0.377155
-525,99,-66.8406,0.400208,0.000904092,0.000131599,-0.00284752,0.00339144,-0.00235575,-0.717988,0.00333606,0.0410263,699,925,-66.8406,-0.400194
-518,99,-66.8201,0.483398,0.00228372,0.00129584,-0.00307347,0.00490268,-0.00132312,-0.705724,0.00378734,0.0418357,706,925,-66.8201,-0.48342
-511,99,0,0,0,0,0,0,0,0,0,-1,713,925,0,0
-504,99,0,0,0,0,0,0,0,0,0,-1,720,925,0,0
-497,99,0,0,0,0,0,0,0,0,0,-1,727,925,0,0
-490,99,0,0,0,0,0,0,0,0,0,-1,734,925,0,0
-483,99,0,0,0,0,0,0,0,0,0,-1,741,925,0,0
-476,99,0,0,0,0,0,0,0,0,0,-1,748,925,0,0
-469,99,0,0,0,0,0,0,0,0,0,-1,755,925,0,0
-462,99,0,0,0,0,0,0,0,0,0,-1,762,925,0,0
-455,99,0,0,0,0,0,0,0,0,0,-1,769,925,0,0
-448,99,0,0,0,0,0,0,0,0,0,-1,776,925,0,0
-441,99,0,0,0,0,0,0,0,0,0,-1,783,925,0,0
-434,99,0,0,0,0,0,0,0,0,0,-1,790,925,0,0
-427,99,0,0,0,0,0,0,0,0,0,-1,797,925,0,0
-420,99,0,0,0,0,0,0,0,0,0,-1,804,925,0,0
-413,99,0,0,0,0,0,0,0,0,0,-1,811,925,0,0
-406,99,0,0,0,0,0,0,0,0,0,-1,818,925,0,0
-399,99,0,0,0,0,0,0,0,0,0,-1,825,925,0,0
-392,99,0,0,0,0,0,0,0,0,0,-1,832,925,0,0
-385,99,0,0,0,0,0,0,0,0,0,-1,839,925,0,0
-378,99,0,0,0,0,0,0,0,0,0,-1,846,925,0,0
-371,99,0,0,0,0,0,0,0,0,0,-1,853,925,0,0
-364,99,0,0,0,0,0,0,0,0,0,-1,860,925,0,0
-357,99,0,0,0,0,0,0,0,0,0,-1,867,925,0,0
-350,99,0,0,0,0,0,0,0,0,0,-1,874,925,0,0
-343,99,0,0,0,0,0,0,0,0,0,-1,881,925,0,0
-336,99,0,0,0,0,0,0,0,0,0,-1,888,925,0,0
-329,99,0,0,0,0,0,0,0,0,0,-1,895,925,0,0
-322,99,0,0,0,0,0,0,0,0,0,-1,902,925,0,0
-315,99,0,0,0,0,0,0,0,0,0,-1,909,925,0,0
-308,99,0,0,0,0,0,0,0,0,0,-1,916,925,0,0
-301,99,0,0,0,0,0,0,0,0,0,-1,923,925,0,0
-294,99,0,0,0,0,0,0,0,0,0,-1,930,925,0,0
-287,99,0,0,0,0,0,0,0,0,0,-1,937,925,0,0
-280,99,0,0,0,0,0,0,0,0,0,-1,944,925,0,0
-273,99,0,0,0,0,0,0,0,0,0,-1,951,925,0,0
-266,99,0,0,0,0,0,0,0,0,0,-1,958,925,0,0
-259,99,0,0,0,0,0,0,0,0,0,-1,965,925,0,0
-252,99,0,0,0,0,0,0,0,0,0,-1,972,925,0,0
-245,99,0,0,0,0,0,0,0,0,0,-1,979,925,0,0
-238,99,0,0,0,0,0,0,0,0,0,-1,986,925,0,0
-231,99,0,0,0,0,0,0,0,0,0,-1,993,925,0,0
-224,99,0,0,0,0,0,0,0,0,0,-1,1000,925,0,0
-217,99,0,0,0,0,0,0,0,0,0,-1,1007,925,0,0
-210,99,0,0,0,0,0,0,0,0,0,-1,1014,925,0,0
-203,99,0,0,0,0,0,0,0,0,0,-1,1021,925,0,0
-196,99,0,0,0,0,0,0,0,0,0,-1,1028,925,0,0
-189,99,0,0,0,0,0,0,0,0,0,-1,1035,925,0,0
-182,99,0,0,0,0,0,0,0,0,0,-1,1042,925,0,0
-175,99,0,0,0,0,0,0,0,0,0,-1,1049,925,0,0
-168,99,0,0,0,0,0,0,0,0,0,-1,1056,925,0,0
-161,99,0,0,0,0,0,0,0,0,0,-1,1063,925,0,0
-154,99,0,0,0,0,0,0,0,0,0,-1,1070,925,0,0
-147,99,0,0,0,0,0,0,0,0,0,-1,1077,925,0,0
-140,99,0,0,0,0,0,0,0,0,0,-1,1084,925,0,0
-133,99,0,0,0,0,0,0,0,0,0,-1,1091,925,0,0
-126,99,0,0,0,0,0,0,0,0,0,-1,1098,925,0,0
-119,99,0,0,0,0,0,0,0,0,0,-1,1105,925,0,0
-112,99,0,0,0,0,0,0,0,0,0,-1,1112,925,0,0
-105,99,0,0,0,0,0,0,0,0,0,-1,1119,925,0,0
-98,99,0,0,0,0,0,0,0,0,0,-1,1126,925,0,0
-91,99,0,0,0,0,0,0,0,0,0,-1,1133,925,0,0
-84,99,0,0,0,0,0,0,0,0,0,-1,1140,925,0,0
-77,99,0,0,0,0,0,0,0,0,0,-1,1147,925,0,0
-70,99,0,0,0,0,0,0,0,0,0,-1,1154,925,0,0
-63,99,0,0,0,0,0,0,0,0,0,-1,1161,925,0,0
-56,99,0,0,0,0,0,0,0,0,0,-1,1168,925,0,0
-49,99,0,0,0,0,0,0,0,0,0,-1,1175,925,0,0
-42,99,0,0,0,0,0,0,0,0,0,-1,1182,925,0,0
-35,99,0,0,0,0,0,0,0,0,0,-1,1189,925,0,0
-28,99,0,0,0,0,0,0,0,0,0,-1,1196,925,0,0
-21,99,0,0,0,0,0,0,0,0,0,-1,1203,925,0,0
-14,99,0,0,0,0,0,0,0,0,0,-1,1210,925,0,0
-7,99,0,0,0,0,0,0,0,0,0,-1,1217,925,0,0
0,99,0,0,0,0,0,0,0,0,0,-1,1224,925,0,0
7,99,0,0,0,0,0,0,0,0,0,-1,1231,925,0,0
14,99,0,0,0,0,0,0,0,0,0,-1,1238,925,0,0
21,99,0,0,0,0,0,0,0,0,0,-1,1245,925,0,0
28,99,0,0,0,0,0,0,0,0,0,-1,1252,925,0,0
35,99,0,0,0,0,0,0,0,0,0,-1,1259,925,0,0
42,99,0,0,0,0,0,0,0,0,0,-1,1266,925,0,0
49,99,0,0,0,0,0,0,0,0,0,-1,1273,925,0,0
56,99,0,0,0,0,0,0,0,0,0,-1,1280,925,0,0
63,99,0,0,0,0,0,0,0,0,0,-1,1287,925,0,0
70,99,0,0,0,0,0,0,0,0,0,-1,1294,925,0,0
77,99,0,0,0,0,0,0,0,0,0,-1,1301,925,0,0
84,99,0,0,0,0,0,0,0,0,0,-1,1308,925,0,0
91,99,0,0,0,0,0,0,0,0,0,-1,1315,925,0,0
98,99,0,0,0,0,0,0,0,0,0,-1,1322,925,0,0
105,99,0,0,0,0,0,0,0,0,0,-1,1329,925,0,0
112,99,0,0,0,0,0,0,0,0,0,-1,1336,925,0,0
119,99,0,0,0,0,0,0,0,0,0,-1,1343,925,0,0
126,99,0,0,0,0,0,0,0,0,0,-1,1350,925,0,0
133,99,0,0,0,0,0,0,0,0,0,-1,1357,925,0,0
140,99,0,0,0,0,0,0,0,0,0,-1,1364,925,0,0
147,99,0,0,0,0,0,0,0,0,0,-1,1371,925,0,0
154,99,0,0,0,0,0,0,0,0,0,-1,1378,925,0,0
161,99,0,0,0,0,0,0,0,0,0,-1,1385,925,0,0
168,99,0,0,0,0,0,0,0,0,0,-1,1392,925,0,0
175,99,0,0,0,0,0,0,0,0,0,-1,1399,925,0,0
182,99,0,0,0,0,0,0,0,0,0,-1,1406,925,0,0
189,99,0,0,0,0,0,0,0,0,0,-1,1413,925,0,0
196,99,0,0,0,0,0,0,0,0,0,-1,1420,925,0,0
203,99,0,0,0,0,0,0,0,0,0,-1,1427,925,0,0
210,99,0,0,0,0,0,0,0,0,0,-1,1434,925,0,0
217,99,0,0,0,0,0,0,0,0,0,-1,1441,925,0,0
224,99,0,0,0,0,0,0,0,0,0,-1,1448,925,0,0
231,99,0,0,0,0,0,0,0,0,0,-1,1455,925,0,0
238,99,0,0,0,0,0,0,0,0,0,-1,1462,925,0,0
245,99,0,0,0,0,0,0,0,0,0,-1,1469,925,0,0
252,99,0,0,0,0,0,0,0,0,0,-1,1476,925,0,0
259,99,0,0,0,0,0,0,0,0,0,-1,1483,925,0,0
266,99,0,0,0,0,0,0,0,0,0,-1,1490,925,0,0
273,99,0,0,0,0,0,0,0,0,0,-1,1497,925,0,0
280,99,0,0,0,0,0,0,0,0,0,-1,1504,925,0,0
287,99,0,0,0,0,0,0,0,0,0,-1,1511,925,0,0
294,99,0,0,0,0,0,0,0,0,0,-1,1518,925,0,0
301,99,0,0,0,0,0,0,0,0,0,-1,1525,925,0,0
308,99,0,0,0,0,0,0,0,0,0,-1,1532,925,0,0
315,99,0,0,0,0,0,0,0,0,0,-1,1539,925,0,0
322,99,0,0,0,0,0,0,0,0,0,-1,1546,925,0,0
329,99,0,0,0,0,0,0,0,0,0,-1,1553,925,0,0
336,99,0,0,0,0,0,0,0,0,0,-1,1560,925,0,0
343,99,0,0,0,0,0,0,0,0,0,-1,1567,925,0,0
350,99,0,0,0,0,0,0,0,0,0,-1,1574,925,0,0
357,99,0,0,0,0,0,0,0,0,0,-1,1581,925,0,0
364,99,0,0,0,0,0,0,0,0,0,-1,1588,925,0,0
371,99,0,0,0,0,0,0,0,0,0,-1,1595,925,0,0
378,99,0,0,0,0,0,0,0,0,0,-1,1602,925,0,0
385,99,0,0,0,0,0,0,0,0,0,-1,1609,925,0,0
392,99,0,0,0,0,0,0,0,0,0,-1,1616,925,0,0
399,99,0,0,0,0,0,0,0,0,0,-1,1623,925,0,0
406,99,0,0,0,0,0,0,0,0,0,-1,1630,925,0,0
413,99,0,0,0,0,0,0,0,0,0,-1,1637,925,0,0
420,99,0,0,0,0,0,0,0,0,0,-1,1644,925,0,0
427,99,0,0,0,0,0,0,0,0,0,-1,1651,925,0,0
434,99,0,0,0,0,0,0,0,0,0,-1,1658,925,0,0
441,99,0,0,0,0,0,0,0,0,0,-1,1665,925,0,0
448,99,0,0,0,0,0,0,0,0,0,-1,1672,925,0,0
455,99,0,0,0,0,0,0,0,0,0,-1,1679,925,0,0
462,99,0,0,0,0,0,0,0,0,0,-1,1686,925,0,0
469,99,0,0,0,0,0,0,0,0,0,-1,1693,925,0,0
476,99,0,0,0,0,0,0,0,0,0,-1,1700,925,0,0
483,99,0,0,0,0,0,0,0,0,0,-1,1707,925,0,0
490,99,0,0,0,0,0,0,0,0,0,-1,1714,925,0,0
497,99,0,0,0,0,0,0,0,0,0,-1,1721,925,0,0
504,99,0,0,0,0,0,0,0,0,0,-1,1728,925,0,0
511,99,0,0,0,0,0,0,0,0,0,-1,1735,925,0,0
518,99,0,0,0,0,0,0,0,0,0,-1,1742,925,0,0
525,99,0,0,0,0,0,0,0,0,0,-1,1749,925,0,0
532,99,0,0,0,0,0,0,0,0,0,-1,1756,925,0,0
539,99,0,0,0,0,0,0,0,0,0,-1,1763,925,0,0
546,99,0,0,0,0,0,0,0,0,0,-1,1770,925,0,0
553,99,0,0,0,0,0,0,0,0,0,-1,1777,925,0,0
560,99,0,0,0,0,0,0,0,0,0,-1,1784,925,0,0
567,99,0,0,0,0,0,0,0,0,0,-1,1791,925,0,0
574,99,0,0,0,0,0,0,0,0,0,-1,1798,925,0,0
581,99,0,0,0,0,0,0,0,0,0,-1,1805,925,0,0
588,99,0,0,0,0,0,0,0,0,0,-1,1812,925,0,0
595,99,0,0,0,0,0,0,0,0,0,-1,1819,925,0,0
602,99,0,0,0,0,0,0,0,0,0,-1,1826,925,0,0
609,99,0,0,0,0,0,0,0,0,0,-1,1833,925,0,0
616,99,0,0,0,0,0,0,0,0,0,-1,1840,925,0,0
623,99,0,0,0,0,0,0,0,0,0,-1,1847,925,0,0
630,99,0,0,0,0,0,0,0,0,0,-1,1854,925,0,0
637,99,83.4016,2.09149,0.00177291,0.00706736,0.000618109,0.00713856,0.0017017,1.4561,0.00430541,0.0452712,1861,925,83.4016,-2.09148
644,99,83.6238,2.03918,0.00193188,0.00512208,-0.00026598,0.0051441,0.00190985,-1.48818,0.00300258,0.0423832,1868,925,83.6238,-2.03916
651,99,83.8455,1.97137,0,0,0,0,0,0,0,-1,1875,925,83.8455,-1.97138
658,99,83.3231,2.59973,0,0,0,0,0,0,0,-1,1882,925,83.3232,-2.59972
665,99,83.2639,2.61548,0.00127999,0.00202995,-0.00035673,0.00217253,0.00113741,-1.19057,0.00125477,0.0391852,1889,925,83.264,-2.61546
672,99,83.2562,2.47815,0.000554177,0.00118994,-7.84594e-05,0.00119948,0.000544637,-1.4498,0.000693494,0.040202,1896,925,83.2563,-2.47817
679,99,83.2163,2.34692,-0.000255055,0.000270301,9.09382e-05,0.000285597,-0.000270351,1.40416,0.000321017,0.0358558,1903,925,83.2163,-2.34694
686,99,83.2065,2.41907,-0.000952375,-0.000425059,-0.000203776,-0.00035549,-0.00102194,-1.2418,0.000599055,0.0290899,1910,925,83.2066,-2.41906
693,99,83.2729,2.4967,-0.0016652,-0.00073927,-0.000582027,-0.000458533,-0.00194594,-1.12137,0.00117467,0.0357382,1917,925,83.273,-2.49668
700,99,83.2188,2.58289,0,0,0,0,0,0,0,-1,1924,925,83.2187,-2.58291
707,99,47.9915,3.27429,0,0,0,0,0,0,0,-1,1931,925,47.9914,-3.27427
714,99,77.3431,4.39673,0,0,0,0,0,0,0,-1,1938,925,77.3432,-4.39674
721,99,77.5577,5.38788,-0.00478042,0.000873465,-0.00203806,0.00153153,-0.00543849,-1.25847,0.00422963,0.0383738,1945,925,77.5577,-5.3879
728,99,77.5597,6.20947,-0.00527217,0.0018774,-0.00228039,0.00254281,-0.00593758,-1.28688,0.00502522,0.0314151,1952,925,77.5597,-6.20946
735,99,77.4753,6.99756,-0.00558259,0.00345657,-0.00301429,0.00436953,-0.00649555,-1.2767,0.00631286,0.0258832,1959,925,77.4754,-6.99754
742,99,77.349,7.73944,-0.0054127,0.00613005,-0.00349865,0.0071077,-0.00639035,-1.29831,0.00779677,0.0183974,1966,925,77.349,-7.73945
749,99,77.2595,8.45081,-0.00441403,0.0104571,-0.00342812,0.0112093,-0.00516624,-1.3548,0.00966663,0.0159709,1973,925,77.2594,-8.45081
756,99,77.1987,9.14319,-0.0022227,0.0163639,-0.00251647,0.0166986,-0.00255738,-1.43858,0.0120754,0.0152771,1980,925,77.1987,-9.1432
763,99,77.1724,9.89197,0.000919865,0.02275,-0.00100498,0.0227962,0.000873698,-1.52489,0.0149148,0.0181166,1987,925,77.1725,-9.89197
770,99,77.4348,10.5823,0.00514452,0.0291442,0.000995346,0.0291854,0.00510331,1.52942,0.0179986,0.0337357,1994,925,77.4349,-10.5823
777,99,78.1504,11.4683,0.0109663,0.0361962,0.00464029,0.0370225,0.0101399,1.39456,0.0220915,0.0444524,2001,925,78.1504,-11.4683
784,99,78.6621,12.4528,0,0,0,0,0,0,0,-1,2008,925,78.662,-12.4528
791,99,79.249,11.6558,0,0,0,0,0,0,0,-1,2015,925,79.2489,-11.6558
798,99,75.6328,11.8039,0,0,0,0,0,0,0,-1,2022,925,75.6327,-11.8039
805,99,0,0,0,0,0,0,0,0,0,-1,2029,925,0,0
812,99,0,0,0,0,0,0,0,0,0,-1,2036,925,0,0
-700,92,0,0,0,0,0,0,0,0,0,-1,524,932,0,0
-693,92,0,0,0,0,0,0,0,0,0,-1,531,932,0,0
-686,92,-71.6475,-3.3797,0,0,0,0,0,0,0,-1,538,932,-71.6475,3.3797
-679,92,-69.8624,-2.1322,0,0,0,0,0,0,0,-1,545,932,-69.8624,2.1322
-672,92,-59.2169,9.25281,0,0,0,0,0,0,0,-1,552,932,-59.2169,-9.25281
-665,92,-58.6809,9.84479,0,0,0,0,0,0,0,-1,559,932,-58.6809,-9.8448
-658,92,-58.4986,10.1044,0,0,0,0,0,0,0,-1,566,932,-58.4986,-10.1044
-651,92,-58.3638,10.0627,0,0,0,0,0,0,0,-1,573,932,-58.3637,-10.0627
-644,92,-61.1832,10.5844,0,0,0,0,0,0,0,-1,580,932,-61.1832,-10.5843
-637,92,-61.8413,10.1606,0,0,0,0,0,0,0,-1,587,932,-61.8413,-10.1607
-630,92,-61.6978,9.64008,-0.00552489,0.0214601,0.00741321,0.0233625,-0.0074273,1.31959,0.0185531,0.0166145,594,932,-61.6977,-9.64008
-623,92,-61.8665,8.90875,-0.00389913,0.015242,0.00670934,0.0173595,-0.00601663,1.26508,0.0140158,0.0106767,601,932,-61.8665,-8.90878
-616,92,-61.9167,8.18982,-0.00251531,0.00973048,0.00612358,0.0122671,-0.00505198,1.17807,0.0102844,0.00984748,608,932,-61.9167,-8.1898
-609,92,-61.959,7.47247,-0.00179361,0.00533999,0.00572345,0.00851707,-0.0049707,1.06405,0.00787638,0.00963362,615,932,-61.959,-7.47245
-602,92,-61.9547,6.70551,-0.00150701,0.00267067,0.00523772,0.00622071,-0.00505705,0.975137,0.00652276,0.0126084,622,932,-61.9547,-6.70552
-595,92,-61.889,5.86066,-0.00096871,0.00124378,0.00471267,0.00497831,-0.00470324,0.90068,0.00559039,0.0261368,629,932,-61.889,-5.86065
-588,92,-61.8796,5.12311,-0.00068177,0.000198959,0.00390672,0.00369006,-0.00417287,0.841521,0.00454252,0.0374807,636,932,-61.8797,-5.12309
-581,92,-62.7358,4.3136,0,0,0,0,0,0,0,-1,643,932,-62.7359,-4.31361
-574,92,-63.7806,3.35211,0,0,0,0,0,0,0,-1,650,932,-63.7806,-3.35211
-567,92,-66.4218,0.571899,0,0,0,0,0,0,0,-1,657,932,-66.4218,-0.571872
-560,92,-66.3953,0.486572,-0.000402294,-0.00220464,0.000676383,-0.000176699,-0.00243024,0.321929,0.00156459,0.0385282,664,932,-66.3952,-0.486554
-553,92,-66.5323,0.447021,-0.000645941,-0.00221123,-0.00012619,-0.000635833,-0.00222133,-0.0799298,0.00132098,0.0389693,671,932,-66.5323,-0.447031
-546,92,-66.545,0.541138,-0.000900874,-0.00181889,-0.0010297,-0.00023251,-0.00248726,-0.575733,0.00158636,0.039162,678,932,-66.545,-0.541153
-539,92,-66.5054,0.581116,-0.00087893,-0.00107533,-0.00221392,0.00123897,-0.00319323,-0.763235,0.00264054,0.0379508,685,932,-66.5055,-0.581117
-532,92,-66.6484,0.436584,-0.000254882,-0.000294025,-0.00358023,0.00330583,-0.00385474,-0.782665,0.0041382,0.0433215,692,932,-66.6484,-0.436577
-525,92,-66.6971,0.507202,0.000532059,0.000631402,-0.00473954,0.00532154,-0.00415807,-0.790638,0.00548678,0.0404175,699,932,-66.6972,-0.507231
-518,92,-66.6529,0.557861,0.00152456,0.001848,-0.00549517,0.00718383,-0.00381127,-0.800108,0.0064468,0.0384744,706,932,-66.6529,-0.557849
-511,92,0,0,0,0,0,0,0,0,0,-1,713,932,0,0
-504,92,0,0,0,0,0,0,0,0,0,-1,720,932,0,0
-497,92,0,0,0,0,0,0,0,0,0,-1,727,932,0,0
-490,92,0,0,0,0,0,0,0,0,0,-1,734,932,0,0
-483,92,0,0,0,0,0,0,0,0,0,-1,741,932,0,0
-476,92,0,0,0,0,0,0,0,0,0,-1,748,932,0,0
-469,92,0,0,0,0,0,0,0,0,0,-1,755,932,0,0
-462,92,0,0,0,0,0,0,0,0,0,-1,762,932,0,0
-455,92,0,0,0,0,0,0,0,0,0,-1,769,932,0,0
-448,92,0,0,0,0,0,0,0,0,0,-1,776,932,0,0
-441,92,0,0,0,0,0,0,0,0,0,-1,783,932,0,0
-434,92,0,0,0,0,0,0,0,0,0,-1,790,932,0,0
-427,92,0,0,0,0,0,0,0,0,0,-1,797,932,0,0
-420,92,0,0,0,0,0,0,0,0,0,-1,804,932,0,0
-413,92,0,0,0,0,0,0,0,0,0,-1,811,932,0,0
-406,92,0,0,0,0,0,0,0,0,0,-1,818,932,0,0
-399,92,0,0,0,0,0,0,0,0,0,-1,825,932,0,0
-392,92,0,0,0,0,0,0,0,0,0,-1,832,932,0,0
-385,92,0,0,0,0,0,0,0,0,0,-1,839,932,0,0
-378,92,0,0,0,0,0,0,0,0,0,-1,846,932,0,0
-371,92,0,0,0,0,0,0,0,0,0,-1,853,932,0,0
-364,92,0,0,0,0,0,0,0,0,0,-1,860,932,0,0
-357,92,0,0,0,0,0,0,0,0,0,-1,867,932,0,0
-350,92,0,0,0,0,0,0,0,0,0,-1,874,932,0,0
-343,92,0,0,0,0,0,0,0,0,0,-1,881,932,0,0
-336,92,0,0,0,0,0,0,0,0,0,-1,888,932,0,0
-329,92,0,0,0,0,0,0,0,0,0,-1,895,932,0,0
-322,92,0,0,0,0,0,0,0,0,0,-1,902,932,0,0
-315,92,0,0,0,0,0,0,0,0,0,-1,909,932,0,0
-308,92,0,0,0,0,0,0,0,0,0,-1,916,932,0,0
-301,92,0,0,0,0,0,0,0,0,0,-1,923,932,0,0
-294,92,0,0,0,0,0,0,0,0,0,-1,930,932,0,0
-287,92,0,0,0,0,0,0,0,0,0,-1,937,932,0,0
-280,92,0,0,0,0,0,0,0,0,0,-1,944,932,0,0
-273,92,0,0,0,0,0,0,0,0,0,-1,951,932,0,0
-266,92,0,0,0,0,0,0,0,0,0,-1,958,932,0,0
-259,92,0,0,0,0,0,0,0,0,0,-1,965,932,0,0
-252,92,0,0,0,0,0,0,0,0,0,-1,972,932,0,0
-245,92,0,0,0,0,0,0,0,0,0,-1,979,932,0,0
-238,92,0,0,0,0,0,0,0,0,0,-1,986,932,0,0
-231,92,0,0,0,0,0,0,0,0,0,-1,993,932,0,0
-224,92,0,0,0,0,0,0,0,0,0,-1,1000,932,0,0
-217,92,0,0,0,0,0,0,0,0,0,-1,1007,932,0,0
-210,92,0,0,0,0,0,0,0,0,0,-1,1014,932,0,0
-203,92,0,0,0,0,0,0,0,0,0,-1,1021,932,0,0
-196,92,0,0,0,0,0,0,0,0,0,-1,1028,932,0,0
-189,92,0,0,0,0,0,0,0,0,0,-1,1035,932,0,0
-182,92,0,0,0,0,0,0,0,0,0,-1,1042,932,0,0
-175,92,0,0,0,0,0,0,0,0,0,-1,1049,932,0,0
-168,92,0,0,0,0,0,0,0,0,0,-1,1056,932,0,0
-161,92,0,0,0,0,0,0,0,0,0,-1,1063,932,0,0
-154,92,0,0,0,0,0,0,0,0,0,-1,1070,932,0,0
-147,92,0,0,0,0,0,0,0,0,0,-1,1077,932,0,0
-140,92,0,0,0,0,0,0,0,0,0,-1,1084,932,0,0
-133,92,0,0,0,0,0,0,0,0,0,-1,1091,932,0,0
-126,92,0,0,0,0,0,0,0,0,0,-1,1098,932,0,0
-119,92,0,0,0,0,0,0,0,0,0,-1,1105,932,0,0
-112,92,0,0,0,0,0,0,0,0,0,-1,1112,932,0,0
-105,92,0,0,0,0,0,0,0,0,0,-1,1119,932,0,0
-98,92,0,0,0,0,0,0,0,0,0,-1,1126,932,0,0
-91,92,0,0,0,0,0,0,0,0,0,-1,1133,932,0,0
-84,92,0,0,0,0,0,0,0,0,0,-1,1140,932,0,0
-77,92,0,0,0,0,0,0,0,0,0,-1,1147,932,0,0
-70,92,0,0,0,0,0,0,0,0,0,-1,1154,932,0,0
-63,92,0,0,0,0,0,0,0,0,0,-1,1161,932,0,0
-56,92,0,0,0,0,0,0,0,0,0,-1,1168,932,0,0
-49,92,0,0,0,0,0,0,0,0,0,-1,1175,932,0,0
-42,92,0,0,0,0,0,0,0,0,0,-1,1182,932,0,0
-35,92,0,0,0,0,0,0,0,0,0,-1,1189,932,0,0
-28,92,0,0,0,0,0,0,0,0,0,-1,1196,932,0,0
-21,92,0,0,0,0,0,0,0,0,0,-1,1203,932,0,0
-14,92,0,0,0,0,0,0,0,0,0,-1,1210,932,0,0
-7,92,0,0,0,0,0,0,0,0,0,-1,1217,932,0,0
0,92,0,0,0,0,0,0,0,0,0,-1,1224,932,0,0
7,92,0,0,0,0,0,0,0,0,0,-1,1231,932,0,0
14,92,0,0,0,0,0,0,0,0,0,-1,1238,932,0,0
21,92,0,0,0,0,0,0,0,0,0,-1,1245,932,0,0
28,92,0,0,0,0,0,0,0,0,0,-1,1252,932,0,0
35,92,0,0,0,0,0,0,0,0,0,-1,1259,932,0,0
42,92,0,0,0,0,0,0,0,0,0,-1,1266,932,0,0
49,92,0,0,0,0,0,0,0,0,0,-1,1273,932,0,0
56,92,0,0,0,0,0,0,0,0,0,-1,1280,932,0,0
63,92,0,0,0,0,0,0,0,0,0,-1,1287,932,0,0
70,92,0,0,0,0,0,0,0,0,0,-1,1294,932,0,0
77,92,0,0,0,0,0,0,0,0,0,-1,1301,932,0,0
84,92,0,0,0,0,0,0,0,0,0,-1,1308,932,0,0
91,92,0,0,0,0,0,0,0,0,0,-1,1315,932,0,0
98,92,0,0,0,0,0,0,0,0,0,-1,1322,932,0,0
105,92,0,0,0,0,0,0,0,0,0,-1,1329,932,0,0
112,92,0,0,0,0,0,0,0,0,0,-1,1336,932,0,0
119,92,0,0,0,0,0,0,0,0,0,-1,1343,932,0,0
126,92,0,0,0,0,0,0,0,0,0,-1,1350,932,0,0
133,92,0,0,0,0,0,0,0,0,0,-1,1357,932,0,0
140,92,0,0,0,0,0,0,0,0,0,-1,1364,932,0,0
147,92,0,0,0,0,0,0,0,0,0,-1,1371,932,0,0
154,92,0,0,0,0,0,0,0,0,0,-1,1378,932,0,0
161,92,0,0,0,0,0,0,0,0,0,-1,1385,932,0,0
168,92,0,0,0,0,0,0,0,0,0,-1,1392,932,0,0
175,92,0,0,0,0,0,0,0,0,0,-1,1399,932,0,0
182,92,0,0,0,0,0,0,0,0,0,-1,1406,932,0,0
189,92,0,0,0,0,0,0,0,0,0,-1,1413,932,0,0
196,92,0,0,0,0,0,0,0,0,0,-1,1420,932,0,0
203,92,0,0,0,0,0,0,0,0,0,-1,1427,932,0,0
210,92,0,0,0,0,0,0,0,0,0,-1,1434,932,0,0
217,92,0,0,0,0,0,0,0,0,0,-1,1441,932,0,0
224,92,0,0,0,0,0,0,0,0,0,-1,1448,932,0,0
231,92,0,0,0,0,0,0,0,0,0,-1,1455,932,0,0
238,92,0,0,0,0,0,0,0,0,0,-1,1462,932,0,0
245,92,0,0,0,0,0,0,0,0,0,-1,1469,932,0,0
252,92,0,0,0,0,0,0,0,0,0,-1,1476,932,0,0
259,92,0,0,0,0,0,0,0,0,0,-1,1483,932,0,0
266,92,0,0,0,0,0,0,0,0,0,-1,1490,932,0,0
273,92,0,0,0,0,0,0,0,0,0,-1,1497,932,0,0
280,92,0,0,0,0,0,0,0,0,0,-1,1504,932,0,0
287,92,0,0,0,0,0,0,0,0,0,-1,1511,932,0,0
294,92,0,0,0,0,0,0,0,0,0,-1,1518,932,0,0
301,92,0,0,0,0,0,0,0,0,0,-1,1525,932,0,0
308,92,0,0,0,0,0,0,0,0,0,-1,1532,932,0,0
315,92,0,0,0,0,0,0,0,0,0,-1,1539,932,0,0
322,92,0,0,0,0,0,0,0,0,0,-1,1546,932,0,0
329,92,0,0,0,0,0,0,0,0,0,-1,1553,932,0,0
336,92,0,0,0,0,0,0,0,0,0,-1,1560,932,0,0
343,92,0,0,0,0,0,0,0,0,0,-1,1567,932,0,0
350,92,0,0,0,0,0,0,0,0,0,-1,1574,932,0,0
357,92,0,0,0,0,0,0,0,0,0,-1,1581,932,0,0
364,92,0,0,0,0,0,0,0,0,0,-1,1588,932,0,0
371,92,0,0,0,0,0,0,0,0,0,-1,1595,932,0,0
378,92,0,0,0,0,0,0,0,0,0,-1,1602,932,0,0
385,92,0,0,0,0,0,0,0,0,0,-1,1609,932,0,0
392,92,0,0,0,0,0,0,0,0,0,-1,1616,932,0,0
399,92,0,0,0,0,0,0,0,0,0,-1,1623,932,0,0
406,92,0,0,0,0,0,0,0,0,0,-1,1630,932,0,0
413,92,0,0,0,0,0,0,0,0,0,-1,1637,932,0,0
420,92,0,0,0,0,0,0,0,0,0,-1,1644,932,0,0
427,92,0,0,0,0,0,0,0,0,0,-1,1651,932,0,0
434,92,0,0,0,0,0,0,0,0,0,-1,1658,932,0,0
441,92,0,0,0,0,0,0,0,0,0,-1,1665,932,0,0
448,92,0,0,0,0,0,0,0,0,0,-1,1672,932,0,0
455,92,0,0,0,0,0,0,0,0,0,-1,1679,932,0,0
462,92,0,0,0,0,0,0,0,0,0,-1,1686,932,0,0
469,92,0,0,0,0,0,0,0,0,0,-1,1693,932,0,0
476,92,0,0,0,0,0,0,0,0,0,-1,1700,932,0,0
483,92,0,0,0,0,0,0,0,0,0,-1,1707,932,0,0
490,92,0,0,0,0,0,0,0,0,0,-1,1714,932,0,0
497,92,0,0,0,0,0,0,0,0,0,-1,1721,932,0,0
504,92,0,0,0,0,0,0,0,0,0,-1,1728,932,0,0
511,92,0,0,0,0,0,0,0,0,0,-1,1735,932,0,0
518,92,0,0,0,0,0,0,0,0,0,-1,1742,932,0,0
525,92,0,0,0,0,0,0,0,0,0,-1,1749,932,0,0
532,92,0,0,0,0,0,0,0,0,0,-1,1756,932,0,0
539,92,0,0,0,0,0,0,0,0,0,-1,1763,932,0,0
546,92,0,0,0,0,0,0,0,0,0,-1,1770,932,0,0
553,92,0,0,0,0,0,0,0,0,0,-1,1777,932,0,0
560,92,0,0,0,0,0,0,0,0,0,-1,1784,932,0,0
567,92,0,0,0,0,0,0,0,0,0,-1,1791,932,0,0
574,92,0,0,0,0,0,0,0,0,0,-1,1798,932,0,0
581,92,0,0,0,0,0,0,0,0,0,-1,1805,932,0,0
588,92,0,0,0,0,0,0,0,0,0,-1,1812,932,0,0
595,92,0,0,0,0,0,0,0,0,0,-1,1819,932,0,0
602,92,0,0,0,0,0,0,0,0,0,-1,1826,932,0,0
609,92,0,0,0,0,0,0,0,0,0,-1,1833,932,0,0
616,92,0,0,0,0,0,0,0,0,0,-1,1840,932,0,0
623,92,0,0,0,0,0,0,0,0,0,-1,1847,932,0,0
630,92,0,0,0,0,0,0,0,0,0,-1,1854,932,0,0
637,92,83.3673,2.49451,0.0016484,0.00638616,0.000368173,0.0064146,0.00161996,1.4937,0.0038517,0.0466286,1861,932,83.3673,-2.49452
644,92,83.4407,2.31879,0.00196144,0.00460781,-0.000452687,0.00468311,0.00188615,-1.40598,0.00272079,0.0428205,1868,932,83.4406,-2.31877
651,92,83.5406,2.09033,0,0,0,0,0,0,0,-1,1875,932,83.5406,-2.09035
658,92,83.0999,2.44403,0,0,0,0,0,0,0,-1,1882,932,83.0998,-2.44402
665,92,83.1082,2.54346,0.00154755,0.0020199,-0.000332035,0.00219119,0.00137626,-1.09453,0.00127885,0.0421592,1889,932,83.1082,-2.54347
672,92,83.3113,2.26959,0.000767218,0.00129791,6.77414e-05,0.00130642,0.000758708,1.44582,0.000757534,0.0411798,1896,932,83.3113,-2.2696
679,92,83.1475,2.46875,-0.000124571,0.000409842,0.000378103,0.000605627,-0.000320356,1.093,0.000543007,0.0365431,1903,932,83.1475,-2.46878
686,92,83.1547,2.47363,-0.000874326,-0.000304833,0.000182442,-0.000251399,-0.000927759,1.28589,0.000554056,0.0302858,1910,932,83.1546,-2.47361
693,92,83.2938,2.49567,-0.00164508,-0.000654021,-0.000145841,-0.000633005,-0.00166609,-1.42768,0.00097112,0.0291748,1917,932,83.2938,-2.49564
700,92,83.2728,2.53314,0,0,0,0,0,0,0,-1,1924,932,83.2728,-2.53316
707,92,32.9893,3.26874,0,0,0,0,0,0,0,-1,1931,932,32.9893,-3.26874
714,92,78.7817,4.76672,0,0,0,0,0,0,0,-1,1938,932,78.7818,-4.76672
721,92,78.5474,5.62787,-0.00513099,0.00103902,-0.00169521,0.00147409,-0.00556607,-1.31957,0.0042874,0.0372778,1945,932,78.5473,-5.62785
728,92,78.2944,6.37689,-0.00558212,0.00217793,-0.00192897,0.00263097,-0.00603517,-1.34011,0.00513046,0.0300029,1952,932,78.2944,-6.37687
735,92,78.2321,7.03632,-0.00587651,0.00378721,-0.0026885,0.00448481,-0.00657411,-1.31692,0.00642274,0.0244495,1959,932,78.2321,-7.03633
742,92,78.2322,7.72821,-0.0058077,0.00631344,-0.00323644,0.00712346,-0.00661772,-1.32555,0.00793527,0.0257003,1966,932,78.2321,-7.72819
749,92,78.1172,8.44952,-0.00505242,0.0103931,-0.00331451,0.0110744,-0.00573365,-1.36809,0.00986605,0.022575,1973,932,78.1171,-8.44951
756,92,77.9802,9.1178,-0.00317395,0.016146,-0.00257766,0.016484,-0.00351195,-1.44041,0.0123279,0.0171385,1980,932,77.9802,-9.11779
763,92,77.9602,9.7962,-0.000296719,0.0225853,-0.00115274,0.0226432,-0.000354645,-1.52059,0.0152151,0.0186909,1987,932,77.9602,-9.79622
770,92,77.9666,10.3931,0.00347306,0.0289937,0.00080316,0.0290189,0.0034478,1.53937,0.0183052,0.028613,1994,932,77.9666,-10.3931
777,92,78.5278,11.1147,0.00838102,0.0358074,0.00425883,0.0364535,0.00773492,1.42024,0.0221783,0.0444527,2001,932,78.5279,-11.1148
784,92,79.0789,11.9433,0,0,0,0,0,0,0,-1,2008,932,79.0788,-11.9433
791,92,76.6748,14.3865,0,0,0,0,0,0,0,-1,2015,932,76.6749,-14.3865
798,92,78.9453,11.4465,0,0,0,0,0,0,0,-1,2022,932,78.9453,-11.4465
805,92,0,0,0,0,0,0,0,0,0,-1,2029,932,0,0
812,92,0,0,0,0,0,0,0,0,0,-1,2036,932,0,0
-700,85,0,0,0,0,0,0,0,0,0,-1,524,939,0,0
-693,85,0,0,0,0,0,0,0,0,0,-1,531,939,0,0
-686,85,-71.3799,-3.12042,0,0,0,0,0,0,0,-1,538,939,-71.3799,3.1204
-679,85,-70.2184,-2.08044,0,0,0,0,0,0,0,-1,545,939,-70.2184,2.08043
-672,85,-58.9819,8.30292,0,0,0,0,0,0,0,-1,552,939,-58.9819,-8.30292
-665,85,-58.5912,8.72552,0,0,0,0,0,0,0,-1,559,939,-58.5912,-8.7255
-658,85,-58.3745,8.90198,0,0,0,0,0,0,0,-1,566,939,-58.3745,-8.90199
-651,85,-58.5191,9.10278,0,0,0,0,0,0,0,-1,573,939,-58.5191,-9.1028
-644,85,-63.6904,10.5884,0,0,0,0,0,0,0,-1,580,939,-63.6904,-10.5884
-637,85,-62.9703,10.0805,-0.00363238,0.0294666,0.00774855,0.0311908,-0.00535652,1.35185,0.0227902,0.039663,587,939,-62.9704,-10.0805
-630,85,-62.5552,9.51294,-0.00285971,0.0225705,0.00711894,0.0244277,-0.00471695,1.3156,0.0180639,0.0168035,594,939,-62.5552,-9.51292
-623,85,-62.6679,8.83801,-0.00189895,0.0158258,0.00653437,0.0179744,-0.00404746,1.25313,0.0135353,0.0100293,601,939,-62.6679,-8.838
-616,85,-62.7208,8.1701,-0.00110154,0.0100229,0.00604667,0.0126765,-0.00375519,1.15724,0.00994203,0.0101093,608,939,-62.7208,-8.17008
-609,85,-62.7745,7.47229,-0.000748095,0.0055358,0.00570274,0.00890485,-0.00411715,1.03719,0.00768577,0.0131054,615,939,-62.7745,-7.47228
-602,85,-62.7903,6.74939,-0.000608662,0.0028015,0.0052273,0.00659477,-0.00440194,0.943051,0.00639089,0.0185039,622,939,-62.7903,-6.74939
-595,85,-62.6984,6.00885,-0.00013977,0.00131397,0.00474435,0.00538681,-0.00421261,0.861411,0.00555603,0.0224669,629,939,-62.6984,-6.00883
-588,85,-62.671,5.26697,0.000107588,0.000201516,0.0040003,0.00415513,-0.00384602,0.791268,0.00462062,0.0296167,636,939,-62.671,-5.26696
-581,85,-62.6687,4.41248,0,0,0,0,0,0,0,-1,643,939,-62.6687,-4.4125
-574,85,-57.1787,1.97198,0,0,0,0,0,0,0,-1,650,939,-57.1787,-1.97196
-567,85,-66.4283,0.590637,0,0,0,0,0,0,0,-1,657,939,-66.4283,-0.590645
-560,85,-66.4714,0.581543,-0.000116797,-0.00196224,0.000417259,-2.68394e-05,-0.0020522,0.212343,0.00135927,0.0362063,664,939,-66.4715,-0.581543
-553,85,-66.5535,0.554321,-0.000405315,-0.00174126,-0.000531243,-0.000219821,-0.00192676,-0.335935,0.00121786,0.0391411,671,939,-66.5535,-0.554302
-546,85,-66.5235,0.637024,-0.000655481,-0.00108189,-0.00166981,0.000814686,-0.00255205,-0.721901,0.00202822,0.0393761,678,939,-66.5235,-0.637045
-539,85,-66.4442,0.835449,-0.000747687,-7.74692e-05,-0.00320159,0.0028065,-0.00363166,-0.837543,0.00372723,0.0383307,685,939,-66.4442,-0.835435
-532,85,-66.4686,0.630005,-0.000561453,0.00098307,-0.00506951,0.00533881,-0.00491719,-0.860984,0.00592297,0.0404235,692,939,-66.4686,-0.630009
-525,85,-66.4824,0.578857,-0.000334014,0.00218468,-0.00681971,0.00786034,-0.00600968,-0.876701,0.00803159,0.038565,699,939,-66.4824,-0.578829
-518,85,-66.4766,0.549316,-3.70576e-05,0.00368183,-0.00823911,0.0102687,-0.00662394,-0.896381,0.00982836,0.0361829,706,939,-66.4766,-0.549315
-511,85,0,0,0,0,0,0,0,0,0,-1,713,939,0,0
-504,85,0,0,0,0,0,0,0,0,0,-1,720,939,0,0
-497,85,0,0,0,0,0,0,0,0,0,-1,727,939,0,0
-490,85,0,0,0,0,0,0,0,0,0,-1,734,939,0,0
-483,85,0,0,0,0,0,0,0,0,0,-1,741,939,0,0
-476,85,0,0,0,0,0,0,0,0,0,-1,748,939,0,0
-469,85,0,0,0,0,0,0,0,0,0,-1,755,939,0,0
-462,85,0,0,0,0,0,0,0,0,0,-1,762,939,0,0
-455,85,0,0,0,0,0,0,0,0,0,-1,769,939,0,0
-448,85,0,0,0,0,0,0,0,0,0,-1,776,939,0,0
-441,85,0,0,0,0,0,0,0,0,0,-1,783,939,0,0
-434,85,0,0,0,0,0,0,0,0,0,-1,790,939,0,0
-427,85,0,0,0,0,0,0,0,0,0,-1,797,939,0,0
-420,85,0,0,0,0,0,0,0,0,0,-1,804,939,0,0
-413,85,0,0,0,0,0,0,0,0,0,-1,811,939,0,0
-406,85,0,0,0,0,0,0,0,0,0,-1,818,939,0,0
-399,85,0,0,0,0,0,0,0,0,0,-1,825,939,0,0
-392,85,0,0,0,0,0,0,0,0,0,-1,832,939,0,0
-385,85,0,0,0,0,0,0,0,0,0,-1,839,939,0,0
-378,85,0,0,0,0,0,0,0,0,0,-1,846,939,0,0
-371,85,0,0,0,0,0,0,0,0,0,-1,853,939,0,0
-364,85,0,0,0,0,0,0,0,0,0,-1,860,939,0,0
-357,85,0,0,0,0,0,0,0,0,0,-1,867,939,0,0
-350,85,0,0,0,0,0,0,0,0,0,-1,874,939,0,0
-343,85,0,0,0,0,0,0,0,0,0,-1,881,939,0,0
-336,85,0,0,0,0,0,0,0,0,0,-1,888,939,0,0
-329,85,0,0,0,0,0,0,0,0,0,-1,895,939,0,0
-322,85,0,0,0,0,0,0,0,0,0,-1,902,939,0,0
-315,85,0,0,0,0,0,0,0,0,0,-1,909,939,0,0
-308,85,0,0,0,0,0,0,0,0,0,-1,916,939,0,0
-301,85,0,0,0,0,0,0,0,0,0,-1,923,939,0,0
-294,85,0,0,0,0,0,0,0,0,0,-1,930,939,0,0
-287,85,0,0,0,0,0,0,0,0,0,-1,937,939,0,0
-280,85,0,0,0,0,0,0,0,0,0,-1,944,939,0,0
-273,85,0,0,0,0,0,0,0,0,0,-1,951,939,0,0
-266,85,0,0,0,0,0,0,0,0,0,-1,958,939,0,0
-259,85,0,0,0,0,0,0,0,0,0,-1,965,939,0,0
-252,85,0,0,0,0,0,0,0,0,0,-1,972,939,0,0
-245,85,0,0,0,0,0,0,0,0,0,-1,979,939,0,0
-238,85,0,0,0,0,0,0,0,0,0,-1,986,939,0,0
-231,85,0,0,0,0,0,0,0,0,0,-1,993,939,0,0
-224,85,0,0,0,0,0,0,0,0,0,-1,1000,939,0,0
-217,85,0,0,0,0,0,0,0,0,0,-1,1007,939,0,0
-210,85,0,0,0,0,0,0,0,0,0,-1,1014,939,0,0
-203,85,0,0,0,0,0,0,0,0,0,-1,1021,939,0,0
-196,85,0,0,0,0,0,0,0,0,0,-1,1028,939,0,0
-189,85,0,0,0,0,0,0,0,0,0,-1,1035,939,0,0
-182,85,0,0,0,0,0,0,0,0,0,-1,1042,939,0,0
-175,85,0,0,0,0,0,0,0,0,0,-1,1049,939,0,0
-168,85,0,0,0,0,0,0,0,0,0,-1,1056,939,0,0
-161,85,0,0,0,0,0,0,0,0,0,-1,1063,939,0,0
-154,85,0,0,0,0,0,0,0,0,0,-1,1070,939,0,0
-147,85,0,0,0,0,0,0,0,0,0,-1,1077,939,0,0
-140,85,0,0,0,0,0,0,0,0,0,-1,1084,939,0,0
-133,85,0,0,0,0,0,0,0,0,0,-1,1091,939,0,0
-126,85,0,0,0,0,0,0,0,0,0,-1,1098,939,0,0
-119,85,0,0,0,0,0,0,0,0,0,-1,1105,939,0,0
-112,85,0,0,0,0,0,0,0,0,0,-1,1112,939,0,0
-105,85,0,0,0,0,0,0,0,0,0,-1,1119,939,0,0
-98,85,0,0,0,0,0,0,0,0,0,-1,1126,939,0,0
-91,85,0,0,0,0,0,0,0,0,0,-1,1133,939,0,0
-84,85,0,0,0,0,0,0,0,0,0,-1,1140,939,0,0
-77,85,0,0,0,0,0,0,0,0,0,-1,1147,939,0,0
-70,85,0,0,0,0,0,0,0,0,0,-1,1154,939,0,0
-63,85,0,0,0,0,0,0,0,0,0,-1,1161,939,0,0
-56,85,0,0,0,0,0,0,0,0,0,-1,1168,939,0,0
-49,85,0,0,0,0,0,0,0,0,0,-1,1175,939,0,0
-42,85,0,0,0,0,0,0,0,0,0,-1,1182,939,0,0
-35,85,0,0,0,0,0,0,0,0,0,-1,1189,939,0,0
-28,85,0,0,0,0,0,0,0,0,0,-1,1196,939,0,0
-21,85,0,0,0,0,0,0,0,0,0,-1,1203,939,0,0
-14,85,0,0,0,0,0,0,0,0,0,-1,1210,939,0,0
-7,85,0,0,0,0,0,0,0,0,0,-1,1217,939,0,0
0,85,0,0,0,0,0,0,0,0,0,-1,1224,939,0,0
7,85,0,0,0,0,0,0,0,0,0,-1,1231,939,0,0
14,85,0,0,0,0,0,0,0,0,0,-1,1238,939,0,0
21,85,0,0,0,0,0,0,0,0,0,-1,1245,939,0,0
28,85,0,0,0,0,0,0,0,0,0,-1,1252,939,0,0
35,85,0,0,0,0,0,0,0,0,0,-1,1259,939,0,0
42,85,0,0,0,0,0,0,0,0,0,-1,1266,939,0,0
49,85,0,0,0,0,0,0,0,0,0,-1,1273,939,0,0
56,85,0,0,0,0,0,0,0,0,0,-1,1280,939,0,0
63,85,0,0,0,0,0,0,0,0,0,-1,1287,939,0,0
70,85,0,0,0,0,0,0,0,0,0,-1,1294,939,0,0
77,85,0,0,0,0,0,0,0,0,0,-1,1301,939,0,0
84,85,0,0,0,0,0,0,0,0,0,-1,1308,939,0,0
91,85,0,0,0,0,0,0,0,0,0,-1,1315,939,0,0
98,85,0,0,0,0,0,0,0,0,0,-1,1322,939,0,0
105,85,0,0,0,0,0,0,0,0,0,-1,1329,939,0,0
112,85,0,0,0,0,0,0,0,0,0,-1,1336,939,0,0
119,85,0,0,0,0,0,0,0,0,0,-1,1343,939,0,0
126,85,0,0,0,0,0,0,0,0,0,-1,1350,939,0,0
133,85,0,0,0,0,0,0,0,0,0,-1,1357,939,0,0
140,85,0,0,0,0,0,0,0,0,0,-1,1364,939,0,0
147,85,0,0,0,0,0,0,0,0,0,-1,1371,939,0,0
154,85,0,0,0,0,0,0,0,0,0,-1,1378,939,0,0
161,85,0,0,0,0,0,0,0,0,0,-1,1385,939,0,0
168,85,0,0,0,0,0,0,0,0,0,-1,1392,939,0,0
175,85,0,0,0,0,0,0,0,0,0,-1,1399,939,0,0
182,85,0,0,0,0,0,0,0,0,0,-1,1406,939,0,0
189,85,0,0,0,0,0,0,0,0,0,-1,1413,939,0,0
196,85,0,0,0,0,0,0,0,0,0,-1,1420,939,0,0
203,85,0,0,0,0,0,0,0,0,0,-1,1427,939,0,0
210,85,0,0,0,0,0,0,0,0,0,-1,1434,939,0,0
217,85,0,0,0,0,0,0,0,0,0,-1,1441,939,0,0
224,85,0,0,0,0,0,0,0,0,0,-1,1448,939,0,0
231,85,0,0,0,0,0,0,0,0,0,-1,1455,939,0,0
238,85,0,0,0,0,0,0,0,0,0,-1,1462,939,0,0
245,85,0,0,0,0,0,0,0,0,0,-1,1469,939,0,0
252,85,0,0,0,0,0,0,0,0,0,-1,1476,939,0,0
259,85,0,0,0,0,0,0,0,0,0,-1,1483,939,0,0
266,85,0,0,0,0,0,0,0,0,0,-1,1490,939,0,0
273,85,0,0,0,0,0,0,0,0,0,-1,1497,939,0,0
280,85,0,0,0,0,0,0,0,0,0,-1,1504,939,0,0
287,85,0,0,0,0,0,0,0,0,0,-1,1511,939,0,0
294,85,0,0,0,0,0,0,0,0,0,-1,1518,939,0,0
301,85,0,0,0,0,0,0,0,0,0,-1,1525,939,0,0
308,85,0,0,0,0,0,0,0,0,0,-1,1532,939,0,0
315,85,0,0,0,0,0,0,0,0,0,-1,1539,939,0,0
322,85,0,0,0,0,0,0,0,0,0,-1,1546,939,0,0
329,85,0,0,0,0,0,0,0,0,0,-1,1553,939,0,0
336,85,0,0,0,0,0,0,0,0,0,-1,1560,939,0,0
343,85,0,0,0,0,0,0,0,0,0,-1,1567,939,0,0
350,85,0,0,0,0,0,0,0,0,0,-1,1574,939,0,0
357,85,0,0,0,0,0,0,0,0,0,-1,1581,939,0,0
364,85,0,0,0,0,0,0,0,0,0,-1,1588,939,0,0
371,85,0,0,0,0,0,0,0,0,0,-1,1595,939,0,0
378,85,0,0,0,0,0,0,0,0,0,-1,1602,939,0,0
385,85,0,0,0,0,0,0,0,0,0,-1,1609,939,0,0
392,85,0,0,0,0,0,0,0,0,0,-1,1616,939,0,0
399,85,0,0,0,0,0,0,0,0,0,-1,1623,939,0,0
406,85,0,0,0,0,0,0,0,0,0,-1,1630,939,0,0
413,85,0,0,0,0,0,0,0,0,0,-1,1637,939,0,0
420,85,0,0,0,0,0,0,0,0,0,-1,1644,939,0,0
427,85,0,0,0,0,0,0,0,0,0,-1,1651,939,0,0
434,85,0,0,0,0,0,0,0,0,0,-1,1658,939,0,0
441,85,0,0,0,0,0,0,0,0,0,-1,1665,939,0,0
448,85,0,0,0,0,0,0,0,0,0,-1,1672,939,0,0
455,85,0,0,0,0,0,0,0,0,0,-1,1679,939,0,0
462,85,0,0,0,0,0,0,0,0,0,-1,1686,939,0,0
469,85,0,0,0,0,0,0,0,0,0,-1,1693,939,0,0
476,85,0,0,0,0,0,0,0,0,0,-1,1700,939,0,0
483,85,0,0,0,0,0,0,0,0,0,-1,1707,939,0,0
490,85,0,0,0,0,0,0,0,0,0,-1,1714,939,0,0
497,85,0,0,0,0,0,0,0,0,0,-1,1721,939,0,0
504,85,0,0,0,0,0,0,0,0,0,-1,1728,939,0,0
511,85,0,0,0,0,0,0,0,0,0,-1,1735,939,0,0
518,85,0,0,0,0,0,0,0,0,0,-1,1742,939,0,0
525,85,0,0,0,0,0,0,0,0,0,-1,1749,939,0,0
532,85,0,0,0,0,0,0,0,0,0,-1,1756,939,0,0
539,85,0,0,0,0,0,0,0,0,0,-1,1763,939,0,0
546,85,0,0,0,0,0,0,0,0,0,-1,1770,939,0,0
553,85,0,0,0,0,0,0,0,0,0,-1,1777,939,0,0
560,85,0,0,0,0,0,0,0,0,0,-1,1784,939,0,0
567,85,0,0,0,0,0,0,0,0,0,-1,1791,939,0,0
574,85,0,0,0,0,0,0,0,0,0,-1,1798,939,0,0
581,85,0,0,0,0,0,0,0,0,0,-1,1805,939,0,0
588,85,0,0,0,0,0,0,0,0,0,-1,1812,939,0,0
595,85,0,0,0,0,0,0,0,0,0,-1,1819,939,0,0
602,85,0,0,0,0,0,0,0,0,0,-1,1826,939,0,0
609,85,0,0,0,0,0,0,0,0,0,-1,1833,939,0,0
616,85,0,0,0,0,0,0,0,0,0,-1,1840,939,0,0
623,85,0,0,0,0,0,0,0,0,0,-1,1847,939,0,0
630,85,0,0,0,0,0,0,0,0,0,-1,1854,939,0,0
637,85,83.3516,2.42383,0.00125794,0.00567376,0.000415837,0.00571257,0.00121912,1.47772,0.00347406,0.047784,1861,939,83.3515,-2.42385
644,85,83.2589,2.29462,0.00175579,0.0039694,-0.000333913,0.00401867,0.00170652,-1.42429,0.00232895,0.0460104,1868,939,83.2589,-2.29461
651,85,83.1378,2.41425,0.00191056,0.00281362,-0.000574087,0.00309247,0.00163171,-1.11863,0.00178635,0.0451033,1875,939,83.1379,-2.41427
658,85,83.2144,2.3443,0.00187396,0.00214171,-0.000437975,0.00246581,0.00154986,-0.933724,0.00143923,0.0437159,1882,939,83.2144,-2.34431
665,85,83.2681,2.38159,0.00169074,0.00164048,-0.000127583,0.00179564,0.00153557,-0.688165,0.00112051,0.0438369,1889,939,83.2681,-2.3816
672,85,83.4464,2.44904,0.000926214,0.00101062,0.000318519,0.00128972,0.000647113,0.85126,0.00074462,0.0416122,1896,939,83.4464,-2.44901
679,85,83.9043,2.19922,0,0,0,0,0,0,0,-1,1903,939,83.9043,-2.19919
686,85,83.251,2.26385,-0.000727878,-0.000541695,0.000587462,-3.9994e-05,-0.00122958,0.863977,0.000806718,0.0373806,1910,939,83.2509,-2.26387
693,85,83.2195,2.42157,-0.00152392,-0.000896605,0.000307192,-0.000771231,-0.00164929,1.1833,0.000952883,0.0318515,1917,939,83.2195,-2.42155
700,85,83.2559,2.58557,-0.00239822,-0.000867081,-3.81979e-05,-0.000866129,-0.00239917,-1.54587,0.00140289,0.0448463,1924,939,83.2559,-2.5856
707,85,83.3595,2.69769,0,0,0,0,0,0,0,-1,1931,939,83.3595,-2.69771
714,85,79.6383,4.93774,0,0,0,0,0,0,0,-1,1938,939,79.6383,-4.93774
721,85,79.3041,5.75897,-0.00521284,0.000958118,-0.00130105,0.00122121,-0.00547593,-1.37127,0.00411849,0.0350507,1945,939,79.3041,-5.75899
728,85,78.9968,6.65808,-0.0056741,0.00227027,-0.00151079,0.00254788,-0.00595171,-1.38907,0.0050367,0.0417138,1952,939,78.9968,-6.65811
735,85,78.9906,7.16406,-0.00598492,0.00400237,-0.00222963,0.00447753,-0.00646007,-1.36083,0.00634931,0.0392955,1959,939,78.9906,-7.16404
742,85,79.0454,7.78387,-0.00605388,0.00648342,-0.00276323,0.00706542,-0.00663588,-1.36321,0.00791174,0.0243641,1966,939,79.0454,-7.78385
749,85,78.9001,8.46069,-0.00561127,0.0104504,-0.00291525,0.0109631,-0.00612403,-1.39669,0.00999628,0.0164819,1973,939,78.9001,-8.46068
756,85,78.7205,9.07367,-0.00420182,0.0161662,-0.00230696,0.0164242,-0.00445984,-1.45941,0.0126999,0.014666,1980,939,78.7204,-9.07365
763,85,78.656,9.66864,-0.00181272,0.0228176,-0.000941899,0.0228536,-0.00184868,-1.53263,0.0158878,0.0152119,1987,939,78.656,-9.66865
770,85,78.5146,10.2096,0.00130265,0.0294736,0.000963509,0.0295065,0.00126974,1.53665,0.0192617,0.0206671,1994,939,78.5148,-10.2096
777,85,78.9092,10.8568,0,0,0,0,0,0,0,-1,2001,939,78.9091,-10.8568
784,85,76.9885,10.8651,0,0,0,0,0,0,0,-1,2008,939,76.9885,-10.865
791,85,78.5566,11.372,0,0,0,0,0,0,0,-1,2015,939,78.5565,-11.372
798,85,75.4956,11.9659,0,0,0,0,0,0,0,-1,2022,939,75.4955,-11.966
805,85,67.4045,8.44751,0,0,0,0,0,0,0,-1,2029,939,67.4046,-8.4475
812,85,0,0,0,0,0,0,0,0,0,-1,2036,939,0,0
-700,78,0,0,0,0,0,0,0,0,0,-1,524,946,0,0
-693,78,0,0,0,0,0,0,0,0,0,-1,531,946,0,0
-686,78,-71.3092,-3.06555,0,0,0,0,0,0,0,-1,538,946,-71.3092,3.06553
-679,78,-70.2859,-2.42047,0,0,0,0,0,0,0,-1,545,946,-70.2859,2.42045
-672,78,-68.8298,-1.27698,0,0,0,0,0,0,0,-1,552,946,-68.8298,1.27699
-665,78,-58.3835,7.82446,0,0,0,0,0,0,0,-1,559,946,-58.3835,-7.82444
-658,78,-58.2188,7.96997,0,0,0,0,0,0,0,-1,566,946,-58.2188,-7.96998
-651,78,-57.2355,9.40192,0,0,0,0,0,0,0,-1,573,946,-57.2355,-9.40191
-644,78,-64.7693,10.8589,0,0,0,0,0,0,0,-1,580,946,-64.7693,-10.8589
-637,78,-63.9139,10.1636,-0.000976272,0.030914,0.00713302,0.0324367,-0.00249903,1.36047,0.0225038,0.0392768,587,946,-63.9139,-10.1636
-630,78,-63.3853,9.41199,-0.000920152,0.0235702,0.00665239,0.0252605,-0.0026105,1.32197,0.0177745,0.0226473,594,946,-63.3853,-9.41198
-623,78,-63.4229,8.75616,-0.000671073,0.01643,0.00620744,0.0184457,-0.00268671,1.25682,0.0132836,0.0140131,601,946,-63.4229,-8.75618
-616,78,-63.4772,8.09979,-0.000456597,0.0104555,0.00582023,0.0129772,-0.00297824,1.16196,0.00979628,0.0124401,608,946,-63.4772,-8.09977
-609,78,-63.4905,7.4903,-0.000470102,0.00591676,0.00553338,0.00911209,-0.00366543,1.04711,0.00759723,0.0130022,615,946,-63.4905,-7.49032
-602,78,-63.4992,6.81335,-0.000480119,0.00307927,0.00506748,0.00667049,-0.00407134,0.95427,0.00626202,0.0176182,622,946,-63.4992,-6.81333
-595,78,-63.3983,6.10138,-8.81572e-05,0.00144883,0.00462691,0.00537064,-0.00400996,0.867693,0.00543485,0.0181663,629,946,-63.3983,-6.1014
-588,78,-63.4238,5.44501,0.000130148,0.000232534,0.00397498,0.00415665,-0.00379397,0.791837,0.00459188,0.0168887,636,946,-63.4238,-5.44503
-581,78,-63.417,4.66998,0,0,0,0,0,0,0,-1,643,946,-63.417,-4.66998
-574,78,-66.4222,0.42926,0,0,0,0,0,0,0,-1,650,946,-66.4222,-0.429238
-567,78,-66.4421,0.517456,-0.000101366,-0.00163281,0.00105044,0.000432817,-0.002167,0.47045,0.00160847,0.0360913,657,946,-66.4421,-0.517451
-560,78,-66.5463,0.605774,-0.000145918,-0.00161569,0.000118597,-0.00013641,-0.00162519,0.0800009,0.00104098,0.0325361,664,946,-66.5463,-0.605764
-553,78,-66.5978,0.690613,-0.000317591,-0.00118087,-0.00100119,0.00034104,-0.0018395,-0.581874,0.0013544,0.0385389,671,946,-66.5978,-0.690625
-546,78,-66.5413,0.78894,-0.000366577,-0.000284019,-0.00240497,0.00208002,-0.00273062,-0.793979,0.00278588,0.0420284,678,946,-66.5413,-0.788911
-539,78,-66.2914,0.994324,-0.000299402,0.000946649,-0.00431995,0.00468827,-0.00404102,-0.857015,0.00504447,0.0417096,685,946,-66.2914,-0.99431
-532,78,-66.2565,0.781433,-0.000131224,0.00232423,-0.00676303,0.00797006,-0.00577706,-0.875188,0.0079705,0.0433334,692,946,-66.2565,-0.781461
-525,78,-66.3585,0.595032,9.35093e-06,0.00389872,-0.00917625,0.0113341,-0.00742602,-0.889816,0.0109092,0.0399566,699,946,-66.3585,-0.595058
-518,78,-66.416,0.58197,7.95173e-05,0.00584722,-0.0114228,0.0147446,-0.00881787,-0.909046,0.0137465,0.0388674,706,946,-66.416,-0.581978
-511,78,0,0,0,0,0,0,0,0,0,-1,713,946,0,0
-504,78,0,0,0,0,0,0,0,0,0,-1,720,946,0,0
-497,78,0,0,0,0,0,0,0,0,0,-1,727,946,0,0
-490,78,0,0,0,0,0,0,0,0,0,-1,734,946,0,0
-483,78,0,0,0,0,0,0,0,0,0,-1,741,946,0,0
-476,78,0,0,0,0,0,0,0,0,0,-1,748,946,0,0
-469,78,0,0,0,0,0,0,0,0,0,-1,755,946,0,0
-462,78,0,0,0,0,0,0,0,0,0,-1,762,946,0,0
-455,78,0,0,0,0,0,0,0,0,0,-1,769,946,0,0
-448,78,0,0,0,0,0,0,0,0,0,-1,776,946,0,0
-441,78,0,0,0,0,0,0,0,0,0,-1,783,946,0,0
-434,78,0,0,0,0,0,0,0,0,0,-1,790,946,0,0
-427,78,0,0,0,0,0,0,0,0,0,-1,797,946,0,0
-420,78,0,0,0,0,0,0,0,0,0,-1,804,946,0,0
-413,78,0,0,0,0,0,0,0,0,0,-1,811,946,0,0
-406,78,0,0,0,0,0,0,0,0,0,-1,818,946,0,0
-399,78,0,0,0,0,0,0,0,0,0,-1,825,946,0,0
-392,78,0,0,0,0,0,0,0,0,0,-1,832,946,0,0
-385,78,0,0,0,0,0,0,0,0,0,-1,839,946,0,0
-378,78,0,0,0,0,0,0,0,0,0,-1,846,946,0,0
-371,78,0,0,0,0,0,0,0,0,0,-1,853,946,0,0
-364,78,0,0,0,0,0,0,0,0,0,-1,860,946,0,0
-357,78,0,0,0,0,0,0,0,0,0,-1,867,946,0,0
-350,78,0,0,0,0,0,0,0,0,0,-1,874,946,0,0
-343,78,0,0,0,0,0,0,0,0,0,-1,881,946,0,0
-336,78,0,0,0,0,0,0,0,0,0,-1,888,946,0,0
-329,78,0,0,0,0,0,0,0,0,0,-1,895,946,0,0
-322,78,0,0,0,0,0,0,0,0,0,-1,902,946,0,0
-315,78,0,0,0,0,0,0,0,0,0,-1,909,946,0,0
-308,78,0,0,0,0,0,0,0,0,0,-1,916,946,0,0
-301,78,0,0,0,0,0,0,0,0,0,-1,923,946,0,0
-294,78,0,0,0,0,0,0,0,0,0,-1,930,946,0,0
-287,78,0,0,0,0,0,0,0,0,0,-1,937,946,0,0
-280,78,0,0,0,0,0,0,0,0,0,-1,944,946,0,0
-273,78,0,0,0,0,0,0,0,0,0,-1,951,946,0,0
-266,78,0,0,0,0,0,0,0,0,0,-1,958,946,0,0
-259,78,0,0,0,0,0,0,0,0,0,-1,965,946,0,0
-252,78,0,0,0,0,0,0,0,0,0,-1,972,946,0,0
-245,78,0,0,0,0,0,0,0,0,0,-1,979,946,0,0
-238,78,0,0,0,0,0,0,0,0,0,-1,986,946,0,0
-231,78,0,0,0,0,0,0,0,0,0,-1,993,946,0,0
-224,78,0,0,0,0,0,0,0,0,0,-1,1000,946,0,0
-217,78,0,0,0,0,0,0,0,0,0,-1,1007,946,0,0
-210,78,0,0,0,0,0,0,0,0,0,-1,1014,946,0,0
-203,78,0,0,0,0,0,0,0,0,0,-1,1021,946,0,0
-196,78,0,0,0,0,0,0,0,0,0,-1,1028,946,0,0
-189,78,0,0,0,0,0,0,0,0,0,-1,1035,946,0,0
-182,78,0,0,0,0,0,0,0,0,0,-1,1042,946,0,0
-175,78,0,0,0,0,0,0,0,0,0,-1,1049,946,0,0
-168,78,0,0,0,0,0,0,0,0,0,-1,1056,946,0,0
-161,78,0,0,0,0,0,0,0,0,0,-1,1063,946,0,0
-154,78,0,0,0,0,0,0,0,0,0,-1,1070,946,0,0
-147,78,0,0,0,0,0,0,0,0,0,-1,1077,946,0,0
-140,78,0,0,0,0,0,0,0,0,0,-1,1084,946,0,0
-133,78,0,0,0,0,0,0,0,0,0,-1,1091,946,0,0
-126,78,0,0,0,0,0,0,0,0,0,-1,1098,946,0,0
-119,78,0,0,0,0,0,0,0,0,0,-1,1105,946,0,0
-112,78,0,0,0,0,0,0,0,0,0,-1,1112,946,0,0
-105,78,0,0,0,0,0,0,0,0,0,-1,1119,946,0,0
-98,78,0,0,0,0,0,0,0,0,0,-1,1126,946,0,0
-91,78,0,0,0,0,0,0,0,0,0,-1,1133,946,0,0
-84,78,0,0,0,0,0,0,0,0,0,-1,1140,946,0,0
-77,78,0,0,0,0,0,0,0,0,0,-1,1147,946,0,0
-70,78,0,0,0,0,0,0,0,0,0,-1,1154,946,0,0
-63,78,0,0,0,0,0,0,0,0,0,-1,1161,946,0,0
-56,78,0,0,0,0,0,0,0,0,0,-1,1168,946,0,0
-49,78,0,0,0,0,0,0,0,0,0,-1,1175,946,0,0
-42,78,0,0,0,0,0,0,0,0,0,-1,1182,946,0,0
-35,78,0,0,0,0,0,0,0,0,0,-1,1189,946,0,0
-28,78,0,0,0,0,0,0,0,0,0,-1,1196,946,0,0
-21,78,0,0,0,0,0,0,0,0,0,-1,1203,946,0,0
-14,78,0,0,0,0,0,0,0,0,0,-1,1210,946,0,0
-7,78,0,0,0,0,0,0,0,0,0,-1,1217,946,0,0
0,78,0,0,0,0,0,0,0,0,0,-1,1224,946,0,0
7,78,0,0,0,0,0,0,0,0,0,-1,1231,946,0,0
14,78,0,0,0,0,0,0,0,0,0,-1,1238,946,0,0
21,78,0,0,0,0,0,0,0,0,0,-1,1245,946,0,0
28,78,0,0,0,0,0,0,0,0,0,-1,1252,946,0,0
35,78,0,0,0,0,0,0,0,0,0,-1,1259,946,0,0
42,78,0,0,0,0,0,0,0,0,0,-1,1266,946,0,0
49,78,0,0,0,0,0,0,0,0,0,-1,1273,946,0,0
56,78,0,0,0,0,0,0,0,0,0,-1,1280,946,0,0
63,78,0,0,0,0,0,0,0,0,0,-1,1287,946,0,0
70,78,0,0,0,0,0,0,0,0,0,-1,1294,946,0,0
77,78,0,0,0,0,0,0,0,0,0,-1,1301,946,0,0
84,78,0,0,0,0,0,0,0,0,0,-1,1308,946,0,0
91,78,0,0,0,0,0,0,0,0,0,-1,1315,946,0,0
98,78,0,0,0,0,0,0,0,0,0,-1,1322,946,0,0
105,78,0,0,0,0,0,0,0,0,0,-1,1329,946,0,0
112,78,0,0,0,0,0,0,0,0,0,-1,1336,946,0,0
119,78,0,0,0,0,0,0,0,0,0,-1,1343,946,0,0
126,78,0,0,0,0,0,0,0,0,0,-1,1350,946,0,0
133,78,0,0,0,0,0,0,0,0,0,-1,1357,946,0,0
140,78,0,0,0,0,0,0,0,0,0,-1,1364,946,0,0
147,78,0,0,0,0,0,0,0,0,0,-1,1371,946,0,0
154,78,0,0,0,0,0,0,0,0,0,-1,1378,946,0,0
161,78,0,0,0,0,0,0,0,0,0,-1,1385,946,0,0
168,78,0,0,0,0,0,0,0,0,0,-1,1392,946,0,0
175,78,0,0,0,0,0,0,0,0,0,-1,1399,946,0,0
182,78,0,0,0,0,0,0,0,0,0,-1,1406,946,0,0
189,78,0,0,0,0,0,0,0,0,0,-1,1413,946,0,0
196,78,0,0,0,0,0,0,0,0,0,-1,1420,946,0,0
203,78,0,0,0,0,0,0,0,0,0,-1,1427,946,0,0
210,78,0,0,0,0,0,0,0,0,0,-1,1434,946,0,0
217,78,0,0,0,0,0,0,0,0,0,-1,1441,946,0,0
224,78,0,0,0,0,0,0,0,0,0,-1,1448,946,0,0
231,78,0,0,0,0,0,0,0,0,0,-1,1455,946,0,0
238,78,0,0,0,0,0,0,0,0,0,-1,1462,946,0,0
245,78,0,0,0,0,0,0,0,0,0,-1,1469,946,0,0
252,78,0,0,0,0,0,0,0,0,0,-1,1476,946,0,0
259,78,0,0,0,0,0,0,0,0,0,-1,1483,946,0,0
266,78,0,0,0,0,0,0,0,0,0,-1,1490,946,0,0
273,78,0,0,0,0,0,0,0,0,0,-1,1497,946,0,0
280,78,0,0,0,0,0,0,0,0,0,-1,1504,946,0,0
287,78,0,0,0,0,0,0,0,0,0,-1,1511,946,0,0
294,78,0,0,0,0,0,0,0,0,0,-1,1518,946,0,0
301,78,0,0,0,0,0,0,0,0,0,-1,1525,946,0,0
308,78,0,0,0,0,0,0,0,0,0,-1,1532,946,0,0
315,78,0,0,0,0,0,0,0,0,0,-1,1539,946,0,0
322,78,0,0,0,0,0,0,0,0,0,-1,1546,946,0,0
329,78,0,0,0,0,0,0,0,0,0,-1,1553,946,0,0
336,78,0,0,0,0,0,0,0,0,0,-1,1560,946,0,0
343,78,0,0,0,0,0,0,0,0,0,-1,1567,946,0,0
350,78,0,0,0,0,0,0,0,0,0,-1,1574,946,0,0
357,78,0,0,0,0,0,0,0,0,0,-1,1581,946,0,0
364,78,0,0,0,0,0,0,0,0,0,-1,1588,946,0,0
371,78,0,0,0,0,0,0,0,0,0,-1,1595,946,0,0
378,78,0,0,0,0,0,0,0,0,0,-1,1602,946,0,0
385,78,0,0,0,0,0,0,0,0,0,-1,1609,946,0,0
392,78,0,0,0,0,0,0,0,0,0,-1,1616,946,0,0
399,78,0,0,0,0,0,0,0,0,0,-1,1623,946,0,0
406,78,0,0,0,0,0,0,0,0,0,-1,1630,946,0,0
413,78,0,0,0,0,0,0,0,0,0,-1,1637,946,0,0
420,78,0,0,0,0,0,0,0,0,0,-1,1644,946,0,0
427,78,0,0,0,0,0,0,0,0,0,-1,1651,946,0,0
434,78,0,0,0,0,0,0,0,0,0,-1,1658,946,0,0
441,78,0,0,0,0,0,0,0,0,0,-1,1665,946,0,0
448,78,0,0,0,0,0,0,0,0,0,-1,1672,946,0,0
455,78,0,0,0,0,0,0,0,0,0,-1,1679,946,0,0
462,78,0,0,0,0,0,0,0,0,0,-1,1686,946,0,0
469,78,0,0,0,0,0,0,0,0,0,-1,1693,946,0,0
476,78,0,0,0,0,0,0,0,0,0,-1,1700,946,0,0
483,78,0,0,0,0,0,0,0,0,0,-1,1707,946,0,0
490,78,0,0,0,0,0,0,0,0,0,-1,1714,946,0,0
497,78,0,0,0,0,0,0,0,0,0,-1,1721,946,0,0
504,78,0,0,0,0,0,0,0,0,0,-1,1728,946,0,0
511,78,0,0,0,0,0,0,0,0,0,-1,1735,946,0,0
518,78,0,0,0,0,0,0,0,0,0,-1,1742,946,0,0
525,78,0,0,0,0,0,0,0,0,0,-1,1749,946,0,0
532,78,0,0,0,0,0,0,0,0,0,-1,1756,946,0,0
539,78,0,0,0,0,0,0,0,0,0,-1,1763,946,0,0
546,78,0,0,0,0,0,0,0,0,0,-1,1770,946,0,0
553,78,0,0,0,0,0,0,0,0,0,-1,1777,946,0,0
560,78,0,0,0,0,0,0,0,0,0,-1,1784,946,0,0
567,78,0,0,0,0,0,0,0,0,0,-1,1791,946,0,0
574,78,0,0,0,0,0,0,0,0,0,-1,1798,946,0,0
581,78,0,0,0,0,0,0,0,0,0,-1,1805,946,0,0
588,78,0,0,0,0,0,0,0,0,0,-1,1812,946,0,0
595,78,0,0,0,0,0,0,0,0,0,-1,1819,946,0,0
602,78,0,0,0,0,0,0,0,0,0,-1,1826,946,0,0
609,78,0,0,0,0,0,0,0,0,0,-1,1833,946,0,0
616,78,0,0,0,0,0,0,0,0,0,-1,1840,946,0,0
623,78,0,0,0,0,0,0,0,0,0,-1,1847,946,0,0
630,78,0,0,0,0,0,0,0,0,0,-1,1854,946,0,0
637,78,83.1975,2.28094,0.00135986,0.00562763,0.000177309,0.00563498,0.0013525,1.52935,0.00339679,0.0450322,1861,946,83.1975,-2.28093
644,78,83.144,2.31049,0.00188905,0.00404304,-0.00043004,0.00412572,0.00180637,-1.38085,0.00238812,0.0454412,1868,946,83.144,-2.31051
651,78,83.1956,2.39569,0.00206084,0.00289944,-0.000585598,0.00320037,0.0017599,-1.0961,0.0018508,0.0416237,1875,946,83.1955,-2.39571
658,78,83.3097,2.31018,0.00202202,0.00220746,-0.000387573,0.00251325,0.00171623,-0.902807,0.00148302,0.0384972,1882,946,83.3097,-2.31016
665,78,83.4379,2.29767,0.00182582,0.00168529,-2.71564e-05,0.00183089,0.00168022,-0.184393,0.0011736,0.04058,1889,946,83.4379,-2.29767
672,78,83.5249,2.41473,0.001037,0.00104264,0.000484483,0.00152431,0.000555326,0.788311,0.000890797,0.0409075,1896,946,83.5249,-2.41471
679,78,83.6055,2.29028,8.91094e-05,0.000180581,0.000958841,0.00109478,-0.000825086,0.80923,0.00111207,0.0414046,1903,946,83.6055,-2.29027
686,78,83.3589,2.21008,-0.000673377,-0.000579096,0.000913365,0.000288344,-0.00154082,0.811181,0.0011356,0.0397025,1910,946,83.3589,-2.2101
693,78,83.2102,2.25781,-0.00149377,-0.000980576,0.000686827,-0.000503981,-0.00197037,0.96417,0.00118196,0.0323715,1917,946,83.2102,-2.2578
700,78,83.2245,2.40009,-0.00238897,-0.000979875,0.000350951,-0.000897305,-0.00247154,1.33972,0.00144467,0.0277034,1924,946,83.2244,-2.40009
707,78,83.2631,2.59821,0,0,0,0,0,0,0,-1,1931,946,83.2631,-2.5982
714,78,80.1312,5.02319,0,0,0,0,0,0,0,-1,1938,946,80.1313,-5.02321
721,78,79.9196,5.79492,0,0,0,0,0,0,0,-1,1945,946,79.9195,-5.79495
728,78,79.7039,6.88031,0,0,0,0,0,0,0,-1,1952,946,79.7039,-6.88031
735,78,79.8157,7.27991,-0.00621641,0.00418038,-0.00184134,0.00449686,-0.00653289,-1.40058,0.00640409,0.0352929,1959,946,79.8156,-7.27992
742,78,79.7594,7.81976,-0.00645479,0.00663473,-0.00235962,0.00704711,-0.00686716,-1.39778,0.00803363,0.024744,1966,946,79.7594,-7.81975
749,78,79.5747,8.42584,-0.00633021,0.0104814,-0.00258562,0.0108701,-0.00671889,-1.42159,0.0102489,0.0171266,1973,946,79.5747,-8.42585
756,78,79.4951,8.96265,-0.00542047,0.0160735,-0.00212025,0.0162807,-0.00562762,-1.4734,0.0131378,0.0162717,1980,946,79.4951,-8.96266
763,78,79.3809,9.48462,-0.00361014,0.0228232,-0.000849751,0.0228504,-0.00363743,-1.53869,0.0165796,0.0172975,1987,946,79.3807,-9.48461
770,78,79.1951,10.0129,-0.00119471,0.0295941,0.000969207,0.0296246,-0.00122519,1.53936,0.0201705,0.0223178,1994,946,79.1951,-10.013
777,78,78.9539,10.9825,0.00161589,0.0365459,0.00394091,0.036985,0.00117678,1.45983,0.0242739,0.041569,2001,946,78.9538,-10.9825
784,78,78.75,12.0103,0,0,0,0,0,0,0,-1,2008,946,78.75,-12.0102
791,78,78.0425,11.8877,0,0,0,0,0,0,0,-1,2015,946,78.0425,-11.8877
798,78,70.8296,7.99933,0,0,0,0,0,0,0,-1,2022,946,70.8295,-7.99931
805,78,68.5852,7.34106,0,0,0,0,0,0,0,-1,2029,946,68.5853,-7.34105
812,78,0,0,0,0,0,0,0,0,0,-1,2036,946,0,0
-700,71,0,0,0,0,0,0,0,0,0,-1,524,953,0,0
-693,71,0,0,0,0,0,0,0,0,0,-1,531,953,0,0
-686,71,-71.189,-2.98248,0,0,0,0,0,0,0,-1,538,953,-71.189,2.98245
-679,71,-70.2738,-2.17017,0,0,0,0,0,0,0,-1,545,953,-70.2738,2.17015
-672,71,-69.1418,-1.21301,0,0,0,0,0,0,0,-1,552,953,-69.1418,1.21302
-665,71,-68.0175,-0.329956,0,0,0,0,0,0,0,-1,559,953,-68.0175,0.329976
-658,71,-57.7852,6.99481,0,0,0,0,0,0,0,-1,566,953,-57.7852,-6.99479
-651,71,-62.8938,11.2073,0,0,0,0,0,0,0,-1,573,953,-62.8938,-11.2073
-644,71,-64.4694,10.8914,0,0,0,0,0,0,0,-1,580,953,-64.4694,-10.8914
-637,71,-64.1938,10.0279,-0.000125598,0.0321624,0.00666774,0.0334851,-0.00144835,1.37496,0.0228215,0.0317493,587,953,-64.1939,-10.0279
-630,71,-64.0833,9.28961,-0.000436111,0.0244188,0.00629036,0.0259201,-0.00193741,1.33651,0.0179607,0.0202038,594,953,-64.0833,-9.28958
-623,71,-64.11,8.69379,-0.000573311,0.0169485,0.0059449,0.0187751,-0.00239991,1.2727,0.0133886,0.016565,601,953,-64.11,-8.69381
-616,71,-64.1624,8.0556,-0.000617669,0.0108765,0.00562026,0.0131679,-0.00290901,1.18368,0.00989188,0.0158177,608,953,-64.1623,-8.05562
-609,71,-64.1661,7.45972,-0.000736702,0.00634398,0.00535151,0.00922023,-0.00361295,1.07763,0.00764136,0.0167738,615,953,-64.1662,-7.45974
-602,71,-64.1331,6.89984,-0.000729286,0.00345477,0.00487048,0.00666352,-0.00393803,0.98825,0.00618786,0.018028,622,953,-64.1331,-6.89986
-595,71,-64.1278,6.30585,-0.000320978,0.00170567,0.00443953,0.00524606,-0.00386136,0.897601,0.00527839,0.0220271,629,953,-64.1278,-6.30587
-588,71,-64.123,5.67023,-6.58115e-05,0.000399094,0.00385057,0.00402422,-0.00369094,0.815546,0.00445574,0.0312332,636,953,-64.123,-5.67025
-581,71,-63.9073,4.88782,0,0,0,0,0,0,0,-1,643,953,-63.9073,-4.88779
-574,71,-66.4777,0.423035,0,0,0,0,0,0,0,-1,650,953,-66.4777,-0.423042
-567,71,-66.4509,0.492615,-0.000210197,-0.0012696,0.000813919,0.000231208,-0.001711,0.496929,0.00122503,0.0210913,657,953,-66.4509,-0.492631
-560,71,-66.47,0.624451,-0.000243324,-0.00107581,-0.000235809,-0.00018117,-0.00113797,-0.257718,0.000706045,0.028359,664,953,-66.4701,-0.624426
-553,71,-66.5583,0.746338,-0.000339756,-0.000433722,-0.00151901,0.001133,-0.00190648,-0.769938,0.00177368,0.038735,671,953,-66.5583,-0.746327
-546,71,-66.5371,0.955688,-0.00033595,0.000653221,-0.00314823,0.00334548,-0.00302821,-0.863311,0.00368137,0.0417043,678,953,-66.5371,-0.955687
-539,71,-66.3507,1.04028,-0.000377814,0.00200241,-0.00534886,0.00629196,-0.00466736,-0.894864,0.0063505,0.0424917,685,953,-66.3507,-1.0403
-532,71,-66.2233,0.733948,-0.000530668,0.00352504,-0.00816379,0.00990906,-0.00691469,-0.907133,0.00976435,0.0467157,692,953,-66.2234,-0.733933
-525,71,-66.3115,0.396423,-0.000798848,0.00525645,-0.0109945,0.0136325,-0.00917492,-0.919758,0.0132514,0.0439811,699,953,-66.3114,-0.396429
-518,71,0,0,0,0,0,0,0,0,0,-1,706,953,0,0
-511,71,0,0,0,0,0,0,0,0,0,-1,713,953,0,0
-504,71,0,0,0,0,0,0,0,0,0,-1,720,953,0,0
-497,71,0,0,0,0,0,0,0,0,0,-1,727,953,0,0
-490,71,0,0,0,0,0,0,0,0,0,-1,734,953,0,0
-483,71,0,0,0,0,0,0,0,0,0,-1,741,953,0,0
-476,71,0,0,0,0,0,0,0,0,0,-1,748,953,0,0
-469,71,0,0,0,0,0,0,0,0,0,-1,755,953,0,0
-462,71,0,0,0,0,0,0,0,0,0,-1,762,953,0,0
-455,71,0,0,0,0,0,0,0,0,0,-1,769,953,0,0
-448,71,0,0,0,0,0,0,0,0,0,-1,776,953,0,0
-441,71,0,0,0,0,0,0,0,0,0,-1,783,953,0,0
-434,71,0,0,0,0,0,0,0,0,0,-1,790,953,0,0
-427,71,0,0,0,0,0,0,0,0,0,-1,797,953,0,0
-420,71,0,0,0,0,0,0,0,0,0,-1,804,953,0,0
-413,71,0,0,0,0,0,0,0,0,0,-1,811,953,0,0
-406,71,0,0,0,0,0,0,0,0,0,-1,818,953,0,0
-399,71,0,0,0,0,0,0,0,0,0,-1,825,953,0,0
-392,71,0,0,0,0,0,0,0,0,0,-1,832,953,0,0
-385,71,0,0,0,0,0,0,0,0,0,-1,839,953,0,0
-378,71,0,0,0,0,0,0,0,0,0,-1,846,953,0,0
-371,71,0,0,0,0,0,0,0,0,0,-1,853,953,0,0
-364,71,0,0,0,0,0,0,0,0,0,-1,860,953,0,0
-357,71,0,0,0,0,0,0,0,0,0,-1,867,953,0,0
-350,71,0,0,0,0,0,0,0,0,0,-1,874,953,0,0
-343,71,0,0,0,0,0,0,0,0,0,-1,881,953,0,0
-336,71,0,0,0,0,0,0,0,0,0,-1,888,953,0,0
-329,71,0,0,0,0,0,0,0,0,0,-1,895,953,0,0
-322,71,0,0,0,0,0,0,0,0,0,-1,902,953,0,0
-315,71,0,0,0,0,0,0,0,0,0,-1,909,953,0,0
-308,71,0,0,0,0,0,0,0,0,0,-1,916,953,0,0
-301,71,0,0,0,0,0,0,0,0,0,-1,923,953,0,0
-294,71,0,0,0,0,0,0,0,0,0,-1,930,953,0,0
-287,71,0,0,0,0,0,0,0,0,0,-1,937,953,0,0
-280,71,0,0,0,0,0,0,0,0,0,-1,944,953,0,0
-273,71,0,0,0,0,0,0,0,0,0,-1,951,953,0,0
-266,71,0,0,0,0,0,0,0,0,0,-1,958,953,0,0
-259,71,0,0,0,0,0,0,0,0,0,-1,965,953,0,0
-252,71,0,0,0,0,0,0,0,0,0,-1,972,953,0,0
-245,71,0,0,0,0,0,0,0,0,0,-1,979,953,0,0
-238,71,0,0,0,0,0,0,0,0,0,-1,986,953,0,0
-231,71,0,0,0,0,0,0,0,0,0,-1,993,953,0,0
-224,71,0,0,0,0,0,0,0,0,0,-1,1000,953,0,0
-217,71,0,0,0,0,0,0,0,0,0,-1,1007,953,0,0
-210,71,0,0,0,0,0,0,0,0,0,-1,1014,953,0,0
-203,71,0,0,0,0,0,0,0,0,0,-1,1021,953,0,0
-196,71,0,0,0,0,0,0,0,0,0,-1,1028,953,0,0
-189,71,0,0,0,0,0,0,0,0,0,-1,1035,953,0,0
-182,71,0,0,0,0,0,0,0,0,0,-1,1042,953,0,0
-175,71,0,0,0,0,0,0,0,0,0,-1,1049,953,0,0
-168,71,0,0,0,0,0,0,0,0,0,-1,1056,953,0,0
-161,71,0,0,0,0,0,0,0,0,0,-1,1063,953,0,0
-154,71,0,0,0,0,0,0,0,0,0,-1,1070,953,0,0
-147,71,0,0,0,0,0,0,0,0,0,-1,1077,953,0,0
-140,71,0,0,0,0,0,0,0,0,0,-1,1084,953,0,0
-133,71,0,0,0,0,0,0,0,0,0,-1,1091,953,0,0
-126,71,0,0,0,0,0,0,0,0,0,-1,1098,953,0,0
-119,71,0,0,0,0,0,0,0,0,0,-1,1105,953,0,0
-112,71,0,0,0,0,0,0,0,0,0,-1,1112,953,0,0
-105,71,0,0,0,0,0,0,0,0,0,-1,1119,953,0,0
-98,71,0,0,0,0,0,0,0,0,0,-1,1126,953,0,0
-91,71,0,0,0,0,0,0,0,0,0,-1,1133,953,0,0
-84,71,0,0,0,0,0,0,0,0,0,-1,1140,953,0,0
-77,71,0,0,0,0,0,0,0,0,0,-1,1147,953,0,0
-70,71,0,0,0,0,0,0,0,0,0,-1,1154,953,0,0
-63,71,0,0,0,0,0,0,0,0,0,-1,1161,953,0,0
-56,71,0,0,0,0,0,0,0,0,0,-1,1168,953,0,0
-49,71,0,0,0,0,0,0,0,0,0,-1,1175,953,0,0
-42,71,0,0,0,0,0,0,0,0,0,-1,1182,953,0,0
-35,71,0,0,0,0,0,0,0,0,0,-1,1189,953,0,0
-28,71,0,0,0,0,0,0,0,0,0,-1,1196,953,0,0
-21,71,0,0,0,0,0,0,0,0,0,-1,1203,953,0,0
-14,71,0,0,0,0,0,0,0,0,0,-1,1210,953,0,0
-7,71,0,0,0,0,0,0,0,0,0,-1,1217,953,0,0
0,71,0,0,0,0,0,0,0,0,0,-1,1224,953,0,0
7,71,0,0,0,0,0,0,0,0,0,-1,1231,953,0,0
14,71,0,0,0,0,0,0,0,0,0,-1,1238,953,0,0
21,71,0,0,0,0,0,0,0,0,0,-1,1245,953,0,0
28,71,0,0,0,0,0,0,0,0,0,-1,1252,953,0,0
35,71,0,0,0,0,0,0,0,0,0,-1,1259,953,0,0
42,71,0,0,0,0,0,0,0,0,0,-1,1266,953,0,0
49,71,0,0,0,0,0,0,0,0,0,-1,1273,953,0,0
56,71,0,0,0,0,0,0,0,0,0,-1,1280,953,0,0
63,71,0,0,0,0,0,0,0,0,0,-1,1287,953,0,0
70,71,0,0,0,0,0,0,0,0,0,-1,1294,953,0,0
77,71,0,0,0,0,0,0,0,0,0,-1,1301,953,0,0
84,71,0,0,0,0,0,0,0,0,0,-1,1308,953,0,0
91,71,0,0,0,0,0,0,0,0,0,-1,1315,953,0,0
98,71,0,0,0,0,0,0,0,0,0,-1,1322,953,0,0
105,71,0,0,0,0,0,0,0,0,0,-1,1329,953,0,0
112,71,0,0,0,0,0,0,0,0,0,-1,1336,953,0,0
119,71,0,0,0,0,0,0,0,0,0,-1,1343,953,0,0
126,71,0,0,0,0,0,0,0,0,0,-1,1350,953,0,0
133,71,0,0,0,0,0,0,0,0,0,-1,1357,953,0,0
140,71,0,0,0,0,0,0,0,0,0,-1,1364,953,0,0
147,71,0,0,0,0,0,0,0,0,0,-1,1371,953,0,0
154,71,0,0,0,0,0,0,0,0,0,-1,1378,953,0,0
161,71,0,0,0,0,0,0,0,0,0,-1,1385,953,0,0
168,71,0,0,0,0,0,0,0,0,0,-1,1392,953,0,0
175,71,0,0,0,0,0,0,0,0,0,-1,1399,953,0,0
182,71,0,0,0,0,0,0,0,0,0,-1,1406,953,0,0
189,71,0,0,0,0,0,0,0,0,0,-1,1413,953,0,0
196,71,0,0,0,0,0,0,0,0,0,-1,1420,953,0,0
203,71,0,0,0,0,0,0,0,0,0,-1,1427,953,0,0
210,71,0,0,0,0,0,0,0,0,0,-1,1434,953,0,0
217,71,0,0,0,0,0,0,0,0,0,-1,1441,953,0,0
224,71,0,0,0,0,0,0,0,0,0,-1,1448,953,0,0
231,71,0,0,0,0,0,0,0,0,0,-1,1455,953,0,0
238,71,0,0,0,0,0,0,0,0,0,-1,1462,953,0,0
245,71,0,0,0,0,0,0,0,0,0,-1,1469,953,0,0
252,71,0,0,0,0,0,0,0,0,0,-1,1476,953,0,0
259,71,0,0,0,0,0,0,0,0,0,-1,1483,953,0,0
266,71,0,0,0,0,0,0,0,0,0,-1,1490,953,0,0
273,71,0,0,0,0,0,0,0,0,0,-1,1497,953,0,0
280,71,0,0,0,0,0,0,0,0,0,-1,1504,953,0,0
287,71,0,0,0,0,0,0,0,0,0,-1,1511,953,0,0
294,71,0,0,0,0,0,0,0,0,0,-1,1518,953,0,0
301,71,0,0,0,0,0,0,0,0,0,-1,1525,953,0,0
308,71,0,0,0,0,0,0,0,0,0,-1,1532,953,0,0
315,71,0,0,0,0,0,0,0,0,0,-1,1539,953,0,0
322,71,0,0,0,0,0,0,0,0,0,-1,1546,953,0,0
329,71,0,0,0,0,0,0,0,0,0,-1,1553,953,0,0
336,71,0,0,0,0,0,0,0,0,0,-1,1560,953,0,0
343,71,0,0,0,0,0,0,0,0,0,-1,1567,953,0,0
350,71,0,0,0,0,0,0,0,0,0,-1,1574,953,0,0
357,71,0,0,0,0,0,0,0,0,0,-1,1581,953,0,0
364,71,0,0,0,0,0,0,0,0,0,-1,1588,953,0,0
371,71,0,0,0,0,0,0,0,0,0,-1,1595,953,0,0
378,71,0,0,0,0,0,0,0,0,0,-1,1602,953,0,0
385,71,0,0,0,0,0,0,0,0,0,-1,1609,953,0,0
392,71,0,0,0,0,0,0,0,0,0,-1,1616,953,0,0
399,71,0,0,0,0,0,0,0,0,0,-1,1623,953,0,0
406,71,0,0,0,0,0,0,0,0,0,-1,1630,953,0,0
413,71,0,0,0,0,0,0,0,0,0,-1,1637,953,0,0
420,71,0,0,0,0,0,0,0,0,0,-1,1644,953,0,0
427,71,0,0,0,0,0,0,0,0,0,-1,1651,953,0,0
434,71,0,0,0,0,0,0,0,0,0,-1,1658,953,0,0
441,71,0,0,0,0,0,0,0,0,0,-1,1665,953,0,0
448,71,0,0,0,0,0,0,0,0,0,-1,1672,953,0,0
455,71,0,0,0,0,0,0,0,0,0,-1,1679,953,0,0
462,71,0,0,0,0,0,0,0,0,0,-1,1686,953,0,0
469,71,0,0,0,0,0,0,0,0,0,-1,1693,953,0,0
476,71,0,0,0,0,0,0,0,0,0,-1,1700,953,0,0
483,71,0,0,0,0,0,0,0,0,0,-1,1707,953,0,0
490,71,0,0,0,0,0,0,0,0,0,-1,1714,953,0,0
497,71,0,0,0,0,0,0,0,0,0,-1,1721,953,0,0
504,71,0,0,0,0,0,0,0,0,0,-1,1728,953,0,0
511,71,0,0,0,0,0,0,0,0,0,-1,1735,953,0,0
518,71,0,0,0,0,0,0,0,0,0,-1,1742,953,0,0
525,71,0,0,0,0,0,0,0,0,0,-1,1749,953,0,0
532,71,0,0,0,0,0,0,0,0,0,-1,1756,953,0,0
539,71,0,0,0,0,0,0,0,0,0,-1,1763,953,0,0
546,71,0,0,0,0,0,0,0,0,0,-1,1770,953,0,0
553,71,0,0,0,0,0,0,0,0,0,-1,1777,953,0,0
560,71,0,0,0,0,0,0,0,0,0,-1,1784,953,0,0
567,71,0,0,0,0,0,0,0,0,0,-1,1791,953,0,0
574,71,0,0,0,0,0,0,0,0,0,-1,1798,953,0,0
581,71,0,0,0,0,0,0,0,0,0,-1,1805,953,0,0
588,71,0,0,0,0,0,0,0,0,0,-1,1812,953,0,0
595,71,0,0,0,0,0,0,0,0,0,-1,1819,953,0,0
602,71,0,0,0,0,0,0,0,0,0,-1,1826,953,0,0
609,71,0,0,0,0,0,0,0,0,0,-1,1833,953,0,0
616,71,0,0,0,0,0,0,0,0,0,-1,1840,953,0,0
623,71,0,0,0,0,0,0,0,0,0,-1,1847,953,0,0
630,71,0,0,0,0,0,0,0,0,0,-1,1854,953,0,0
637,71,83.2843,2.2746,0.00146581,0.00530942,-0.000380317,0.00534669,0.00142854,-1.47311,0.00319652,0.0386242,1861,953,83.2843,-2.27457
644,71,83.2335,2.16498,0.00201271,0.00400198,-0.000658497,0.0042002,0.00181448,-1.2784,0.00243245,0.0412505,1868,953,83.2335,-2.165
651,71,83.1825,2.32959,0.00217968,0.00296939,-0.000623141,0.00331224,0.00183682,-1.0678,0.00191612,0.039676,1875,953,83.1825,-2.32958
658,71,83.2915,2.33582,0.00210384,0.00231179,-0.000305731,0.00253074,0.00188489,-0.949309,0.00151837,0.0365884,1882,953,83.2915,-2.3358
665,71,83.3248,2.39703,0.00186754,0.00181529,0.000114242,0.00195861,0.00172422,0.672979,0.00123505,0.0379194,1889,953,83.3249,-2.39705
672,71,83.3066,2.4422,0.00108713,0.00122729,0.000652823,0.00181379,0.000500639,0.838868,0.00108165,0.0391335,1896,953,83.3066,-2.4422
679,71,83.3505,2.33954,0.000183089,0.000421924,0.00116416,0.00147278,-0.000867764,0.836508,0.00136628,0.0415217,1903,953,83.3505,-2.33951
686,71,83.3694,2.24164,-0.000529799,-0.000337357,0.00116923,0.000739604,-0.00160676,0.826453,0.00138517,0.040113,1910,953,83.3694,-2.24165
693,71,83.3285,2.22021,-0.00132367,-0.000756742,0.000967762,-3.17851e-05,-0.00204863,0.927867,0.00135528,0.033857,1917,953,83.3285,-2.2202
700,71,83.2476,2.30066,-0.00219599,-0.000770337,0.000641417,-0.000524238,-0.00244209,1.20444,0.00148449,0.0335392,1924,953,83.2475,-2.30066
707,71,83.2151,2.56592,0,0,0,0,0,0,0,-1,1931,953,83.2151,-2.56593
714,71,81.005,5.22058,0,0,0,0,0,0,0,-1,1938,953,81.005,-5.2206
721,71,80.6494,5.93774,-0.00525466,0.00118716,-0.000784051,0.00128121,-0.00534872,-1.45141,0.00406082,0.0354408,1945,953,80.6494,-5.93775
728,71,80.4094,6.76196,-0.00585194,0.00274176,-0.000952901,0.00284616,-0.00595633,-1.46168,0.00518678,0.0434284,1952,953,80.4095,-6.76195
735,71,80.403,7.37238,-0.00628941,0.00457862,-0.00155438,0.00479657,-0.00650735,-1.43149,0.00655119,0.0293295,1959,953,80.403,-7.37239
742,71,80.3873,7.89856,-0.00676596,0.00699485,-0.00204034,0.007291,-0.00706211,-1.42666,0.00828713,0.0278137,1966,953,80.3873,-7.89854
749,71,80.2935,8.39331,-0.00703847,0.0106893,-0.00230224,0.0109834,-0.00733257,-1.44374,0.0106445,0.0221863,1973,953,80.2934,-8.39329
756,71,80.2087,8.86456,-0.0067556,0.0160799,-0.00194735,0.0162448,-0.00692048,-1.48633,0.0137308,0.018929,1980,953,80.2088,-8.86458
763,71,80.0969,9.38525,-0.00571006,0.0228374,-0.00076568,0.022858,-0.00573058,-1.544,0.0174651,0.0215281,1987,953,80.097,-9.38523
770,71,79.8022,9.87238,-0.00411985,0.0296935,0.000967422,0.0297212,-0.0041475,1.54222,0.0213315,0.0250244,1994,953,79.8022,-9.87237
777,71,79.4951,10.5923,-0.00231439,0.0366623,0.00372715,0.0370155,-0.0026676,1.47631,0.0256125,0.0438647,2001,953,79.495,-10.5924
784,71,78.9441,10.8426,0,0,0,0,0,0,0,-1,2008,953,78.9441,-10.8426
791,71,77.98,10.2501,0,0,0,0,0,0,0,-1,2015,953,77.9801,-10.2501
798,71,74.6741,11.5202,0,0,0,0,0,0,0,-1,2022,953,74.6741,-11.5202
805,71,59.978,6.41992,0,0,0,0,0,0,0,-1,2029,953,59.9781,-6.41992
812,71,0,0,0,0,0,0,0,0,0,-1,2036,953,0,0
-700,64,0,0,0,0,0,0,0,0,0,-1,524,960,0,0
-693,64,0,0,0,0,0,0,0,0,0,-1,531,960,0,0
-686,64,-70.6114,-2.48975,0,0,0,0,0,0,0,-1,538,960,-70.6114,2.48978
-679,64,-70.2534,-2.01489,0,0,0,0,0,0,0,-1,545,960,-70.2534,2.01489
-672,64,-69.9682,-1.46234,0,0,0,0,0,0,0,-1,552,960,-69.9682,1.46231
-665,64,-57.8604,5.71631,0,0,0,0,0,0,0,-1,559,960,-57.8604,-5.71629
-658,64,-64.0605,11.0615,0,0,0,0,0,0,0,-1,566,960,-64.0605,-11.0615
-651,64,-64.851,11.0955,0,0,0,0,0,0,0,-1,573,960,-64.851,-11.0955
-644,64,-64.7399,10.3251,0.00135411,0.0428977,0.00686094,0.0440014,0.000250347,1.41129,0.0292512,0.0403573,580,960,-64.7399,-10.3251
-637,64,-64.6394,9.61249,0.000186854,0.0333668,0.00628982,0.0345191,-0.00096547,1.3896,0.0233412,0.0214036,587,960,-64.6394,-9.61248
-630,64,-64.7115,9.11652,-0.000417309,0.025165,0.00595131,0.0264817,-0.00173401,1.35306,0.01826,0.0160715,594,960,-64.7115,-9.11655
-623,64,-64.7651,8.63983,-0.000858946,0.0174268,0.00562606,0.0190192,-0.00245128,1.29498,0.0135705,0.0157699,601,960,-64.7651,-8.63986
-616,64,-64.8234,8.10638,-0.0010953,0.0113436,0.00530964,0.0133018,-0.0030535,1.21747,0.0100416,0.0191792,608,960,-64.8234,-8.10637
-609,64,-64.8162,7.56946,-0.00128671,0.00688147,0.0050343,0.00927997,-0.00368521,1.12618,0.00771426,0.0192158,615,960,-64.8162,-7.56945
-602,64,-64.7979,7.00458,-0.0012443,0.00399619,0.00453505,0.00661354,-0.00386165,1.04736,0.00611702,0.0188205,622,960,-64.7979,-7.00455
-595,64,-64.8376,6.47284,-0.000789818,0.00217683,0.00410924,0.00506227,-0.00367526,0.958606,0.00506575,0.0336435,629,960,-64.8377,-6.47284
-588,64,-64.7037,5.87372,0,0,0,0,0,0,0,-1,636,960,-64.7037,-5.87373
-581,64,-63.322,4.96783,0,0,0,0,0,0,0,-1,643,960,-63.322,-4.96785
-574,64,-66.2839,0.728149,0,0,0,0,0,0,0,-1,650,960,-66.284,-0.728165
-567,64,-66.3923,0.507202,-0.000395664,-0.000693111,0.000474523,-4.71044e-05,-0.00104167,0.633538,0.00067929,0.0255102,657,960,-66.3924,-0.50719
-560,64,-66.4188,0.743103,-0.000370852,-0.000344378,-0.000662961,0.000305478,-0.00102071,-0.79538,0.000801933,0.0331661,664,960,-66.4188,-0.7431
-553,64,-66.4063,0.666504,-0.000371596,0.000460886,-0.00207422,0.00216022,-0.00207093,-0.88442,0.00244303,0.0382997,671,960,-66.4063,-0.666492
-546,64,-66.3192,0.60791,-0.000336446,0.00167374,-0.00389884,0.00469496,-0.00335766,-0.911548,0.00467051,0.0399601,678,960,-66.3192,-0.607895
-539,64,-66.3419,0.770691,-0.000569718,0.00303574,-0.00638176,0.00786451,-0.00539848,-0.923052,0.00770139,0.0403821,685,960,-66.3419,-0.770664
-532,64,-66.3936,0.648315,-0.00110486,0.00461065,-0.00953918,0.0117109,-0.00820515,-0.930934,0.0115578,0.0414165,692,960,-66.3935,-0.648313
-525,64,-66.4048,0.378601,-0.00186387,0.00641063,-0.0128019,0.0157272,-0.0111805,-0.941688,0.0156089,0.041149,699,960,-66.4048,-0.378613
-518,64,0,0,0,0,0,0,0,0,0,-1,706,960,0,0
-511,64,0,0,0,0,0,0,0,0,0,-1,713,960,0,0
-504,64,0,0,0,0,0,0,0,0,0,-1,720,960,0,0
-497,64,0,0,0,0,0,0,0,0,0,-1,727,960,0,0
-490,64,0,0,0,0,0,0,0,0,0,-1,734,960,0,0
-483,64,0,0,0,0,0,0,0,0,0,-1,741,960,0,0
-476,64,0,0,0,0,0,0,0,0,0,-1,748,960,0,0
-469,64,0,0,0,0,0,0,0,0,0,-1,755,960,0,0
-462,64,0,0,0,0,0,0,0,0,0,-1,762,960,0,0
-455,64,0,0,0,0,0,0,0,0,0,-1,769,960,0,0
-448,64,0,0,0,0,0,0,0,0,0,-1,776,960,0,0
-441,64,0,0,0,0,0,0,0,0,0,-1,783,960,0,0
-434,64,0,0,0,0,0,0,0,0,0,-1,790,960,0,0
-427,64,0,0,0,0,0,0,0,0,0,-1,797,960,0,0
-420,64,0,0,0,0,0,0,0,0,0,-1,804,960,0,0
-413,64,0,0,0,0,0,0,0,0,0,-1,811,960,0,0
-406,64,0,0,0,0,0,0,0,0,0,-1,818,960,0,0
-399,64,0,0,0,0,0,0,0,0,0,-1,825,960,0,0
-392,64,0,0,0,0,0,0,0,0,0,-1,832,960,0,0
-385,64,0,0,0,0,0,0,0,0,0,-1,839,960,0,0
-378,64,0,0,0,0,0,0,0,0,0,-1,846,960,0,0
-371,64,0,0,0,0,0,0,0,0,0,-1,853,960,0,0
-364,64,0,0,0,0,0,0,0,0,0,-1,860,960,0,0
-357,64,0,0,0,0,0,0,0,0,0,-1,867,960,0,0
-350,64,0,0,0,0,0,0,0,0,0,-1,874,960,0,0
-343,64,0,0,0,0,0,0,0,0,0,-1,881,960,0,0
-336,64,0,0,0,0,0,0,0,0,0,-1,888,960,0,0
-329,64,0,0,0,0,0,0,0,0,0,-1,895,960,0,0
-322,64,0,0,0,0,0,0,0,0,0,-1,902,960,0,0
-315,64,0,0,0,0,0,0,0,0,0,-1,909,960,0,0
-308,64,0,0,0,0,0,0,0,0,0,-1,916,960,0,0
-301,64,0,0,0,0,0,0,0,0,0,-1,923,960,0,0
-294,64,0,0,0,0,0,0,0,0,0,-1,930,960,0,0
-287,64,0,0,0,0,0,0,0,0,0,-1,937,960,0,0
-280,64,0,0,0,0,0,0,0,0,0,-1,944,960,0,0
-273,64,0,0,0,0,0,0,0,0,0,-1,951,960,0,0
-266,64,0,0,0,0,0,0,0,0,0,-1,958,960,0,0
-259,64,0,0,0,0,0,0,0,0,0,-1,965,960,0,0
-252,64,0,0,0,0,0,0,0,0,0,-1,972,960,0,0
-245,64,0,0,0,0,0,0,0,0,0,-1,979,960,0,0
-238,64,0,0,0,0,0,0,0,0,0,-1,986,960,0,0
-231,64,0,0,0,0,0,0,0,0,0,-1,993,960,0,0
-224,64,0,0,0,0,0,0,0,0,0,-1,1000,960,0,0
-217,64,0,0,0,0,0,0,0,0,0,-1,1007,960,0,0
-210,64,0,0,0,0,0,0,0,0,0,-1,1014,960,0,0
-203,64,0,0,0,0,0,0,0,0,0,-1,1021,960,0,0
-196,64,0,0,0,0,0,0,0,0,0,-1,1028,960,0,0
-189,64,0,0,0,0,0,0,0,0,0,-1,1035,960,0,0
-182,64,0,0,0,0,0,0,0,0,0,-1,1042,960,0,0
-175,64,0,0,0,0,0,0,0,0,0,-1,1049,960,0,0
-168,64,0,0,0,0,0,0,0,0,0,-1,1056,960,0,0
-161,64,0,0,0,0,0,0,0,0,0,-1,1063,960,0,0
-154,64,0,0,0,0,0,0,0,0,0,-1,1070,960,0,0
-147,64,0,0,0,0,0,0,0,0,0,-1,1077,960,0,0
-140,64,0,0,0,0,0,0,0,0,0,-1,1084,960,0,0
-133,64,0,0,0,0,0,0,0,0,0,-1,1091,960,0,0
-126,64,0,0,0,0,0,0,0,0,0,-1,1098,960,0,0
-119,64,0,0,0,0,0,0,0,0,0,-1,1105,960,0,0
-112,64,0,0,0,0,0,0,0,0,0,-1,1112,960,0,0
-105,64,0,0,0,0,0,0,0,0,0,-1,1119,960,0,0
-98,64,0,0,0,0,0,0,0,0,0,-1,1126,960,0,0
-91,64,0,0,0,0,0,0,0,0,0,-1,1133,960,0,0
-84,64,0,0,0,0,0,0,0,0,0,-1,1140,960,0,0
-77,64,0,0,0,0,0,0,0,0,0,-1,1147,960,0,0
-70,64,0,0,0,0,0,0,0,0,0,-1,1154,960,0,0
-63,64,0,0,0,0,0,0,0,0,0,-1,1161,960,0,0
-56,64,0,0,0,0,0,0,0,0,0,-1,1168,960,0,0
-49,64,0,0,0,0,0,0,0,0,0,-1,1175,960,0,0
-42,64,0,0,0,0,0,0,0,0,0,-1,1182,960,0,0
-35,64,0,0,0,0,0,0,0,0,0,-1,1189,960,0,0
-28,64,0,0,0,0,0,0,0,0,0,-1,1196,960,0,0
-21,64,0,0,0,0,0,0,0,0,0,-1,1203,960,0,0
-14,64,0,0,0,0,0,0,0,0,0,-1,1210,960,0,0
-7,64,0,0,0,0,0,0,0,0,0,-1,1217,960,0,0
0,64,0,0,0,0,0,0,0,0,0,-1,1224,960,0,0
7,64,0,0,0,0,0,0,0,0,0,-1,1231,960,0,0
14,64,0,0,0,0,0,0,0,0,0,-1,1238,960,0,0
21,64,0,0,0,0,0,0,0,0,0,-1,1245,960,0,0
28,64,0,0,0,0,0,0,0,0,0,-1,1252,960,0,0
35,64,0,0,0,0,0,0,0,0,0,-1,1259,960,0,0
42,64,0,0,0,0,0,0,0,0,0,-1,1266,960,0,0
49,64,0,0,0,0,0,0,0,0,0,-1,1273,960,0,0
56,64,0,0,0,0,0,0,0,0,0,-1,1280,960,0,0
63,64,0,0,0,0,0,0,0,0,0,-1,1287,960,0,0
70,64,0,0,0,0,0,0,0,0,0,-1,1294,960,0,0
77,64,0,0,0,0,0,0,0,0,0,-1,1301,960,0,0
84,64,0,0,0,0,0,0,0,0,0,-1,1308,960,0,0
91,64,0,0,0,0,0,0,0,0,0,-1,1315,960,0,0
98,64,0,0,0,0,0,0,0,0,0,-1,1322,960,0,0
105,64,0,0,0,0,0,0,0,0,0,-1,1329,960,0,0
112,64,0,0,0,0,0,0,0,0,0,-1,1336,960,0,0
119,64,0,0,0,0,0,0,0,0,0,-1,1343,960,0,0
126,64,0,0,0,0,0,0,0,0,0,-1,1350,960,0,0
133,64,0,0,0,0,0,0,0,0,0,-1,1357,960,0,0
140,64,0,0,0,0,0,0,0,0,0,-1,1364,960,0,0
147,64,0,0,0,0,0,0,0,0,0,-1,1371,960,0,0
154,64,0,0,0,0,0,0,0,0,0,-1,1378,960,0,0
161,64,0,0,0,0,0,0,0,0,0,-1,1385,960,0,0
168,64,0,0,0,0,0,0,0,0,0,-1,1392,960,0,0
175,64,0,0,0,0,0,0,0,0,0,-1,1399,960,0,0
182,64,0,0,0,0,0,0,0,0,0,-1,1406,960,0,0
189,64,0,0,0,0,0,0,0,0,0,-1,1413,960,0,0
196,64,0,0,0,0,0,0,0,0,0,-1,1420,960,0,0
203,64,0,0,0,0,0,0,0,0,0,-1,1427,960,0,0
210,64,0,0,0,0,0,0,0,0,0,-1,1434,960,0,0
217,64,0,0,0,0,0,0,0,0,0,-1,1441,960,0,0
224,64,0,0,0,0,0,0,0,0,0,-1,1448,960,0,0
231,64,0,0,0,0,0,0,0,0,0,-1,1455,960,0,0
238,64,0,0,0,0,0,0,0,0,0,-1,1462,960,0,0
245,64,0,0,0,0,0,0,0,0,0,-1,1469,960,0,0
252,64,0,0,0,0,0,0,0,0,0,-1,1476,960,0,0
259,64,0,0,0,0,0,0,0,0,0,-1,1483,960,0,0
266,64,0,0,0,0,0,0,0,0,0,-1,1490,960,0,0
273,64,0,0,0,0,0,0,0,0,0,-1,1497,960,0,0
280,64,0,0,0,0,0,0,0,0,0,-1,1504,960,0,0
287,64,0,0,0,0,0,0,0,0,0,-1,1511,960,0,0
294,64,0,0,0,0,0,0,0,0,0,-1,1518,960,0,0
301,64,0,0,0,0,0,0,0,0,0,-1,1525,960,0,0
308,64,0,0,0,0,0,0,0,0,0,-1,1532,960,0,0
315,64,0,0,0,0,0,0,0,0,0,-1,1539,960,0,0
322,64,0,0,0,0,0,0,0,0,0,-1,1546,960,0,0
329,64,0,0,0,0,0,0,0,0,0,-1,1553,960,0,0
336,64,0,0,0,0,0,0,0,0,0,-1,1560,960,0,0
343,64,0,0,0,0,0,0,0,0,0,-1,1567,960,0,0
350,64,0,0,0,0,0,0,0,0,0,-1,1574,960,0,0
357,64,0,0,0,0,0,0,0,0,0,-1,1581,960,0,0
364,64,0,0,0,0,0,0,0,0,0,-1,1588,960,0,0
371,64,0,0,0,0,0,0,0,0,0,-1,1595,960,0,0
378,64,0,0,0,0,0,0,0,0,0,-1,1602,960,0,0
385,64,0,0,0,0,0,0,0,0,0,-1,1609,960,0,0
392,64,0,0,0,0,0,0,0,0,0,-1,1616,960,0,0
399,64,0,0,0,0,0,0,0,0,0,-1,1623,960,0,0
406,64,0,0,0,0,0,0,0,0,0,-1,1630,960,0,0
413,64,0,0,0,0,0,0,0,0,0,-1,1637,960,0,0
420,64,0,0,0,0,0,0,0,0,0,-1,1644,960,0,0
427,64,0,0,0,0,0,0,0,0,0,-1,1651,960,0,0
434,64,0,0,0,0,0,0,0,0,0,-1,1658,960,0,0
441,64,0,0,0,0,0,0,0,0,0,-1,1665,960,0,0
448,64,0,0,0,0,0,0,0,0,0,-1,1672,960,0,0
455,64,0,0,0,0,0,0,0,0,0,-1,1679,960,0,0
462,64,0,0,0,0,0,0,0,0,0,-1,1686,960,0,0
469,64,0,0,0,0,0,0,0,0,0,-1,1693,960,0,0
476,64,0,0,0,0,0,0,0,0,0,-1,1700,960,0,0
483,64,0,0,0,0,0,0,0,0,0,-1,1707,960,0,0
490,64,0,0,0,0,0,0,0,0,0,-1,1714,960,0,0
497,64,0,0,0,0,0,0,0,0,0,-1,1721,960,0,0
504,64,0,0,0,0,0,0,0,0,0,-1,1728,960,0,0
511,64,0,0,0,0,0,0,0,0,0,-1,1735,960,0,0
518,64,0,0,0,0,0,0,0,0,0,-1,1742,960,0,0
525,64,0,0,0,0,0,0,0,0,0,-1,1749,960,0,0
532,64,0,0,0,0,0,0,0,0,0,-1,1756,960,0,0
539,64,0,0,0,0,0,0,0,0,0,-1,1763,960,0,0
546,64,0,0,0,0,0,0,0,0,0,-1,1770,960,0,0
553,64,0,0,0,0,0,0,0,0,0,-1,1777,960,0,0
560,64,0,0,0,0,0,0,0,0,0,-1,1784,960,0,0
567,64,0,0,0,0,0,0,0,0,0,-1,1791,960,0,0
574,64,0,0,0,0,0,0,0,0,0,-1,1798,960,0,0
581,64,0,0,0,0,0,0,0,0,0,-1,1805,960,0,0
588,64,0,0,0,0,0,0,0,0,0,-1,1812,960,0,0
595,64,0,0,0,0,0,0,0,0,0,-1,1819,960,0,0
602,64,0,0,0,0,0,0,0,0,0,-1,1826,960,0,0
609,64,0,0,0,0,0,0,0,0,0,-1,1833,960,0,0
616,64,0,0,0,0,0,0,0,0,0,-1,1840,960,0,0
623,64,0,0,0,0,0,0,0,0,0,-1,1847,960,0,0
630,64,0,0,0,0,0,0,0,0,0,-1,1854,960,0,0
637,64,0,0,0,0,0,0,0,0,0,-1,1861,960,0,0
644,64,83.4948,2.34015,0.00243868,0.00315671,-0.000774515,0.00365138,0.00194402,-1.00242,0.0021096,0.0421883,1868,960,83.4947,-2.34016
651,64,83.3263,2.33252,0.00251415,0.0023563,-0.000532636,0.00297368,0.00189677,-0.711848,0.00173847,0.0406019,1875,960,83.3263,-2.33255
658,64,83.1692,2.45105,0.00235058,0.00185863,-0.000105978,0.00237244,0.00183677,-0.203405,0.00143675,0.0374684,1882,960,83.1692,-2.45104
665,64,83.1957,2.55475,0.00205064,0.00153002,0.000351698,0.00222788,0.00135278,0.466817,0.00129609,0.0404088,1889,960,83.1957,-2.55476
672,64,83.2493,2.46661,0.00129411,0.00115435,0.000884728,0.00211171,0.000336743,0.745987,0.00131007,0.0433913,1896,960,83.2493,-2.46662
679,64,83.2903,2.34613,0.0004548,0.000535631,0.00140323,0.00189902,-0.000908591,0.799795,0.00165426,0.043461,1903,960,83.2903,-2.34612
686,64,83.3265,2.28284,-0.000201525,-0.00010961,0.00145716,0.00130232,-0.00161345,0.801163,0.00168661,0.0392219,1910,960,83.3266,-2.28287
693,64,83.3392,2.22736,-0.000955766,-0.000479108,0.00127817,0.000582762,-0.00201764,0.87757,0.00157569,0.0344255,1917,960,83.3392,-2.22739
700,64,83.3101,2.3299,-0.00179061,-0.000475346,0.000946733,1.97513e-05,-0.0022857,1.08895,0.00153043,0.0323145,1924,960,83.31,-2.3299
707,64,83.2435,2.61859,0,0,0,0,0,0,0,-1,1931,960,83.2435,-2.61859
714,64,81.8467,5.5177,0,0,0,0,0,0,0,-1,1938,960,81.8467,-5.51767
721,64,81.2432,6.09259,-0.00492871,0.0016784,-0.000588878,0.00173047,-0.00498078,-1.48259,0.00402337,0.0352163,1945,960,81.2432,-6.09261
728,64,80.8955,6.76746,-0.00566605,0.00333439,-0.000764516,0.00339886,-0.00573053,-1.48666,0.00532785,0.0309209,1952,960,80.8955,-6.76745
735,64,80.8634,7.41992,-0.00623322,0.00519889,-0.0012863,0.00534183,-0.00637616,-1.46012,0.00677417,0.0395391,1959,960,80.8634,-7.41992
742,64,80.9889,7.86237,-0.0069806,0.00758548,-0.00174162,0.00779083,-0.00718595,-1.45343,0.0086492,0.03269,1966,960,80.9889,-7.86238
749,64,80.9299,8.3501,-0.00766445,0.0111186,-0.00203212,0.0113359,-0.00788179,-1.46425,0.0111549,0.0180198,1973,960,80.9299,-8.35007
756,64,80.8345,8.81708,-0.00801343,0.0162624,-0.00178189,0.0163925,-0.00814353,-1.49792,0.0144303,0.0173709,1980,960,80.8346,-8.81708
763,64,80.7732,9.31451,-0.00776005,0.0229527,-0.000684334,0.0229679,-0.00777529,-1.54853,0.0184579,0.0198392,1987,960,80.7732,-9.3145
770,64,80.4868,9.69501,-0.00695335,0.0299495,0.00101724,0.0299775,-0.00698137,1.54326,0.0226733,0.0202205,1994,960,80.4868,-9.69499
777,64,80.1604,10.2109,-0.00602496,0.0370052,0.00367574,0.0373169,-0.0063367,1.48619,0.027237,0.0356922,2001,960,80.1604,-10.2109
784,64,79.8806,10.7018,-0.00334019,0.0439497,0.00792981,0.045244,-0.00463447,1.409,0.0318202,0.0461019,2008,960,79.8806,-10.7019
791,64,79.6458,11.2045,0,0,0,0,0,0,0,-1,2015,960,79.6459,-11.2045
798,64,76.1096,9.16791,0,0,0,0,0,0,0,-1,2022,960,76.1096,-9.16789
805,64,71.8018,7.16925,0,0,0,0,0,0,0,-1,2029,960,71.8016,-7.16926
812,64,0,0,0,0,0,0,0,0,0,-1,2036,960,0,0
-700,57,0,0,0,0,0,0,0,0,0,-1,524,967,0,0
-693,57,0,0,0,0,0,0,0,0,0,-1,531,967,0,0
-686,57,-68.1213,10.9506,0,0,0,0,0,0,0,-1,538,967,-68.1213,-10.9506
-679,57,-66.8411,11.1078,0,0,0,0,0,0,0,-1,545,967,-66.8411,-11.1078
-672,57,-68.8421,-1.19049,0,0,0,0,0,0,0,-1,552,967,-68.8421,1.19049
-665,57,-68.175,-0.653992,0,0,0,0,0,0,0,-1,559,967,-68.1751,0.653966
-658,57,-65.6603,1.69305,0,0,0,0,0,0,0,-1,566,967,-65.6603,-1.69307
-651,57,-65.593,10.306,0,0,0,0,0,0,0,-1,573,967,-65.593,-10.306
-644,57,-65.373,9.83496,-4.34913e-05,0.0439926,0.00701873,0.0450843,-0.00113512,1.4165,0.0304416,0.0399234,580,967,-65.373,-9.83497
-637,57,-65.2413,9.36835,-0.000983067,0.0342422,0.00634583,0.0353505,-0.00209139,1.39789,0.0242942,0.0232292,587,967,-65.2413,-9.36834
-630,57,-65.3318,8.94409,-0.00152768,0.0256607,0.00592414,0.0268954,-0.00276243,1.36531,0.0189184,0.0144277,594,967,-65.3318,-8.94407
-623,57,-65.3876,8.55438,-0.00191979,0.017749,0.00549452,0.0191798,-0.00335061,1.31605,0.0140374,0.0138553,601,967,-65.3876,-8.55436
-616,57,-65.3904,8.09821,-0.00207445,0.0116922,0.00509419,0.0133722,-0.00375447,1.25224,0.0103948,0.0169488,608,967,-65.3904,-8.09819
-609,57,-65.4149,7.59814,-0.00215362,0.00731286,0.00475928,0.00929187,-0.00413263,1.17673,0.00793914,0.0181472,615,967,-65.4149,-7.59813
-602,57,-65.4101,7.03632,-0.00196521,0.0044265,0.00420227,0.00651009,-0.00404881,1.11049,0.00615114,0.0133059,622,967,-65.4101,-7.0363
-595,57,-65.4262,6.51105,-0.00139981,0.00254999,0.00374829,0.00481182,-0.00366165,1.02786,0.00490716,0.0265754,629,967,-65.4262,-6.51106
-588,57,-65.142,6.09216,-0.000975099,0.00113822,0.00324292,0.00349229,-0.00332917,0.942892,0.00393875,0.0441565,636,967,-65.1419,-6.09218
-581,57,-64.8154,5.54126,0,0,0,0,0,0,0,-1,643,967,-64.8154,-5.54128
-574,57,-66.3586,0.602173,-0.000819572,-0.000180389,0.00110041,0.000645897,-0.00164586,0.926725,0.00136448,0.0374748,650,967,-66.3586,-0.602157
-567,57,-66.4099,0.585388,-0.000523495,-0.000220684,0.000130726,-0.000172057,-0.000572122,1.21468,0.000338946,0.0331449,657,967,-66.4099,-0.585412
-560,57,-66.1943,1.15509,0,0,0,0,0,0,0,-1,664,967,-66.1943,-1.15511
-553,57,-66.1916,0.537964,0,0,0,0,0,0,0,-1,671,967,-66.1916,-0.537957
-546,57,-66.1889,-0.0791626,0,0,0,0,0,0,0,-1,678,967,-66.1889,0.0791923
-539,57,-66.5373,0.888367,-0.00043939,0.0039516,-0.00723595,0.0093178,-0.00580559,-0.932691,0.00880963,0.0426941,685,967,-66.5373,-0.888397
-532,57,-66.5142,0.657043,-0.00109234,0.0056316,-0.0106701,0.0134568,-0.00891755,-0.938017,0.0130062,0.039091,692,967,-66.5142,-0.657033
-525,57,-66.4773,0.473572,-0.00201136,0.00757502,-0.0143684,0.0179287,-0.012365,-0.94639,0.0175881,0.0380677,699,967,-66.4773,-0.473578
-518,57,0,0,0,0,0,0,0,0,0,-1,706,967,0,0
-511,57,0,0,0,0,0,0,0,0,0,-1,713,967,0,0
-504,57,0,0,0,0,0,0,0,0,0,-1,720,967,0,0
-497,57,0,0,0,0,0,0,0,0,0,-1,727,967,0,0
-490,57,0,0,0,0,0,0,0,0,0,-1,734,967,0,0
-483,57,0,0,0,0,0,0,0,0,0,-1,741,967,0,0
-476,57,0,0,0,0,0,0,0,0,0,-1,748,967,0,0
-469,57,0,0,0,0,0,0,0,0,0,-1,755,967,0,0
-462,57,0,0,0,0,0,0,0,0,0,-1,762,967,0,0
-455,57,0,0,0,0,0,0,0,0,0,-1,769,967,0,0
-448,57,0,0,0,0,0,0,0,0,0,-1,776,967,0,0
-441,57,0,0,0,0,0,0,0,0,0,-1,783,967,0,0
-434,57,0,0,0,0,0,0,0,0,0,-1,790,967,0,0
-427,57,0,0,0,0,0,0,0,0,0,-1,797,967,0,0
-420,57,0,0,0,0,0,0,0,0,0,-1,804,967,0,0
-413,57,0,0,0,0,0,0,0,0,0,-1,811,967,0,0
-406,57,0,0,0,0,0,0,0,0,0,-1,818,967,0,0
-399,57,0,0,0,0,0,0,0,0,0,-1,825,967,0,0
-392,57,0,0,0,0,0,0,0,0,0,-1,832,967,0,0
-385,57,0,0,0,0,0,0,0,0,0,-1,839,967,0,0
-378,57,0,0,0,0,0,0,0,0,0,-1,846,967,0,0
-371,57,0,0,0,0,0,0,0,0,0,-1,853,967,0,0
-364,57,0,0,0,0,0,0,0,0,0,-1,860,967,0,0
-357,57,0,0,0,0,0,0,0,0,0,-1,867,967,0,0
-350,57,0,0,0,0,0,0,0,0,0,-1,874,967,0,0
-343,57,0,0,0,0,0,0,0,0,0,-1,881,967,0,0
-336,57,0,0,0,0,0,0,0,0,0,-1,888,967,0,0
-329,57,0,0,0,0,0,0,0,0,0,-1,895,967,0,0
-322,57,0,0,0,0,0,0,0,0,0,-1,902,967,0,0
-315,57,0,0,0,0,0,0,0,0,0,-1,909,967,0,0
-308,57,0,0,0,0,0,0,0,0,0,-1,916,967,0,0
-301,57,0,0,0,0,0,0,0,0,0,-1,923,967,0,0
-294,57,0,0,0,0,0,0,0,0,0,-1,930,967,0,0
-287,57,0,0,0,0,0,0,0,0,0,-1,937,967,0,0
-280,57,0,0,0,0,0,0,0,0,0,-1,944,967,0,0
-273,57,0,0,0,0,0,0,0,0,0,-1,951,967,0,0
-266,57,0,0,0,0,0,0,0,0,0,-1,958,967,0,0
-259,57,0,0,0,0,0,0,0,0,0,-1,965,967,0,0
-252,57,0,0,0,0,0,0,0,0,0,-1,972,967,0,0
-245,57,0,0,0,0,0,0,0,0,0,-1,979,967,0,0
-238,57,0,0,0,0,0,0,0,0,0,-1,986,967,0,0
-231,57,0,0,0,0,0,0,0,0,0,-1,993,967,0,0
-224,57,0,0,0,0,0,0,0,0,0,-1,1000,967,0,0
-217,57,0,0,0,0,0,0,0,0,0,-1,1007,967,0,0
-210,57,0,0,0,0,0,0,0,0,0,-1,1014,967,0,0
-203,57,0,0,0,0,0,0,0,0,0,-1,1021,967,0,0
-196,57,0,0,0,0,0,0,0,0,0,-1,1028,967,0,0
-189,57,0,0,0,0,0,0,0,0,0,-1,1035,967,0,0
-182,57,0,0,0,0,0,0,0,0,0,-1,1042,967,0,0
-175,57,0,0,0,0,0,0,0,0,0,-1,1049,967,0,0
-168,57,0,0,0,0,0,0,0,0,0,-1,1056,967,0,0
-161,57,0,0,0,0,0,0,0,0,0,-1,1063,967,0,0
-154,57,0,0,0,0,0,0,0,0,0,-1,1070,967,0,0
-147,57,0,0,0,0,0,0,0,0,0,-1,1077,967,0,0
-140,57,0,0,0,0,0,0,0,0,0,-1,1084,967,0,0
-133,57,0,0,0,0,0,0,0,0,0,-1,1091,967,0,0
-126,57,0,0,0,0,0,0,0,0,0,-1,1098,967,0,0
-119,57,0,0,0,0,0,0,0,0,0,-1,1105,967,0,0
-112,57,0,0,0,0,0,0,0,0,0,-1,1112,967,0,0
-105,57,0,0,0,0,0,0,0,0,0,-1,1119,967,0,0
-98,57,0,0,0,0,0,0,0,0,0,-1,1126,967,0,0
-91,57,0,0,0,0,0,0,0,0,0,-1,1133,967,0,0
-84,57,0,0,0,0,0,0,0,0,0,-1,1140,967,0,0
-77,57,0,0,0,0,0,0,0,0,0,-1,1147,967,0,0
-70,57,0,0,0,0,0,0,0,0,0,-1,1154,967,0,0
-63,57,0,0,0,0,0,0,0,0,0,-1,1161,967,0,0
-56,57,0,0,0,0,0,0,0,0,0,-1,1168,967,0,0
-49,57,0,0,0,0,0,0,0,0,0,-1,1175,967,0,0
-42,57,0,0,0,0,0,0,0,0,0,-1,1182,967,0,0
-35,57,0,0,0,0,0,0,0,0,0,-1,1189,967,0,0
-28,57,0,0,0,0,0,0,0,0,0,-1,1196,967,0,0
-21,57,0,0,0,0,0,0,0,0,0,-1,1203,967,0,0
-14,57,0,0,0,0,0,0,0,0,0,-1,1210,967,0,0
-7,57,0,0,0,0,0,0,0,0,0,-1,1217,967,0,0
0,57,0,0,0,0,0,0,0,0,0,-1,1224,967,0,0
7,57,0,0,0,0,0,0,0,0,0,-1,1231,967,0,0
14,57,0,0,0,0,0,0,0,0,0,-1,1238,967,0,0
21,57,0,0,0,0,0,0,0,0,0,-1,1245,967,0,0
28,57,0,0,0,0,0,0,0,0,0,-1,1252,967,0,0
35,57,0,0,0,0,0,0,0,0,0,-1,1259,967,0,0
42,57,0,0,0,0,0,0,0,0,0,-1,1266,967,0,0
49,57,0,0,0,0,0,0,0,0,0,-1,1273,967,0,0
56,57,0,0,0,0,0,0,0,0,0,-1,1280,967,0,0
63,57,0,0,0,0,0,0,0,0,0,-1,1287,967,0,0
70,57,0,0,0,0,0,0,0,0,0,-1,1294,967,0,0
77,57,0,0,0,0,0,0,0,0,0,-1,1301,967,0,0
84,57,0,0,0,0,0,0,0,0,0,-1,1308,967,0,0
91,57,0,0,0,0,0,0,0,0,0,-1,1315,967,0,0
98,57,0,0,0,0,0,0,0,0,0,-1,1322,967,0,0
105,57,0,0,0,0,0,0,0,0,0,-1,1329,967,0,0
112,57,0,0,0,0,0,0,0,0,0,-1,1336,967,0,0
119,57,0,0,0,0,0,0,0,0,0,-1,1343,967,0,0
126,57,0,0,0,0,0,0,0,0,0,-1,1350,967,0,0
133,57,0,0,0,0,0,0,0,0,0,-1,1357,967,0,0
140,57,0,0,0,0,0,0,0,0,0,-1,1364,967,0,0
147,57,0,0,0,0,0,0,0,0,0,-1,1371,967,0,0
154,57,0,0,0,0,0,0,0,0,0,-1,1378,967,0,0
161,57,0,0,0,0,0,0,0,0,0,-1,1385,967,0,0
168,57,0,0,0,0,0,0,0,0,0,-1,1392,967,0,0
175,57,0,0,0,0,0,0,0,0,0,-1,1399,967,0,0
182,57,0,0,0,0,0,0,0,0,0,-1,1406,967,0,0
189,57,0,0,0,0,0,0,0,0,0,-1,1413,967,0,0
196,57,0,0,0,0,0,0,0,0,0,-1,1420,967,0,0
203,57,0,0,0,0,0,0,0,0,0,-1,1427,967,0,0
210,57,0,0,0,0,0,0,0,0,0,-1,1434,967,0,0
217,57,0,0,0,0,0,0,0,0,0,-1,1441,967,0,0
224,57,0,0,0,0,0,0,0,0,0,-1,1448,967,0,0
231,57,0,0,0,0,0,0,0,0,0,-1,1455,967,0,0
238,57,0,0,0,0,0,0,0,0,0,-1,1462,967,0,0
245,57,0,0,0,0,0,0,0,0,0,-1,1469,967,0,0
252,57,0,0,0,0,0,0,0,0,0,-1,1476,967,0,0
259,57,0,0,0,0,0,0,0,0,0,-1,1483,967,0,0
266,57,0,0,0,0,0,0,0,0,0,-1,1490,967,0,0
273,57,0,0,0,0,0,0,0,0,0,-1,1497,967,0,0
280,57,0,0,0,0,0,0,0,0,0,-1,1504,967,0,0
287,57,0,0,0,0,0,0,0,0,0,-1,1511,967,0,0
294,57,0,0,0,0,0,0,0,0,0,-1,1518,967,0,0
301,57,0,0,0,0,0,0,0,0,0,-1,1525,967,0,0
308,57,0,0,0,0,0,0,0,0,0,-1,1532,967,0,0
315,57,0,0,0,0,0,0,0,0,0,-1,1539,967,0,0
322,57,0,0,0,0,0,0,0,0,0,-1,1546,967,0,0
329,57,0,0,0,0,0,0,0,0,0,-1,1553,967,0,0
336,57,0,0,0,0,0,0,0,0,0,-1,1560,967,0,0
343,57,0,0,0,0,0,0,0,0,0,-1,1567,967,0,0
350,57,0,0,0,0,0,0,0,0,0,-1,1574,967,0,0
357,57,0,0,0,0,0,0,0,0,0,-1,1581,967,0,0
364,57,0,0,0,0,0,0,0,0,0,-1,1588,967,0,0
371,57,0,0,0,0,0,0,0,0,0,-1,1595,967,0,0
378,57,0,0,0,0,0,0,0,0,0,-1,1602,967,0,0
385,57,0,0,0,0,0,0,0,0,0,-1,1609,967,0,0
392,57,0,0,0,0,0,0,0,0,0,-1,1616,967,0,0
399,57,0,0,0,0,0,0,0,0,0,-1,1623,967,0,0
406,57,0,0,0,0,0,0,0,0,0,-1,1630,967,0,0
413,57,0,0,0,0,0,0,0,0,0,-1,1637,967,0,0
420,57,0,0,0,0,0,0,0,0,0,-1,1644,967,0,0
427,57,0,0,0,0,0,0,0,0,0,-1,1651,967,0,0
434,57,0,0,0,0,0,0,0,0,0,-1,1658,967,0,0
441,57,0,0,0,0,0,0,0,0,0,-1,1665,967,0,0
448,57,0,0,0,0,0,0,0,0,0,-1,1672,967,0,0
455,57,0,0,0,0,0,0,0,0,0,-1,1679,967,0,0
462,57,0,0,0,0,0,0,0,0,0,-1,1686,967,0,0
469,57,0,0,0,0,0,0,0,0,0,-1,1693,967,0,0
476,57,0,0,0,0,0,0,0,0,0,-1,1700,967,0,0
483,57,0,0,0,0,0,0,0,0,0,-1,1707,967,0,0
490,57,0,0,0,0,0,0,0,0,0,-1,1714,967,0,0
497,57,0,0,0,0,0,0,0,0,0,-1,1721,967,0,0
504,57,0,0,0,0,0,0,0,0,0,-1,1728,967,0,0
511,57,0,0,0,0,0,0,0,0,0,-1,1735,967,0,0
518,57,0,0,0,0,0,0,0,0,0,-1,1742,967,0,0
525,57,0,0,0,0,0,0,0,0,0,-1,1749,967,0,0
532,57,0,0,0,0,0,0,0,0,0,-1,1756,967,0,0
539,57,0,0,0,0,0,0,0,0,0,-1,1763,967,0,0
546,57,0,0,0,0,0,0,0,0,0,-1,1770,967,0,0
553,57,0,0,0,0,0,0,0,0,0,-1,1777,967,0,0
560,57,0,0,0,0,0,0,0,0,0,-1,1784,967,0,0
567,57,0,0,0,0,0,0,0,0,0,-1,1791,967,0,0
574,57,0,0,0,0,0,0,0,0,0,-1,1798,967,0,0
581,57,0,0,0,0,0,0,0,0,0,-1,1805,967,0,0
588,57,0,0,0,0,0,0,0,0,0,-1,1812,967,0,0
595,57,0,0,0,0,0,0,0,0,0,-1,1819,967,0,0
602,57,0,0,0,0,0,0,0,0,0,-1,1826,967,0,0
609,57,0,0,0,0,0,0,0,0,0,-1,1833,967,0,0
616,57,0,0,0,0,0,0,0,0,0,-1,1840,967,0,0
623,57,0,0,0,0,0,0,0,0,0,-1,1847,967,0,0
630,57,0,0,0,0,0,0,0,0,0,-1,1854,967,0,0
637,57,0,0,0,0,0,0,0,0,0,-1,1861,967,0,0
644,57,83.3049,2.54791,0.003119,0.00193427,-0.00102579,0.00371118,0.00134209,-0.523553,0.00216982,0.0425849,1868,967,83.3049,-2.54791
651,57,83.3442,2.43665,0.00303526,0.00146189,-0.000585422,0.00322918,0.00126797,-0.319879,0.00187863,0.036577,1875,967,83.3442,-2.43664
658,57,83.2144,2.47449,0.00273909,0.00118035,-7.39692e-05,0.00274259,0.00117685,-0.0473128,0.00158873,0.0340116,1882,967,83.2144,-2.4745
665,57,83.1698,2.64355,0.00232792,0.00102026,0.000391495,0.00243617,0.000912011,0.269758,0.00142125,0.0410906,1889,967,83.1698,-2.64357
672,57,83.2566,2.3703,0.00155211,0.000800805,0.000877955,0.0021314,0.000221513,0.583247,0.00135316,0.0435487,1896,967,83.2567,-2.37029
679,57,83.269,2.30859,0.000752809,0.000314116,0.00136279,0.00191379,-0.000846863,0.705605,0.00163306,0.0414734,1903,967,83.269,-2.30857
686,57,83.2695,2.32648,0.000147436,-0.0002611,0.00145297,0.00141043,-0.00152409,0.715563,0.00169467,0.0389923,1910,967,83.2695,-2.32646
693,57,83.2544,2.31244,-0.000569885,-0.000619832,0.00131148,0.000716864,-0.00190658,0.775878,0.0015657,0.0327915,1917,967,83.2544,-2.31241
700,57,83.2639,2.36542,-0.00137764,-0.00062127,0.00100443,7.38082e-05,-0.00207272,0.965449,0.00140706,0.026614,1924,967,83.2639,-2.36544
707,57,83.1953,2.69647,0,0,0,0,0,0,0,-1,1931,967,83.1954,-2.69646
714,57,76.8607,2.55151,0,0,0,0,0,0,0,-1,1938,967,76.8607,-2.55154
721,57,81.9113,6.18164,0,0,0,0,0,0,0,-1,1945,967,81.9112,-6.18165
728,57,81.5316,6.92023,-0.00554485,0.00353728,-0.000715785,0.00359334,-0.00560092,-1.49263,0.00535032,0.0270219,1952,967,81.5316,-6.92021
735,57,81.547,7.44659,-0.00625431,0.00549175,-0.00110355,0.00559453,-0.00635709,-1.47793,0.00690495,0.0352622,1959,967,81.547,-7.44658
742,57,81.5897,7.80658,-0.00728104,0.00793108,-0.00149461,0.00807653,-0.00742649,-1.47378,0.0089533,0.0253371,1966,967,81.5898,-7.8066
749,57,81.4924,8.3194,-0.00835844,0.0114266,-0.00177071,0.0115838,-0.00851566,-1.48224,0.0116494,0.0155355,1973,967,81.4924,-8.31937
756,57,81.3911,8.78766,-0.0092701,0.0164278,-0.00159442,0.0165263,-0.00936864,-1.50907,0.0151396,0.0139342,1980,967,81.3912,-8.78768
763,57,81.2415,9.22241,-0.00974041,0.0230764,-0.000598627,0.0230874,-0.00975133,-1.55256,0.0194736,0.015584,1987,967,81.2415,-9.22242
770,57,81.0627,9.58392,-0.00964428,0.0302547,0.00105563,0.0302826,-0.00967219,1.54436,0.0240692,0.0144072,1994,967,81.0628,-9.58394
777,57,80.9246,10.005,-0.00946278,0.0374939,0.00363894,0.0377742,-0.00974311,1.49391,0.0289817,0.0286295,2001,967,80.9244,-10.005
784,57,80.9993,10.8169,-0.00768499,0.044672,0.00782945,0.0458177,-0.00883073,1.42549,0.0338746,0.0452834,2008,967,80.9992,-10.8169
791,57,81.1208,11.715,0,0,0,0,0,0,0,-1,2015,967,81.1208,-11.715
798,57,80.9792,10.8833,0,0,0,0,0,0,0,-1,2022,967,80.9793,-10.8833
805,57,81.7651,10.6108,0,0,0,0,0,0,0,-1,2029,967,81.7652,-10.6108
812,57,0,0,0,0,0,0,0,0,0,-1,2036,967,0,0
-700,50,0,0,0,0,0,0,0,0,0,-1,524,974,0,0
-693,50,-69.0667,9.67914,0,0,0,0,0,0,0,-1,531,974,-69.0666,-9.67911
-686,50,-67.6961,9.75562,0,0,0,0,0,0,0,-1,538,974,-67.6961,-9.75562
-679,50,-66.3728,9.99097,0,0,0,0,0,0,0,-1,545,974,-66.3728,-9.99094
-672,50,-64.8589,9.98047,0,0,0,0,0,0,0,-1,552,974,-64.8589,-9.98048
-665,50,-66.1696,0.16217,0,0,0,0,0,0,0,-1,559,974,-66.1696,-0.162174
-658,50,-65.8141,9.79437,0,0,0,0,0,0,0,-1,566,974,-65.8141,-9.7944
-651,50,-65.7659,9.65643,-0.00236823,0.0543554,0.00816844,0.0555082,-0.00352109,1.43059,0.0382333,0.0484631,573,974,-65.7659,-9.65644
-644,50,-65.5804,9.55035,-0.00183915,0.0444588,0.00718653,0.0455487,-0.00292901,1.42029,0.0313877,0.0366684,580,974,-65.5805,-9.55036
-637,50,-65.7449,9.15479,-0.00238027,0.0346129,0.00639968,0.0356888,-0.0034561,1.40425,0.0250242,0.0207631,587,974,-65.7449,-9.15479
-630,50,-65.8751,8.80774,-0.0027525,0.0257863,0.00588473,0.0269521,-0.00391831,1.37522,0.0194065,0.0119029,594,974,-65.875,-8.80777
-623,50,-65.9355,8.47217,-0.00297958,0.0178387,0.00535522,0.0191355,-0.00427636,1.33322,0.0143958,0.0133722,601,974,-65.9355,-8.47215
-616,50,-65.9247,8.09033,-0.00298314,0.0118816,0.00487733,0.0133391,-0.00444057,1.28043,0.010685,0.0144527,608,974,-65.9247,-8.09031
-609,50,-65.925,7.58276,-0.00291551,0.00764084,0.00450306,0.00930073,-0.00457539,1.21764,0.00816475,0.0133875,615,974,-65.9251,-7.58278
-602,50,-65.9286,7.10577,-0.00257355,0.00480578,0.00391965,0.00649917,-0.00426694,1.16299,0.0062602,0.0136448,622,974,-65.9286,-7.10575
-595,50,-65.9757,6.66437,-0.00191225,0.00289418,0.00344509,0.00469145,-0.00370952,1.08995,0.00486133,0.021667,629,974,-65.9757,-6.66437
-588,50,-65.9659,5.94214,-0.00138674,0.00145068,0.0029675,0.00332117,-0.00325723,1.00838,0.0037981,0.0408248,636,974,-65.9659,-5.94215
-581,50,-65.9053,4.86926,0,0,0,0,0,0,0,-1,643,974,-65.9053,-4.86923
-574,50,-66.3777,0.437622,-0.00100228,0.000193495,0.000883612,0.00066249,-0.00147128,1.08284,0.00126109,0.0330683,650,974,-66.3777,-0.437638
-567,50,-66.459,0.67218,-0.00063477,0.000245608,-8.43952e-05,0.000253626,-0.000642787,-1.47608,0.000533553,0.0408206,657,974,-66.4591,-0.67219
-560,50,-66.3675,0.781555,-0.000360715,0.000848927,-0.00126134,0.00164296,-0.00115475,-1.00896,0.00162344,0.0441479,664,974,-66.3675,-0.781582
-553,50,-66.2875,0.570679,-0.000130431,0.00194106,-0.0027867,0.00387827,-0.00206764,-0.963324,0.00348553,0.0409394,671,974,-66.2876,-0.570654
-546,50,-66.3068,0.409607,1.56542e-05,0.00338262,-0.00483704,0.00682077,-0.0034225,-0.952862,0.00602146,0.0392351,678,974,-66.3068,-0.409609
-539,50,-66.4391,1.05194,-0.000385863,0.00481311,-0.00767641,0.0103182,-0.00589098,-0.948655,0.00947403,0.0442415,685,974,-66.4392,-1.05195
-532,50,-66.5676,0.626831,-0.00109714,0.00664656,-0.0111875,0.0146133,-0.00906386,-0.95199,0.0137946,0.0435416,692,974,-66.5676,-0.626807
-525,50,-66.509,0.309753,-0.00210859,0.00879879,-0.0151404,0.0194378,-0.0127476,-0.958268,0.0187156,0.0427353,699,974,-66.509,-0.309726
-518,50,0,0,0,0,0,0,0,0,0,-1,706,974,0,0
-511,50,0,0,0,0,0,0,0,0,0,-1,713,974,0,0
-504,50,0,0,0,0,0,0,0,0,0,-1,720,974,0,0
-497,50,0,0,0,0,0,0,0,0,0,-1,727,974,0,0
-490,50,0,0,0,0,0,0,0,0,0,-1,734,974,0,0
-483,50,0,0,0,0,0,0,0,0,0,-1,741,974,0,0
-476,50,0,0,0,0,0,0,0,0,0,-1,748,974,0,0
-469,50,0,0,0,0,0,0,0,0,0,-1,755,974,0,0
-462,50,0,0,0,0,0,0,0,0,0,-1,762,974,0,0
-455,50,0,0,0,0,0,0,0,0,0,-1,769,974,0,0
-448,50,0,0,0,0,0,0,0,0,0,-1,776,974,0,0
-441,50,0,0,0,0,0,0,0,0,0,-1,783,974,0,0
-434,50,0,0,0,0,0,0,0,0,0,-1,790,974,0,0
-427,50,0,0,0,0,0,0,0,0,0,-1,797,974,0,0
-420,50,0,0,0,0,0,0,0,0,0,-1,804,974,0,0
-413,50,0,0,0,0,0,0,0,0,0,-1,811,974,0,0
-406,50,0,0,0,0,0,0,0,0,0,-1,818,974,0,0
-399,50,0,0,0,0,0,0,0,0,0,-1,825,974,0,0
-392,50,0,0,0,0,0,0,0,0,0,-1,832,974,0,0
-385,50,0,0,0,0,0,0,0,0,0,-1,839,974,0,0
-378,50,0,0,0,0,0,0,0,0,0,-1,846,974,0,0
-371,50,0,0,0,0,0,0,0,0,0,-1,853,974,0,0
-364,50,0,0,0,0,0,0,0,0,0,-1,860,974,0,0
-357,50,0,0,0,0,0,0,0,0,0,-1,867,974,0,0
-350,50,0,0,0,0,0,0,0,0,0,-1,874,974,0,0
-343,50,0,0,0,0,0,0,0,0,0,-1,881,974,0,0
-336,50,0,0,0,0,0,0,0,0,0,-1,888,974,0,0
-329,50,0,0,0,0,0,0,0,0,0,-1,895,974,0,0
-322,50,0,0,0,0,0,0,0,0,0,-1,902,974,0,0
-315,50,0,0,0,0,0,0,0,0,0,-1,909,974,0,0
-308,50,0,0,0,0,0,0,0,0,0,-1,916,974,0,0
-301,50,0,0,0,0,0,0,0,0,0,-1,923,974,0,0
-294,50,0,0,0,0,0,0,0,0,0,-1,930,974,0,0
-287,50,0,0,0,0,0,0,0,0,0,-1,937,974,0,0
-280,50,0,0,0,0,0,0,0,0,0,-1,944,974,0,0
-273,50,0,0,0,0,0,0,0,0,0,-1,951,974,0,0
-266,50,0,0,0,0,0,0,0,0,0,-1,958,974,0,0
-259,50,0,0,0,0,0,0,0,0,0,-1,965,974,0,0
-252,50,0,0,0,0,0,0,0,0,0,-1,972,974,0,0
-245,50,0,0,0,0,0,0,0,0,0,-1,979,974,0,0
-238,50,0,0,0,0,0,0,0,0,0,-1,986,974,0,0
-231,50,0,0,0,0,0,0,0,0,0,-1,993,974,0,0
-224,50,0,0,0,0,0,0,0,0,0,-1,1000,974,0,0
-217,50,0,0,0,0,0,0,0,0,0,-1,1007,974,0,0
-210,50,0,0,0,0,0,0,0,0,0,-1,1014,974,0,0
-203,50,0,0,0,0,0,0,0,0,0,-1,1021,974,0,0
-196,50,0,0,0,0,0,0,0,0,0,-1,1028,974,0,0
-189,50,0,0,0,0,0,0,0,0,0,-1,1035,974,0,0
-182,50,0,0,0,0,0,0,0,0,0,-1,1042,974,0,0
-175,50,0,0,0,0,0,0,0,0,0,-1,1049,974,0,0
-168,50,0,0,0,0,0,0,0,0,0,-1,1056,974,0,0
-161,50,0,0,0,0,0,0,0,0,0,-1,1063,974,0,0
-154,50,0,0,0,0,0,0,0,0,0,-1,1070,974,0,0
-147,50,0,0,0,0,0,0,0,0,0,-1,1077,974,0,0
-140,50,0,0,0,0,0,0,0,0,0,-1,1084,974,0,0
-133,50,0,0,0,0,0,0,0,0,0,-1,1091,974,0,0
-126,50,0,0,0,0,0,0,0,0,0,-1,1098,974,0,0
-119,50,0,0,0,0,0,0,0,0,0,-1,1105,974,0,0
-112,50,0,0,0,0,0,0,0,0,0,-1,1112,974,0,0
-105,50,0,0,0,0,0,0,0,0,0,-1,1119,974,0,0
-98,50,0,0,0,0,0,0,0,0,0,-1,1126,974,0,0
-91,50,0,0,0,0,0,0,0,0,0,-1,1133,974,0,0
-84,50,0,0,0,0,0,0,0,0,0,-1,1140,974,0,0
-77,50,0,0,0,0,0,0,0,0,0,-1,1147,974,0,0
-70,50,0,0,0,0,0,0,0,0,0,-1,1154,974,0,0
-63,50,0,0,0,0,0,0,0,0,0,-1,1161,974,0,0
-56,50,0,0,0,0,0,0,0,0,0,-1,1168,974,0,0
-49,50,0,0,0,0,0,0,0,0,0,-1,1175,974,0,0
-42,50,0,0,0,0,0,0,0,0,0,-1,1182,974,0,0
-35,50,0,0,0,0,0,0,0,0,0,-1,1189,974,0,0
-28,50,0,0,0,0,0,0,0,0,0,-1,1196,974,0,0
-21,50,0,0,0,0,0,0,0,0,0,-1,1203,974,0,0
-14,50,0,0,0,0,0,0,0,0,0,-1,1210,974,0,0
-7,50,0,0,0,0,0,0,0,0,0,-1,1217,974,0,0
0,50,0,0,0,0,0,0,0,0,0,-1,1224,974,0,0
7,50,0,0,0,0,0,0,0,0,0,-1,1231,974,0,0
14,50,0,0,0,0,0,0,0,0,0,-1,1238,974,0,0
21,50,0,0,0,0,0,0,0,0,0,-1,1245,974,0,0
28,50,0,0,0,0,0,0,0,0,0,-1,1252,974,0,0
35,50,0,0,0,0,0,0,0,0,0,-1,1259,974,0,0
42,50,0,0,0,0,0,0,0,0,0,-1,1266,974,0,0
49,50,0,0,0,0,0,0,0,0,0,-1,1273,974,0,0
56,50,0,0,0,0,0,0,0,0,0,-1,1280,974,0,0
63,50,0,0,0,0,0,0,0,0,0,-1,1287,974,0,0
70,50,0,0,0,0,0,0,0,0,0,-1,1294,974,0,0
77,50,0,0,0,0,0,0,0,0,0,-1,1301,974,0,0
84,50,0,0,0,0,0,0,0,0,0,-1,1308,974,0,0
91,50,0,0,0,0,0,0,0,0,0,-1,1315,974,0,0
98,50,0,0,0,0,0,0,0,0,0,-1,1322,974,0,0
105,50,0,0,0,0,0,0,0,0,0,-1,1329,974,0,0
112,50,0,0,0,0,0,0,0,0,0,-1,1336,974,0,0
119,50,0,0,0,0,0,0,0,0,0,-1,1343,974,0,0
126,50,0,0,0,0,0,0,0,0,0,-1,1350,974,0,0
133,50,0,0,0,0,0,0,0,0,0,-1,1357,974,0,0
140,50,0,0,0,0,0,0,0,0,0,-1,1364,974,0,0
147,50,0,0,0,0,0,0,0,0,0,-1,1371,974,0,0
154,50,0,0,0,0,0,0,0,0,0,-1,1378,974,0,0
161,50,0,0,0,0,0,0,0,0,0,-1,1385,974,0,0
168,50,0,0,0,0,0,0,0,0,0,-1,1392,974,0,0
175,50,0,0,0,0,0,0,0,0,0,-1,1399,974,0,0
182,50,0,0,0,0,0,0,0,0,0,-1,1406,974,0,0
189,50,0,0,0,0,0,0,0,0,0,-1,1413,974,0,0
196,50,0,0,0,0,0,0,0,0,0,-1,1420,974,0,0
203,50,0,0,0,0,0,0,0,0,0,-1,1427,974,0,0
210,50,0,0,0,0,0,0,0,0,0,-1,1434,974,0,0
217,50,0,0,0,0,0,0,0,0,0,-1,1441,974,0,0
224,50,0,0,0,0,0,0,0,0,0,-1,1448,974,0,0
231,50,0,0,0,0,0,0,0,0,0,-1,1455,974,0,0
238,50,0,0,0,0,0,0,0,0,0,-1,1462,974,0,0
245,50,0,0,0,0,0,0,0,0,0,-1,1469,974,0,0
252,50,0,0,0,0,0,0,0,0,0,-1,1476,974,0,0
259,50,0,0,0,0,0,0,0,0,0,-1,1483,974,0,0
266,50,0,0,0,0,0,0,0,0,0,-1,1490,974,0,0
273,50,0,0,0,0,0,0,0,0,0,-1,1497,974,0,0
280,50,0,0,0,0,0,0,0,0,0,-1,1504,974,0,0
287,50,0,0,0,0,0,0,0,0,0,-1,1511,974,0,0
294,50,0,0,0,0,0,0,0,0,0,-1,1518,974,0,0
301,50,0,0,0,0,0,0,0,0,0,-1,1525,974,0,0
308,50,0,0,0,0,0,0,0,0,0,-1,1532,974,0,0
315,50,0,0,0,0,0,0,0,0,0,-1,1539,974,0,0
322,50,0,0,0,0,0,0,0,0,0,-1,1546,974,0,0
329,50,0,0,0,0,0,0,0,0,0,-1,1553,974,0,0
336,50,0,0,0,0,0,0,0,0,0,-1,1560,974,0,0
343,50,0,0,0,0,0,0,0,0,0,-1,1567,974,0,0
350,50,0,0,0,0,0,0,0,0,0,-1,1574,974,0,0
357,50,0,0,0,0,0,0,0,0,0,-1,1581,974,0,0
364,50,0,0,0,0,0,0,0,0,0,-1,1588,974,0,0
371,50,0,0,0,0,0,0,0,0,0,-1,1595,974,0,0
378,50,0,0,0,0,0,0,0,0,0,-1,1602,974,0,0
385,50,0,0,0,0,0,0,0,0,0,-1,1609,974,0,0
392,50,0,0,0,0,0,0,0,0,0,-1,1616,974,0,0
399,50,0,0,0,0,0,0,0,0,0,-1,1623,974,0,0
406,50,0,0,0,0,0,0,0,0,0,-1,1630,974,0,0
413,50,0,0,0,0,0,0,0,0,0,-1,1637,974,0,0
420,50,0,0,0,0,0,0,0,0,0,-1,1644,974,0,0
427,50,0,0,0,0,0,0,0,0,0,-1,1651,974,0,0
434,50,0,0,0,0,0,0,0,0,0,-1,1658,974,0,0
441,50,0,0,0,0,0,0,0,0,0,-1,1665,974,0,0
448,50,0,0,0,0,0,0,0,0,0,-1,1672,974,0,0
455,50,0,0,0,0,0,0,0,0,0,-1,1679,974,0,0
462,50,0,0,0,0,0,0,0,0,0,-1,1686,974,0,0
469,50,0,0,0,0,0,0,0,0,0,-1,1693,974,0,0
476,50,0,0,0,0,0,0,0,0,0,-1,1700,974,0,0
483,50,0,0,0,0,0,0,0,0,0,-1,1707,974,0,0
490,50,0,0,0,0,0,0,0,0,0,-1,1714,974,0,0
497,50,0,0,0,0,0,0,0,0,0,-1,1721,974,0,0
504,50,0,0,0,0,0,0,0,0,0,-1,1728,974,0,0
511,50,0,0,0,0,0,0,0,0,0,-1,1735,974,0,0
518,50,0,0,0,0,0,0,0,0,0,-1,1742,974,0,0
525,50,0,0,0,0,0,0,0,0,0,-1,1749,974,0,0
532,50,0,0,0,0,0,0,0,0,0,-1,1756,974,0,0
539,50,0,0,0,0,0,0,0,0,0,-1,1763,974,0,0
546,50,0,0,0,0,0,0,0,0,0,-1,1770,974,0,0
553,50,0,0,0,0,0,0,0,0,0,-1,1777,974,0,0
560,50,0,0,0,0,0,0,0,0,0,-1,1784,974,0,0
567,50,0,0,0,0,0,0,0,0,0,-1,1791,974,0,0
574,50,0,0,0,0,0,0,0,0,0,-1,1798,974,0,0
581,50,0,0,0,0,0,0,0,0,0,-1,1805,974,0,0
588,50,0,0,0,0,0,0,0,0,0,-1,1812,974,0,0
595,50,0,0,0,0,0,0,0,0,0,-1,1819,974,0,0
602,50,0,0,0,0,0,0,0,0,0,-1,1826,974,0,0
609,50,0,0,0,0,0,0,0,0,0,-1,1833,974,0,0
616,50,0,0,0,0,0,0,0,0,0,-1,1840,974,0,0
623,50,0,0,0,0,0,0,0,0,0,-1,1847,974,0,0
630,50,0,0,0,0,0,0,0,0,0,-1,1854,974,0,0
637,50,0,0,0,0,0,0,0,0,0,-1,1861,974,0,0
644,50,83.1715,2.46539,0.00366664,0.00148477,-0.00151932,0.00444613,0.000705283,-0.474032,0.0027592,0.0385034,1868,974,83.1715,-2.46539
651,50,83.2032,2.30994,0.00350445,0.0012239,-0.000931721,0.0038367,0.000891645,-0.342541,0.00231846,0.0330503,1875,974,83.2033,-2.30994
658,50,83.2791,2.37872,0.00312903,0.00102743,-0.000352829,0.00318669,0.000969779,-0.161972,0.00188621,0.0360846,1882,974,83.2791,-2.37874
665,50,83.244,2.40625,0.00264101,0.000899847,0.000129781,0.00265063,0.000890227,0.073992,0.00155759,0.0424259,1889,974,83.2441,-2.40626
672,50,83.2443,2.27435,0.00185796,0.000702261,0.000600916,0.00211378,0.000446437,0.402483,0.00128646,0.0417975,1896,974,83.2442,-2.27436
679,50,83.2203,2.30756,0.00108131,0.000241979,0.0010798,0.00182013,-0.000496844,0.600056,0.00140855,0.0392539,1903,974,83.2203,-2.30757
686,50,83.1946,2.33282,0.000501,-0.000340837,0.00122736,0.00137761,-0.00121745,0.62021,0.00149921,0.0408452,1910,974,83.1945,-2.33283
693,50,83.1476,2.37079,-0.000189135,-0.000733521,0.00114824,0.000718732,-0.00164139,0.66902,0.00139689,0.0376768,1917,974,83.1476,-2.3708
700,50,83.1553,2.41492,-0.000971035,-0.000780409,0.000891068,2.04288e-05,-0.00177187,0.838678,0.00118812,0.0215603,1924,974,83.1553,-2.4149
707,50,83.2068,2.47046,-0.00183494,-0.000401541,0.000453523,-0.000270101,-0.00196638,1.2887,0.00123081,0.0330742,1931,974,83.2067,-2.47047
714,50,83.1265,2.53278,0,0,0,0,0,0,0,-1,1938,974,83.1264,-2.53278
721,50,81.9949,6.5,0,0,0,0,0,0,0,-1,1945,974,81.9949,-6.49997
728,50,82.0958,6.9574,-0.00551645,0.00369944,-0.000731788,0.00375719,-0.00557419,-1.49205,0.00542141,0.0238889,1952,974,82.0958,-6.95742
735,50,82.1169,7.45984,-0.00636524,0.00577664,-0.000980473,0.0058553,-0.0064439,-1.49074,0.00710366,0.0241911,1959,974,82.117,-7.45983
742,50,82.0869,7.92578,-0.0076677,0.00828477,-0.00129884,0.00838983,-0.00777276,-1.49009,0.00933374,0.0177797,1966,974,82.087,-7.92577
749,50,82.0017,8.27234,-0.00880147,0.0118405,-0.00179816,0.011996,-0.00895694,-1.48455,0.0121395,0.0171829,1973,974,82.0018,-8.27237
756,50,81.8955,8.67151,-0.00959914,0.0168493,-0.00214125,0.0170215,-0.00977137,-1.49053,0.0156565,0.0164367,1980,974,81.8955,-8.67151
763,50,81.7332,9.07776,-0.00953462,0.0237097,-0.00229955,0.023868,-0.00969293,-1.50206,0.0199442,0.0170382,1987,974,81.7332,-9.07773
770,50,81.5901,9.41522,-0.00825916,0.0315091,-0.0022905,0.0316406,-0.00839065,-1.51345,0.0243768,0.0151119,1994,974,81.5901,-9.41523
777,50,81.5122,9.75952,-0.00557041,0.0396745,-0.00256946,0.03982,-0.00571586,-1.51425,0.0286427,0.025775,2001,974,81.5121,-9.75953
784,50,81.6968,10.6518,0.000874728,0.0484028,-0.00356531,0.0486688,0.000608766,-1.49634,0.0322449,0.041073,2008,974,81.6968,-10.6518
791,50,81.8342,11.5649,0,0,0,0,0,0,0,-1,2015,974,81.8343,-11.5649
798,50,81.5061,10.6417,0,0,0,0,0,0,0,-1,2022,974,81.5061,-10.6418
805,50,82.3203,10.5423,0,0,0,0,0,0,0,-1,2029,974,82.3203,-10.5423
812,50,0,0,0,0,0,0,0,0,0,-1,2036,974,0,0
-700,43,0,0,0,0,0,0,0,0,0,-1,524,981,0,0
-693,43,-66.3734,7.41064,0,0,0,0,0,0,0,-1,531,981,-66.3734,-7.41068
-686,43,-66.0093,8.38934,0,0,0,0,0,0,0,-1,538,981,-66.0093,-8.38937
-679,43,-65.9407,9.16077,0,0,0,0,0,0,0,-1,545,981,-65.9407,-9.16075
-672,43,-65.4492,9.65234,0,0,0,0,0,0,0,-1,552,981,-65.4492,-9.65233
-665,43,-62.4393,6.80096,0,0,0,0,0,0,0,-1,559,981,-62.4393,-6.80097
-658,43,-66.0907,9.55536,0,0,0,0,0,0,0,-1,566,981,-66.0907,-9.55535
-651,43,-66.0632,9.41058,-0.00670883,0.0544472,0.00847747,0.0556006,-0.00786223,1.43557,0.0399466,0.0449803,573,981,-66.0632,-9.4106
-644,43,-66.0183,9.28436,-0.00486873,0.0445344,0.00723412,0.0455719,-0.00590624,1.42835,0.0325293,0.0281234,580,981,-66.0183,-9.28439
-637,43,-66.2649,8.95569,-0.0046672,0.0346222,0.00630159,0.0356082,-0.00565316,1.41559,0.0258302,0.0200407,587,981,-66.2649,-8.95571
-630,43,-66.3378,8.67572,-0.00454187,0.0256179,0.0056892,0.0266554,-0.00557936,1.39042,0.0198926,0.0148255,594,981,-66.3379,-8.67574
-623,43,-66.3763,8.35577,-0.00437411,0.0177006,0.00507588,0.0188118,-0.00548532,1.35528,0.0147145,0.0137556,601,981,-66.3763,-8.35578
-616,43,-66.3833,7.97699,-0.004113,0.0118619,0.00453854,0.0130613,-0.00531237,1.31244,0.010918,0.0138265,608,981,-66.3833,-7.97699
-609,43,-66.3707,7.55011,-0.00385023,0.00776883,0.00414501,0.00909595,-0.00517735,1.26094,0.00834357,0.0149382,615,981,-66.3707,-7.55014
-602,43,-66.3437,7.17847,-0.00332929,0.00500369,0.00356717,0.00632211,-0.00464772,1.21677,0.00635798,0.0184166,622,981,-66.3437,-7.17848
-595,43,-66.5482,6.84332,-0.0025499,0.00308965,0.00309514,0.00445688,-0.00391713,1.15484,0.00483809,0.0224068,629,981,-66.5482,-6.84329
-588,43,-66.909,6.62476,0,0,0,0,0,0,0,-1,636,981,-66.909,-6.62477
-581,43,-66.4154,0.562988,0,0,0,0,0,0,0,-1,643,981,-66.4154,-0.562967
-574,43,-66.3783,0.422119,-0.00125999,0.000477327,0.000689793,0.000717894,-0.00150056,1.23523,0.00130712,0.0327951,650,981,-66.3783,-0.422091
-567,43,-66.3221,0.317139,-0.000807111,0.000620015,-0.000236937,0.000658324,-0.00084542,-1.4105,0.000870424,0.0430672,657,981,-66.3221,-0.317134
-560,43,-66.3121,1.01093,-0.000403879,0.00134231,-0.00137063,0.00209431,-0.00115588,-1.06899,0.00190239,0.0439481,664,981,-66.3121,-1.01091
-553,43,-66.3785,0.667542,-5.77583e-05,0.00256972,-0.002879,0.00442056,-0.0019086,-0.999446,0.00374885,0.0407534,671,981,-66.3785,-0.667527
-546,43,-66.3305,0.552917,0.000144601,0.00410966,-0.00494194,0.0074519,-0.00319764,-0.976153,0.00630993,0.0431116,678,981,-66.3305,-0.552943
-539,43,-66.1097,0.744751,-0.000325839,0.0055768,-0.0077889,0.0109548,-0.00570382,-0.966497,0.00977581,0.0469118,685,981,-66.1097,-0.744776
-532,43,-66.2621,0.679688,-0.0010411,0.00753643,-0.0112067,0.015247,-0.00875168,-0.968148,0.0140238,0.0469442,692,981,-66.2621,-0.679707
-525,43,-66.6266,0.49939,0,0,0,0,0,0,0,-1,699,981,-66.6267,-0.499378
-518,43,0,0,0,0,0,0,0,0,0,-1,706,981,0,0
-511,43,0,0,0,0,0,0,0,0,0,-1,713,981,0,0
-504,43,0,0,0,0,0,0,0,0,0,-1,720,981,0,0
-497,43,0,0,0,0,0,0,0,0,0,-1,727,981,0,0
-490,43,0,0,0,0,0,0,0,0,0,-1,734,981,0,0
-483,43,0,0,0,0,0,0,0,0,0,-1,741,981,0,0
-476,43,0,0,0,0,0,0,0,0,0,-1,748,981,0,0
-469,43,0,0,0,0,0,0,0,0,0,-1,755,981,0,0
-462,43,0,0,0,0,0,0,0,0,0,-1,762,981,0,0
-455,43,0,0,0,0,0,0,0,0,0,-1,769,981,0,0
-448,43,0,0,0,0,0,0,0,0,0,-1,776,981,0,0
-441,43,0,0,0,0,0,0,0,0,0,-1,783,981,0,0
-434,43,0,0,0,0,0,0,0,0,0,-1,790,981,0,0
-427,43,0,0,0,0,0,0,0,0,0,-1,797,981,0,0
-420,43,0,0,0,0,0,0,0,0,0,-1,804,981,0,0
-413,43,0,0,0,0,0,0,0,0,0,-1,811,981,0,0
-406,43,0,0,0,0,0,0,0,0,0,-1,818,981,0,0
-399,43,0,0,0,0,0,0,0,0,0,-1,825,981,0,0
-392,43,0,0,0,0,0,0,0,0,0,-1,832,981,0,0
-385,43,0,0,0,0,0,0,0,0,0,-1,839,981,0,0
-378,43,0,0,0,0,0,0,0,0,0,-1,846,981,0,0
-371,43,0,0,0,0,0,0,0,0,0,-1,853,981,0,0
-364,43,0,0,0,0,0,0,0,0,0,-1,860,981,0,0
-357,43,0,0,0,0,0,0,0,0,0,-1,867,981,0,0
-350,43,0,0,0,0,0,0,0,0,0,-1,874,981,0,0
-343,43,0,0,0,0,0,0,0,0,0,-1,881,981,0,0
-336,43,0,0,0,0,0,0,0,0,0,-1,888,981,0,0
-329,43,0,0,0,0,0,0,0,0,0,-1,895,981,0,0
-322,43,0,0,0,0,0,0,0,0,0,-1,902,981,0,0
-315,43,0,0,0,0,0,0,0,0,0,-1,909,981,0,0
-308,43,0,0,0,0,0,0,0,0,0,-1,916,981,0,0
-301,43,0,0,0,0,0,0,0,0,0,-1,923,981,0,0
-294,43,0,0,0,0,0,0,0,0,0,-1,930,981,0,0
-287,43,0,0,0,0,0,0,0,0,0,-1,937,981,0,0
-280,43,0,0,0,0,0,0,0,0,0,-1,944,981,0,0
-273,43,0,0,0,0,0,0,0,0,0,-1,951,981,0,0
-266,43,0,0,0,0,0,0,0,0,0,-1,958,981,0,0
-259,43,0,0,0,0,0,0,0,0,0,-1,965,981,0,0
-252,43,0,0,0,0,0,0,0,0,0,-1,972,981,0,0
-245,43,0,0,0,0,0,0,0,0,0,-1,979,981,0,0
-238,43,0,0,0,0,0,0,0,0,0,-1,986,981,0,0
-231,43,0,0,0,0,0,0,0,0,0,-1,993,981,0,0
-224,43,0,0,0,0,0,0,0,0,0,-1,1000,981,0,0
-217,43,0,0,0,0,0,0,0,0,0,-1,1007,981,0,0
-210,43,0,0,0,0,0,0,0,0,0,-1,1014,981,0,0
-203,43,0,0,0,0,0,0,0,0,0,-1,1021,981,0,0
-196,43,0,0,0,0,0,0,0,0,0,-1,1028,981,0,0
-189,43,0,0,0,0,0,0,0,0,0,-1,1035,981,0,0
-182,43,0,0,0,0,0,0,0,0,0,-1,1042,981,0,0
-175,43,0,0,0,0,0,0,0,0,0,-1,1049,981,0,0
-168,43,0,0,0,0,0,0,0,0,0,-1,1056,981,0,0
-161,43,0,0,0,0,0,0,0,0,0,-1,1063,981,0,0
-154,43,0,0,0,0,0,0,0,0,0,-1,1070,981,0,0
-147,43,0,0,0,0,0,0,0,0,0,-1,1077,981,0,0
-140,43,0,0,0,0,0,0,0,0,0,-1,1084,981,0,0
-133,43,0,0,0,0,0,0,0,0,0,-1,1091,981,0,0
-126,43,0,0,0,0,0,0,0,0,0,-1,1098,981,0,0
-119,43,0,0,0,0,0,0,0,0,0,-1,1105,981,0,0
-112,43,0,0,0,0,0,0,0,0,0,-1,1112,981,0,0
-105,43,0,0,0,0,0,0,0,0,0,-1,1119,981,0,0
-98,43,0,0,0,0,0,0,0,0,0,-1,1126,981,0,0
-91,43,0,0,0,0,0,0,0,0,0,-1,1133,981,0,0
-84,43,0,0,0,0,0,0,0,0,0,-1,1140,981,0,0
-77,43,0,0,0,0,0,0,0,0,0,-1,1147,981,0,0
-70,43,0,0,0,0,0,0,0,0,0,-1,1154,981,0,0
-63,43,0,0,0,0,0,0,0,0,0,-1,1161,981,0,0
-56,43,0,0,0,0,0,0,0,0,0,-1,1168,981,0,0
-49,43,0,0,0,0,0,0,0,0,0,-1,1175,981,0,0
-42,43,0,0,0,0,0,0,0,0,0,-1,1182,981,0,0
-35,43,0,0,0,0,0,0,0,0,0,-1,1189,981,0,0
-28,43,0,0,0,0,0,0,0,0,0,-1,1196,981,0,0
-21,43,0,0,0,0,0,0,0,0,0,-1,1203,981,0,0
-14,43,0,0,0,0,0,0,0,0,0,-1,1210,981,0,0
-7,43,0,0,0,0,0,0,0,0,0,-1,1217,981,0,0
0,43,0,0,0,0,0,0,0,0,0,-1,1224,981,0,0
7,43,0,0,0,0,0,0,0,0,0,-1,1231,981,0,0
14,43,0,0,0,0,0,0,0,0,0,-1,1238,981,0,0
21,43,0,0,0,0,0,0,0,0,0,-1,1245,981,0,0
28,43,0,0,0,0,0,0,0,0,0,-1,1252,981,0,0
35,43,0,0,0,0,0,0,0,0,0,-1,1259,981,0,0
42,43,0,0,0,0,0,0,0,0,0,-1,1266,981,0,0
49,43,0,0,0,0,0,0,0,0,0,-1,1273,981,0,0
56,43,0,0,0,0,0,0,0,0,0,-1,1280,981,0,0
63,43,0,0,0,0,0,0,0,0,0,-1,1287,981,0,0
70,43,0,0,0,0,0,0,0,0,0,-1,1294,981,0,0
77,43,0,0,0,0,0,0,0,0,0,-1,1301,981,0,0
84,43,0,0,0,0,0,0,0,0,0,-1,1308,981,0,0
91,43,0,0,0,0,0,0,0,0,0,-1,1315,981,0,0
98,43,0,0,0,0,0,0,0,0,0,-1,1322,981,0,0
105,43,0,0,0,0,0,0,0,0,0,-1,1329,981,0,0
112,43,0,0,0,0,0,0,0,0,0,-1,1336,981,0,0
119,43,0,0,0,0,0,0,0,0,0,-1,1343,981,0,0
126,43,0,0,0,0,0,0,0,0,0,-1,1350,981,0,0
133,43,0,0,0,0,0,0,0,0,0,-1,1357,981,0,0
140,43,0,0,0,0,0,0,0,0,0,-1,1364,981,0,0
147,43,0,0,0,0,0,0,0,0,0,-1,1371,981,0,0
154,43,0,0,0,0,0,0,0,0,0,-1,1378,981,0,0
161,43,0,0,0,0,0,0,0,0,0,-1,1385,981,0,0
168,43,0,0,0,0,0,0,0,0,0,-1,1392,981,0,0
175,43,0,0,0,0,0,0,0,0,0,-1,1399,981,0,0
182,43,0,0,0,0,0,0,0,0,0,-1,1406,981,0,0
189,43,0,0,0,0,0,0,0,0,0,-1,1413,981,0,0
196,43,0,0,0,0,0,0,0,0,0,-1,1420,981,0,0
203,43,0,0,0,0,0,0,0,0,0,-1,1427,981,0,0
210,43,0,0,0,0,0,0,0,0,0,-1,1434,981,0,0
217,43,0,0,0,0,0,0,0,0,0,-1,1441,981,0,0
224,43,0,0,0,0,0,0,0,0,0,-1,1448,981,0,0
231,43,0,0,0,0,0,0,0,0,0,-1,1455,981,0,0
238,43,0,0,0,0,0,0,0,0,0,-1,1462,981,0,0
245,43,0,0,0,0,0,0,0,0,0,-1,1469,981,0,0
252,43,0,0,0,0,0,0,0,0,0,-1,1476,981,0,0
259,43,0,0,0,0,0,0,0,0,0,-1,1483,981,0,0
266,43,0,0,0,0,0,0,0,0,0,-1,1490,981,0,0
273,43,0,0,0,0,0,0,0,0,0,-1,1497,981,0,0
280,43,0,0,0,0,0,0,0,0,0,-1,1504,981,0,0
287,43,0,0,0,0,0,0,0,0,0,-1,1511,981,0,0
294,43,0,0,0,0,0,0,0,0,0,-1,1518,981,0,0
301,43,0,0,0,0,0,0,0,0,0,-1,1525,981,0,0
308,43,0,0,0,0,0,0,0,0,0,-1,1532,981,0,0
315,43,0,0,0,0,0,0,0,0,0,-1,1539,981,0,0
322,43,0,0,0,0,0,0,0,0,0,-1,1546,981,0,0
329,43,0,0,0,0,0,0,0,0,0,-1,1553,981,0,0
336,43,0,0,0,0,0,0,0,0,0,-1,1560,981,0,0
343,43,0,0,0,0,0,0,0,0,0,-1,1567,981,0,0
350,43,0,0,0,0,0,0,0,0,0,-1,1574,981,0,0
357,43,0,0,0,0,0,0,0,0,0,-1,1581,981,0,0
364,43,0,0,0,0,0,0,0,0,0,-1,1588,981,0,0
371,43,0,0,0,0,0,0,0,0,0,-1,1595,981,0,0
378,43,0,0,0,0,0,0,0,0,0,-1,1602,981,0,0
385,43,0,0,0,0,0,0,0,0,0,-1,1609,981,0,0
392,43,0,0,0,0,0,0,0,0,0,-1,1616,981,0,0
399,43,0,0,0,0,0,0,0,0,0,-1,1623,981,0,0
406,43,0,0,0,0,0,0,0,0,0,-1,1630,981,0,0
413,43,0,0,0,0,0,0,0,0,0,-1,1637,981,0,0
420,43,0,0,0,0,0,0,0,0,0,-1,1644,981,0,0
427,43,0,0,0,0,0,0,0,0,0,-1,1651,981,0,0
434,43,0,0,0,0,0,0,0,0,0,-1,1658,981,0,0
441,43,0,0,0,0,0,0,0,0,0,-1,1665,981,0,0
448,43,0,0,0,0,0,0,0,0,0,-1,1672,981,0,0
455,43,0,0,0,0,0,0,0,0,0,-1,1679,981,0,0
462,43,0,0,0,0,0,0,0,0,0,-1,1686,981,0,0
469,43,0,0,0,0,0,0,0,0,0,-1,1693,981,0,0
476,43,0,0,0,0,0,0,0,0,0,-1,1700,981,0,0
483,43,0,0,0,0,0,0,0,0,0,-1,1707,981,0,0
490,43,0,0,0,0,0,0,0,0,0,-1,1714,981,0,0
497,43,0,0,0,0,0,0,0,0,0,-1,1721,981,0,0
504,43,0,0,0,0,0,0,0,0,0,-1,1728,981,0,0
511,43,0,0,0,0,0,0,0,0,0,-1,1735,981,0,0
518,43,0,0,0,0,0,0,0,0,0,-1,1742,981,0,0
525,43,0,0,0,0,0,0,0,0,0,-1,1749,981,0,0
532,43,0,0,0,0,0,0,0,0,0,-1,1756,981,0,0
539,43,0,0,0,0,0,0,0,0,0,-1,1763,981,0,0
546,43,0,0,0,0,0,0,0,0,0,-1,1770,981,0,0
553,43,0,0,0,0,0,0,0,0,0,-1,1777,981,0,0
560,43,0,0,0,0,0,0,0,0,0,-1,1784,981,0,0
567,43,0,0,0,0,0,0,0,0,0,-1,1791,981,0,0
574,43,0,0,0,0,0,0,0,0,0,-1,1798,981,0,0
581,43,0,0,0,0,0,0,0,0,0,-1,1805,981,0,0
588,43,0,0,0,0,0,0,0,0,0,-1,1812,981,0,0
595,43,0,0,0,0,0,0,0,0,0,-1,1819,981,0,0
602,43,0,0,0,0,0,0,0,0,0,-1,1826,981,0,0
609,43,0,0,0,0,0,0,0,0,0,-1,1833,981,0,0
616,43,0,0,0,0,0,0,0,0,0,-1,1840,981,0,0
623,43,0,0,0,0,0,0,0,0,0,-1,1847,981,0,0
630,43,0,0,0,0,0,0,0,0,0,-1,1854,981,0,0
637,43,0,0,0,0,0,0,0,0,0,-1,1861,981,0,0
644,43,83.1182,2.5376,0.0043633,0.00197205,-0.00166359,0.00521635,0.00111901,-0.473814,0.00317107,0.037664,1868,981,83.1182,-2.5376
651,43,83.1335,2.35022,0.00398357,0.00156562,-0.00101134,0.0043508,0.00119839,-0.348309,0.002595,0.0383473,1875,981,83.1336,-2.35019
658,43,83.3047,2.22882,0.00344537,0.00122544,-0.00042013,0.00352222,0.00114859,-0.180921,0.00207415,0.0381977,1882,981,83.3047,-2.22882
665,43,83.5197,2.10773,0.00281639,0.000985504,4.24097e-05,0.00281737,0.000984522,0.023147,0.001651,0.041551,1889,981,83.5196,-2.1077
672,43,83.4547,2.17694,0.00197701,0.000722588,0.000468175,0.00213247,0.000567122,0.32061,0.00127536,0.0413403,1896,981,83.4548,-2.17693
679,43,83.2463,2.31769,0.00119394,0.00025523,0.000901472,0.00174092,-0.000291754,0.545382,0.0012691,0.0410045,1903,981,83.2463,-2.31768
686,43,83.1787,2.32324,0.00061802,-0.000343737,0.00105869,0.00129993,-0.00102564,0.572219,0.00134578,0.0412263,1910,981,83.1787,-2.32325
693,43,83.2161,2.28149,-3.89373e-05,-0.000774433,0.00101071,0.000668853,-0.00148222,0.610919,0.00127117,0.0368504,1917,981,83.216,-2.2815
700,43,83.217,2.29956,-0.000775328,-0.000878207,0.000787403,-3.76861e-05,-0.00161585,0.752781,0.00106489,0.0332077,1924,981,83.217,-2.29959
707,43,83.2854,2.30157,-0.00166089,-0.000459407,0.000388076,-0.000344961,-0.00177533,1.28402,0.00108697,0.0317813,1931,981,83.2854,-2.30158
714,43,83.1924,2.37677,0,0,0,0,0,0,0,-1,1938,981,83.1923,-2.37676
721,43,82.4355,6.57678,0,0,0,0,0,0,0,-1,1945,981,82.4355,-6.57679
728,43,82.514,7.02411,-0.00585536,0.00403921,-0.000791232,0.00410208,-0.00591823,-1.4915,0.00581682,0.020374,1952,981,82.514,-7.02413
735,43,82.5848,7.47894,-0.00688659,0.00624936,-0.000928794,0.0063147,-0.00695193,-1.50056,0.00766244,0.015913,1959,981,82.5848,-7.47897
742,43,82.5034,7.88525,-0.00847152,0.00879862,-0.00118294,0.00887927,-0.00855217,-1.50272,0.0100646,0.0180228,1966,981,82.5034,-7.88525
749,43,82.4219,8.23718,-0.00958998,0.0124601,-0.00204749,0.0126486,-0.00977849,-1.47899,0.0129836,0.0206246,1973,981,82.4219,-8.23719
756,43,82.3855,8.56427,-0.0102727,0.0174767,-0.00304709,0.0178073,-0.0106033,-1.4627,0.0165777,0.0250269,1980,981,82.3855,-8.56424
763,43,82.2998,8.84613,-0.00974372,0.0244418,-0.00454516,0.0250358,-0.0103377,-1.44085,0.0210024,0.0281673,1987,981,82.2998,-8.84613
770,43,82.145,9.2522,-0.00750987,0.0327772,-0.00645593,0.0337865,-0.00851914,-1.41572,0.0258365,0.0227119,1994,981,82.145,-9.25219
777,43,82.157,9.64038,-0.00282501,0.0416736,-0.00967145,0.0436848,-0.00483614,-1.36577,0.0308618,0.0264033,2001,981,82.157,-9.64039
784,43,82.2703,10.7732,0.00682106,0.0513839,-0.0152823,0.0561211,0.0020838,-1.2702,0.0367392,0.0404655,2008,981,82.2702,-10.7732
791,43,82.3918,11.933,0,0,0,0,0,0,0,-1,2015,981,82.3918,-11.933
798,43,82.7722,12.9906,0,0,0,0,0,0,0,-1,2022,981,82.7722,-12.9906
805,43,82.467,10.5549,0,0,0,0,0,0,0,-1,2029,981,82.467,-10.5548
812,43,84.0735,14.22,0,0,0,0,0,0,0,-1,2036,981,84.0734,-14.2199
-700,36,0,0,0,0,0,0,0,0,0,-1,524,988,0,0
-693,36,-65.3615,6.21539,0,0,0,0,0,0,0,-1,531,988,-65.3615,-6.21541
-686,36,-65.0446,6.88306,0,0,0,0,0,0,0,-1,538,988,-65.0446,-6.88304
-679,36,-65.1032,8.02161,0,0,0,0,0,0,0,-1,545,988,-65.1032,-8.02159
-672,36,-64.6888,8.62866,0,0,0,0,0,0,0,-1,552,988,-64.6889,-8.62865
-665,36,-64.0911,10.0649,0,0,0,0,0,0,0,-1,559,988,-64.0911,-10.0649
-658,36,-66.0932,9.19043,0,0,0,0,0,0,0,-1,566,988,-66.0932,-9.19041
-651,36,-66.3179,9.03802,-0.0119629,0.0545639,0.00854244,0.0556433,-0.0130423,1.44511,0.0421215,0.0478068,573,988,-66.3179,-9.03802
-644,36,-66.502,8.8949,-0.00870011,0.0445751,0.00710674,0.0455068,-0.00963183,1.44044,0.0340062,0.0318062,580,988,-66.5019,-8.89488
-637,36,-66.698,8.70911,-0.00769585,0.0345451,0.00605017,0.0353946,-0.00854533,1.4313,0.0269011,0.0232278,587,988,-66.698,-8.70911
-630,36,-66.7484,8.53339,-0.00685989,0.0253516,0.00533784,0.0262131,-0.00772139,1.41078,0.0205388,0.0167652,594,988,-66.7483,-8.53341
-623,36,-66.8124,8.24756,-0.00611905,0.0174541,0.00465149,0.0183388,-0.00700369,1.38286,0.0151114,0.0151426,601,988,-66.8124,-8.24755
-616,36,-66.8146,7.97498,-0.00546166,0.0117404,0.00406701,0.0126535,-0.00637474,1.34995,0.0111835,0.0131589,608,988,-66.8146,-7.975
-609,36,-66.6898,7.69049,-0.00489586,0.00778411,0.00365075,0.0087601,-0.00587184,1.30957,0.00850244,0.0193954,615,988,-66.6898,-7.69051
-602,36,-66.7689,7.29114,-0.00412643,0.00511489,0.00306561,0.00603936,-0.00505091,1.27791,0.00641144,0.0236033,622,988,-66.7689,-7.29111
-595,36,-67.121,6.89374,-0.00317427,0.00323229,0.00257665,0.00413999,-0.00408197,1.23209,0.00474699,0.029452,629,988,-67.121,-6.89374
-588,36,-67.4592,6.65802,0,0,0,0,0,0,0,-1,636,988,-67.4592,-6.65801
-581,36,-66.3644,0.620728,0,0,0,0,0,0,0,-1,643,988,-66.3644,-0.620722
-574,36,-66.3563,0.486023,-0.00140082,0.000707624,0.000330117,0.000758102,-0.00145129,1.41906,0.00129635,0.0306379,650,988,-66.3563,-0.485996
-567,36,-66.3542,0.355042,-0.000870154,0.000944298,-0.000533913,0.00108975,-0.0010156,-1.30483,0.00121577,0.0383948,657,988,-66.3542,-0.355066
-560,36,-66.3111,0.431702,-0.000370163,0.00177132,-0.00160098,0.00262662,-0.00122546,-1.08014,0.00227251,0.0427783,664,988,-66.3111,-0.431706
-553,36,-66.3696,0.329102,4.87901e-05,0.00309481,-0.0030432,0.00497483,-0.00183123,-1.01741,0.0040668,0.0432599,671,988,-66.3696,-0.32908
-546,36,-66.1972,0.236633,0.000249258,0.00466353,-0.00502781,0.00794732,-0.00303453,-0.992226,0.00654844,0.0450222,678,988,-66.1972,-0.236603
-539,36,-65.8636,0.415283,-0.000377195,0.00606072,-0.00773646,0.0112212,-0.00553765,-0.982542,0.00985944,0.046754,685,988,-65.8636,-0.415292
-532,36,-65.9983,0.426514,-0.00111873,0.00796941,-0.0109129,0.0152465,-0.00839584,-0.982677,0.0138396,0.0465976,692,988,-65.9983,-0.426493
-525,36,-66.3315,0.148682,-0.00227157,0.0104545,-0.0149621,0.0203504,-0.0121675,-0.986451,0.0189713,0.047429,699,988,-66.3315,-0.148665
-518,36,0,0,0,0,0,0,0,0,0,-1,706,988,0,0
-511,36,0,0,0,0,0,0,0,0,0,-1,713,988,0,0
-504,36,0,0,0,0,0,0,0,0,0,-1,720,988,0,0
-497,36,0,0,0,0,0,0,0,0,0,-1,727,988,0,0
-490,36,0,0,0,0,0,0,0,0,0,-1,734,988,0,0
-483,36,0,0,0,0,0,0,0,0,0,-1,741,988,0,0
-476,36,0,0,0,0,0,0,0,0,0,-1,748,988,0,0
-469,36,0,0,0,0,0,0,0,0,0,-1,755,988,0,0
-462,36,0,0,0,0,0,0,0,0,0,-1,762,988,0,0
-455,36,0,0,0,0,0,0,0,0,0,-1,769,988,0,0
-448,36,0,0,0,0,0,0,0,0,0,-1,776,988,0,0
-441,36,0,0,0,0,0,0,0,0,0,-1,783,988,0,0
-434,36,0,0,0,0,0,0,0,0,0,-1,790,988,0,0
-427,36,0,0,0,0,0,0,0,0,0,-1,797,988,0,0
-420,36,0,0,0,0,0,0,0,0,0,-1,804,988,0,0
-413,36,0,0,0,0,0,0,0,0,0,-1,811,988,0,0
-406,36,0,0,0,0,0,0,0,0,0,-1,818,988,0,0
-399,36,0,0,0,0,0,0,0,0,0,-1,825,988,0,0
-392,36,0,0,0,0,0,0,0,0,0,-1,832,988,0,0
-385,36,0,0,0,0,0,0,0,0,0,-1,839,988,0,0
-378,36,0,0,0,0,0,0,0,0,0,-1,846,988,0,0
-371,36,0,0,0,0,0,0,0,0,0,-1,853,988,0,0
-364,36,0,0,0,0,0,0,0,0,0,-1,860,988,0,0
-357,36,0,0,0,0,0,0,0,0,0,-1,867,988,0,0
-350,36,0,0,0,0,0,0,0,0,0,-1,874,988,0,0
-343,36,0,0,0,0,0,0,0,0,0,-1,881,988,0,0
-336,36,0,0,0,0,0,0,0,0,0,-1,888,988,0,0
-329,36,0,0,0,0,0,0,0,0,0,-1,895,988,0,0
-322,36,0,0,0,0,0,0,0,0,0,-1,902,988,0,0
-315,36,0,0,0,0,0,0,0,0,0,-1,909,988,0,0
-308,36,0,0,0,0,0,0,0,0,0,-1,916,988,0,0
-301,36,0,0,0,0,0,0,0,0,0,-1,923,988,0,0
-294,36,0,0,0,0,0,0,0,0,0,-1,930,988,0,0
-287,36,0,0,0,0,0,0,0,0,0,-1,937,988,0,0
-280,36,0,0,0,0,0,0,0,0,0,-1,944,988,0,0
-273,36,0,0,0,0,0,0,0,0,0,-1,951,988,0,0
-266,36,0,0,0,0,0,0,0,0,0,-1,958,988,0,0
-259,36,0,0,0,0,0,0,0,0,0,-1,965,988,0,0
-252,36,0,0,0,0,0,0,0,0,0,-1,972,988,0,0
-245,36,0,0,0,0,0,0,0,0,0,-1,979,988,0,0
-238,36,0,0,0,0,0,0,0,0,0,-1,986,988,0,0
-231,36,0,0,0,0,0,0,0,0,0,-1,993,988,0,0
-224,36,0,0,0,0,0,0,0,0,0,-1,1000,988,0,0
-217,36,0,0,0,0,0,0,0,0,0,-1,1007,988,0,0
-210,36,0,0,0,0,0,0,0,0,0,-1,1014,988,0,0
-203,36,0,0,0,0,0,0,0,0,0,-1,1021,988,0,0
-196,36,0,0,0,0,0,0,0,0,0,-1,1028,988,0,0
-189,36,0,0,0,0,0,0,0,0,0,-1,1035,988,0,0
-182,36,0,0,0,0,0,0,0,0,0,-1,1042,988,0,0
-175,36,0,0,0,0,0,0,0,0,0,-1,1049,988,0,0
-168,36,0,0,0,0,0,0,0,0,0,-1,1056,988,0,0
-161,36,0,0,0,0,0,0,0,0,0,-1,1063,988,0,0
-154,36,0,0,0,0,0,0,0,0,0,-1,1070,988,0,0
-147,36,0,0,0,0,0,0,0,0,0,-1,1077,988,0,0
-140,36,0,0,0,0,0,0,0,0,0,-1,1084,988,0,0
-133,36,0,0,0,0,0,0,0,0,0,-1,1091,988,0,0
-126,36,0,0,0,0,0,0,0,0,0,-1,1098,988,0,0
-119,36,0,0,0,0,0,0,0,0,0,-1,1105,988,0,0
-112,36,0,0,0,0,0,0,0,0,0,-1,1112,988,0,0
-105,36,0,0,0,0,0,0,0,0,0,-1,1119,988,0,0
-98,36,0,0,0,0,0,0,0,0,0,-1,1126,988,0,0
-91,36,0,0,0,0,0,0,0,0,0,-1,1133,988,0,0
-84,36,0,0,0,0,0,0,0,0,0,-1,1140,988,0,0
-77,36,0,0,0,0,0,0,0,0,0,-1,1147,988,0,0
-70,36,0,0,0,0,0,0,0,0,0,-1,1154,988,0,0
-63,36,0,0,0,0,0,0,0,0,0,-1,1161,988,0,0
-56,36,0,0,0,0,0,0,0,0,0,-1,1168,988,0,0
-49,36,0,0,0,0,0,0,0,0,0,-1,1175,988,0,0
-42,36,0,0,0,0,0,0,0,0,0,-1,1182,988,0,0
-35,36,0,0,0,0,0,0,0,0,0,-1,1189,988,0,0
-28,36,0,0,0,0,0,0,0,0,0,-1,1196,988,0,0
-21,36,0,0,0,0,0,0,0,0,0,-1,1203,988,0,0
-14,36,0,0,0,0,0,0,0,0,0,-1,1210,988,0,0
-7,36,0,0,0,0,0,0,0,0,0,-1,1217,988,0,0
0,36,0,0,0,0,0,0,0,0,0,-1,1224,988,0,0
7,36,0,0,0,0,0,0,0,0,0,-1,1231,988,0,0
14,36,0,0,0,0,0,0,0,0,0,-1,1238,988,0,0
21,36,0,0,0,0,0,0,0,0,0,-1,1245,988,0,0
28,36,0,0,0,0,0,0,0,0,0,-1,1252,988,0,0
35,36,0,0,0,0,0,0,0,0,0,-1,1259,988,0,0
42,36,0,0,0,0,0,0,0,0,0,-1,1266,988,0,0
49,36,0,0,0,0,0,0,0,0,0,-1,1273,988,0,0
56,36,0,0,0,0,0,0,0,0,0,-1,1280,988,0,0
63,36,0,0,0,0,0,0,0,0,0,-1,1287,988,0,0
70,36,0,0,0,0,0,0,0,0,0,-1,1294,988,0,0
77,36,0,0,0,0,0,0,0,0,0,-1,1301,988,0,0
84,36,0,0,0,0,0,0,0,0,0,-1,1308,988,0,0
91,36,0,0,0,0,0,0,0,0,0,-1,1315,988,0,0
98,36,0,0,0,0,0,0,0,0,0,-1,1322,988,0,0
105,36,0,0,0,0,0,0,0,0,0,-1,1329,988,0,0
112,36,0,0,0,0,0,0,0,0,0,-1,1336,988,0,0
119,36,0,0,0,0,0,0,0,0,0,-1,1343,988,0,0
126,36,0,0,0,0,0,0,0,0,0,-1,1350,988,0,0
133,36,0,0,0,0,0,0,0,0,0,-1,1357,988,0,0
140,36,0,0,0,0,0,0,0,0,0,-1,1364,988,0,0
147,36,0,0,0,0,0,0,0,0,0,-1,1371,988,0,0
154,36,0,0,0,0,0,0,0,0,0,-1,1378,988,0,0
161,36,0,0,0,0,0,0,0,0,0,-1,1385,988,0,0
168,36,0,0,0,0,0,0,0,0,0,-1,1392,988,0,0
175,36,0,0,0,0,0,0,0,0,0,-1,1399,988,0,0
182,36,0,0,0,0,0,0,0,0,0,-1,1406,988,0,0
189,36,0,0,0,0,0,0,0,0,0,-1,1413,988,0,0
196,36,0,0,0,0,0,0,0,0,0,-1,1420,988,0,0
203,36,0,0,0,0,0,0,0,0,0,-1,1427,988,0,0
210,36,0,0,0,0,0,0,0,0,0,-1,1434,988,0,0
217,36,0,0,0,0,0,0,0,0,0,-1,1441,988,0,0
224,36,0,0,0,0,0,0,0,0,0,-1,1448,988,0,0
231,36,0,0,0,0,0,0,0,0,0,-1,1455,988,0,0
238,36,0,0,0,0,0,0,0,0,0,-1,1462,988,0,0
245,36,0,0,0,0,0,0,0,0,0,-1,1469,988,0,0
252,36,0,0,0,0,0,0,0,0,0,-1,1476,988,0,0
259,36,0,0,0,0,0,0,0,0,0,-1,1483,988,0,0
266,36,0,0,0,0,0,0,0,0,0,-1,1490,988,0,0
273,36,0,0,0,0,0,0,0,0,0,-1,1497,988,0,0
280,36,0,0,0,0,0,0,0,0,0,-1,1504,988,0,0
287,36,0,0,0,0,0,0,0,0,0,-1,1511,988,0,0
294,36,0,0,0,0,0,0,0,0,0,-1,1518,988,0,0
301,36,0,0,0,0,0,0,0,0,0,-1,1525,988,0,0
308,36,0,0,0,0,0,0,0,0,0,-1,1532,988,0,0
315,36,0,0,0,0,0,0,0,0,0,-1,1539,988,0,0
322,36,0,0,0,0,0,0,0,0,0,-1,1546,988,0,0
329,36,0,0,0,0,0,0,0,0,0,-1,1553,988,0,0
336,36,0,0,0,0,0,0,0,0,0,-1,1560,988,0,0
343,36,0,0,0,0,0,0,0,0,0,-1,1567,988,0,0
350,36,0,0,0,0,0,0,0,0,0,-1,1574,988,0,0
357,36,0,0,0,0,0,0,0,0,0,-1,1581,988,0,0
364,36,0,0,0,0,0,0,0,0,0,-1,1588,988,0,0
371,36,0,0,0,0,0,0,0,0,0,-1,1595,988,0,0
378,36,0,0,0,0,0,0,0,0,0,-1,1602,988,0,0
385,36,0,0,0,0,0,0,0,0,0,-1,1609,988,0,0
392,36,0,0,0,0,0,0,0,0,0,-1,1616,988,0,0
399,36,0,0,0,0,0,0,0,0,0,-1,1623,988,0,0
406,36,0,0,0,0,0,0,0,0,0,-1,1630,988,0,0
413,36,0,0,0,0,0,0,0,0,0,-1,1637,988,0,0
420,36,0,0,0,0,0,0,0,0,0,-1,1644,988,0,0
427,36,0,0,0,0,0,0,0,0,0,-1,1651,988,0,0
434,36,0,0,0,0,0,0,0,0,0,-1,1658,988,0,0
441,36,0,0,0,0,0,0,0,0,0,-1,1665,988,0,0
448,36,0,0,0,0,0,0,0,0,0,-1,1672,988,0,0
455,36,0,0,0,0,0,0,0,0,0,-1,1679,988,0,0
462,36,0,0,0,0,0,0,0,0,0,-1,1686,988,0,0
469,36,0,0,0,0,0,0,0,0,0,-1,1693,988,0,0
476,36,0,0,0,0,0,0,0,0,0,-1,1700,988,0,0
483,36,0,0,0,0,0,0,0,0,0,-1,1707,988,0,0
490,36,0,0,0,0,0,0,0,0,0,-1,1714,988,0,0
497,36,0,0,0,0,0,0,0,0,0,-1,1721,988,0,0
504,36,0,0,0,0,0,0,0,0,0,-1,1728,988,0,0
511,36,0,0,0,0,0,0,0,0,0,-1,1735,988,0,0
518,36,0,0,0,0,0,0,0,0,0,-1,1742,988,0,0
525,36,0,0,0,0,0,0,0,0,0,-1,1749,988,0,0
532,36,0,0,0,0,0,0,0,0,0,-1,1756,988,0,0
539,36,0,0,0,0,0,0,0,0,0,-1,1763,988,0,0
546,36,0,0,0,0,0,0,0,0,0,-1,1770,988,0,0
553,36,0,0,0,0,0,0,0,0,0,-1,1777,988,0,0
560,36,0,0,0,0,0,0,0,0,0,-1,1784,988,0,0
567,36,0,0,0,0,0,0,0,0,0,-1,1791,988,0,0
574,36,0,0,0,0,0,0,0,0,0,-1,1798,988,0,0
581,36,0,0,0,0,0,0,0,0,0,-1,1805,988,0,0
588,36,0,0,0,0,0,0,0,0,0,-1,1812,988,0,0
595,36,0,0,0,0,0,0,0,0,0,-1,1819,988,0,0
602,36,0,0,0,0,0,0,0,0,0,-1,1826,988,0,0
609,36,0,0,0,0,0,0,0,0,0,-1,1833,988,0,0
616,36,0,0,0,0,0,0,0,0,0,-1,1840,988,0,0
623,36,0,0,0,0,0,0,0,0,0,-1,1847,988,0,0
630,36,0,0,0,0,0,0,0,0,0,-1,1854,988,0,0
637,36,0,0,0,0,0,0,0,0,0,-1,1861,988,0,0
644,36,83.1299,2.54633,0.00563129,0.00224626,-0.00153364,0.00622277,0.00165478,-0.368096,0.00372164,0.0402269,1868,988,83.1299,-2.54632
651,36,83.1289,2.58911,0.00478276,0.00171511,-0.00085107,0.00500305,0.00149482,-0.253287,0.00296546,0.0424586,1875,988,83.1289,-2.58911
658,36,83.141,2.58453,0,0,0,0,0,0,0,-1,1882,988,83.141,-2.58454
665,36,83.1923,2.35419,0.00306873,0.000963574,0.000138247,0.00307777,0.000954534,0.065297,0.00181915,0.0375157,1889,988,83.1922,-2.35419
672,36,83.3184,2.44476,0.00211225,0.000679265,0.000513158,0.00227706,0.000514456,0.310761,0.00137892,0.0379862,1896,988,83.3184,-2.44475
679,36,83.1771,2.53577,0.00129726,0.000257071,0.000900551,0.00181712,-0.000262781,0.523531,0.00130783,0.0401737,1903,988,83.1771,-2.53577
686,36,83.113,2.36621,0.000713875,-0.000304459,0.00107154,0.00139107,-0.00098165,0.563603,0.00137667,0.0388466,1910,988,83.1131,-2.3662
693,36,83.2546,2.24738,8.62904e-05,-0.000729486,0.00105788,0.000812196,-0.00145539,0.601395,0.00132663,0.0392481,1917,988,83.2546,-2.24736
700,36,83.2902,2.32666,-0.000593738,-0.000871799,0.000867231,0.000145536,-0.00161107,0.705917,0.0011257,0.0394201,1924,988,83.2901,-2.32669
707,36,83.3005,2.34692,-0.00146591,-0.000391797,0.000497203,-0.000196979,-0.00166073,1.19735,0.00104768,0.0332827,1931,988,83.3005,-2.3469
714,36,83.2322,2.32739,0,0,0,0,0,0,0,-1,1938,988,83.2322,-2.32736
721,36,82.5953,6.71899,0,0,0,0,0,0,0,-1,1945,988,82.5954,-6.719
728,36,82.736,7.14917,-0.00610187,0.00455767,-0.000696401,0.00460297,-0.00614717,-1.50583,0.00622791,0.0263392,1952,988,82.736,-7.14918
735,36,82.8727,7.56866,-0.00727609,0.00686096,-0.000771015,0.00690289,-0.00731802,-1.51647,0.00821161,0.0208392,1959,988,82.8727,-7.56867
742,36,82.7908,7.84265,-0.00904976,0.00941507,-0.0010249,0.00947178,-0.00910648,-1.51552,0.0107269,0.0175427,1966,988,82.7907,-7.84262
749,36,82.7354,8.19647,-0.00997295,0.0132149,-0.00240292,0.0134613,-0.0102193,-1.46861,0.0137146,0.019413,1973,988,82.7353,-8.19649
756,36,82.7227,8.52887,-0.0103442,0.0181643,-0.00409633,0.0187413,-0.0109212,-1.43088,0.0173228,0.0188877,1980,988,82.7228,-8.52884
763,36,82.5779,8.73761,-0.0091359,0.0250078,-0.00680606,0.0263145,-0.0104426,-1.38112,0.0218713,0.0218822,1987,988,82.578,-8.73762
770,36,82.4937,9.04272,-0.00573573,0.0337044,-0.0105152,0.0363327,-0.00836404,-1.32586,0.0274381,0.0179536,1994,988,82.4937,-9.04272
777,36,82.5237,9.48065,0.000950454,0.0430993,-0.0161965,0.0486042,-0.00455442,-1.24317,0.0340227,0.0258516,2001,988,82.5238,-9.48068
784,36,82.3379,9.98981,0.0131396,0.0532747,-0.02509,0.0653352,0.00107907,-1.12271,0.0432016,0.0458057,2008,988,82.3379,-9.9898
791,36,82.1575,10.4812,0,0,0,0,0,0,0,-1,2015,988,82.1574,-10.4812
798,36,82.2175,10.0622,0,0,0,0,0,0,0,-1,2022,988,82.2176,-10.0622
805,36,82.9651,10.1321,0,0,0,0,0,0,0,-1,2029,988,82.9652,-10.1321
812,36,80.2622,5.14569,0,0,0,0,0,0,0,-1,2036,988,80.2621,-5.1457
-700,29,0,0,0,0,0,0,0,0,0,-1,524,995,0,0
-693,29,-64.8631,5.34387,0,0,0,0,0,0,0,-1,531,995,-64.8631,-5.34387
-686,29,-64.47,6.00818,0,0,0,0,0,0,0,-1,538,995,-64.47,-6.00819
-679,29,-64.2502,6.92328,0,0,0,0,0,0,0,-1,545,995,-64.2502,-6.92329
-672,29,-63.8424,7.54297,0,0,0,0,0,0,0,-1,552,995,-63.8424,-7.543
-665,29,-63.3135,8.70117,0,0,0,0,0,0,0,-1,559,995,-63.3135,-8.70119
-658,29,-62.6463,9.41785,0,0,0,0,0,0,0,-1,566,995,-62.6463,-9.41787
-651,29,-66.3068,8.30603,0,0,0,0,0,0,0,-1,573,995,-66.3068,-8.30604
-644,29,-66.7308,8.4361,-0.0120788,0.044515,0.00662698,0.0452806,-0.0128444,1.45577,0.0352573,0.0496102,580,995,-66.7308,-8.4361
-637,29,-67.0139,8.47375,-0.0103845,0.0343923,0.00552432,0.0350638,-0.011056,1.44984,0.0278038,0.0288194,587,995,-67.0139,-8.47377
-630,29,-67.0644,8.34888,-0.00892153,0.0249735,0.00474959,0.0256264,-0.0095745,1.43417,0.0210158,0.0159878,594,995,-67.0644,-8.34888
-623,29,-67.064,8.17145,-0.00769563,0.0170904,0.00401718,0.0177252,-0.00833046,1.41407,0.0153657,0.015594,601,995,-67.0641,-8.17147
-616,29,-67.1115,7.94769,-0.00668698,0.0115172,0.00339277,0.012129,-0.00729874,1.3924,0.0113316,0.0188277,608,995,-67.1115,-7.94767
-609,29,-67.0125,7.78412,-0.00583382,0.00768609,0.00295021,0.00830182,-0.00644955,1.36504,0.00853906,0.0309046,615,995,-67.0125,-7.78414
-602,29,-67.2271,7.47107,-0.00485677,0.0051426,0.0023493,0.00566705,-0.00538122,1.35116,0.00637943,0.0291825,622,995,-67.2271,-7.47108
-595,29,-67.5835,7.06348,-0.00378702,0.00331545,0.00183966,0.00376367,-0.00423523,1.33181,0.00462084,0.0292599,629,995,-67.5835,-7.06345
-588,29,-67.8762,6.74615,0,0,0,0,0,0,0,-1,636,995,-67.8762,-6.74616
-581,29,-66.3256,0.664185,0,0,0,0,0,0,0,-1,643,995,-66.3256,-0.664164
-574,29,-66.3481,0.577209,-0.001628,0.000829632,-0.000199271,0.000845685,-0.00164405,-1.49041,0.00146187,0.0349829,650,995,-66.3482,-0.577225
-567,29,-66.3528,0.43396,-0.00106216,0.0011322,-0.000966625,0.00149727,-0.00142723,-1.20969,0.00168862,0.0332547,657,995,-66.3528,-0.433953
-560,29,-66.5095,0.605896,-0.000518366,0.00201876,-0.00191482,0.00304711,-0.00154671,-1.07795,0.00269898,0.0385541,664,995,-66.5095,-0.605904
-553,29,-66.5137,0.72467,-9.38467e-05,0.00337142,-0.00321071,0.00528717,-0.00200959,-1.03283,0.00435215,0.04169,671,995,-66.5137,-0.724647
-546,29,-66.2174,0.231018,3.56099e-05,0.0048887,-0.00500222,0.00802186,-0.00309755,-1.01122,0.00662632,0.0457201,678,995,-66.2174,-0.231005
-539,29,-66.2068,0.308105,-0.000788304,0.00614164,-0.00742151,0.0108672,-0.00551387,-1.0038,0.00962449,0.0441923,685,995,-66.2068,-0.308119
-532,29,-66.3401,0.546936,-0.00170135,0.00792359,-0.0102436,0.0144288,-0.00820659,-1.005,0.0132321,0.0463452,692,995,-66.3401,-0.54693
-525,29,-66.0297,-0.187012,-0.00305061,0.010452,-0.0140785,0.0193143,-0.0119129,-1.00898,0.018197,0.0494637,699,995,-66.0296,0.186983
-518,29,0,0,0,0,0,0,0,0,0,-1,706,995,0,0
-511,29,0,0,0,0,0,0,0,0,0,-1,713,995,0,0
-504,29,0,0,0,0,0,0,0,0,0,-1,720,995,0,0
-497,29,0,0,0,0,0,0,0,0,0,-1,727,995,0,0
-490,29,0,0,0,0,0,0,0,0,0,-1,734,995,0,0
-483,29,0,0,0,0,0,0,0,0,0,-1,741,995,0,0
-476,29,0,0,0,0,0,0,0,0,0,-1,748,995,0,0
-469,29,0,0,0,0,0,0,0,0,0,-1,755,995,0,0
-462,29,0,0,0,0,0,0,0,0,0,-1,762,995,0,0
-455,29,0,0,0,0,0,0,0,0,0,-1,769,995,0,0
-448,29,0,0,0,0,0,0,0,0,0,-1,776,995,0,0
-441,29,0,0,0,0,0,0,0,0,0,-1,783,995,0,0
-434,29,0,0,0,0,0,0,0,0,0,-1,790,995,0,0
-427,29,0,0,0,0,0,0,0,0,0,-1,797,995,0,0
-420,29,0,0,0,0,0,0,0,0,0,-1,804,995,0,0
-413,29,0,0,0,0,0,0,0,0,0,-1,811,995,0,0
-406,29,0,0,0,0,0,0,0,0,0,-1,818,995,0,0
-399,29,0,0,0,0,0,0,0,0,0,-1,825,995,0,0
-392,29,0,0,0,0,0,0,0,0,0,-1,832,995,0,0
-385,29,0,0,0,0,0,0,0,0,0,-1,839,995,0,0
-378,29,0,0,0,0,0,0,0,0,0,-1,846,995,0,0
-371,29,0,0,0,0,0,0,0,0,0,-1,853,995,0,0
-364,29,0,0,0,0,0,0,0,0,0,-1,860,995,0,0
-357,29,0,0,0,0,0,0,0,0,0,-1,867,995,0,0
-350,29,0,0,0,0,0,0,0,0,0,-1,874,995,0,0
-343,29,0,0,0,0,0,0,0,0,0,-1,881,995,0,0
-336,29,0,0,0,0,0,0,0,0,0,-1,888,995,0,0
-329,29,0,0,0,0,0,0,0,0,0,-1,895,995,0,0
-322,29,0,0,0,0,0,0,0,0,0,-1,902,995,0,0
-315,29,0,0,0,0,0,0,0,0,0,-1,909,995,0,0
-308,29,0,0,0,0,0,0,0,0,0,-1,916,995,0,0
-301,29,0,0,0,0,0,0,0,0,0,-1,923,995,0,0
-294,29,0,0,0,0,0,0,0,0,0,-1,930,995,0,0
-287,29,0,0,0,0,0,0,0,0,0,-1,937,995,0,0
-280,29,0,0,0,0,0,0,0,0,0,-1,944,995,0,0
-273,29,0,0,0,0,0,0,0,0,0,-1,951,995,0,0
-266,29,0,0,0,0,0,0,0,0,0,-1,958,995,0,0
-259,29,0,0,0,0,0,0,0,0,0,-1,965,995,0,0
-252,29,0,0,0,0,0,0,0,0,0,-1,972,995,0,0
-245,29,0,0,0,0,0,0,0,0,0,-1,979,995,0,0
-238,29,0,0,0,0,0,0,0,0,0,-1,986,995,0,0
-231,29,0,0,0,0,0,0,0,0,0,-1,993,995,0,0
-224,29,0,0,0,0,0,0,0,0,0,-1,1000,995,0,0
-217,29,0,0,0,0,0,0,0,0,0,-1,1007,995,0,0
-210,29,0,0,0,0,0,0,0,0,0,-1,1014,995,0,0
-203,29,0,0,0,0,0,0,0,0,0,-1,1021,995,0,0
-196,29,0,0,0,0,0,0,0,0,0,-1,1028,995,0,0
-189,29,0,0,0,0,0,0,0,0,0,-1,1035,995,0,0
-182,29,0,0,0,0,0,0,0,0,0,-1,1042,995,0,0
-175,29,0,0,0,0,0,0,0,0,0,-1,1049,995,0,0
-168,29,0,0,0,0,0,0,0,0,0,-1,1056,995,0,0
-161,29,0,0,0,0,0,0,0,0,0,-1,1063,995,0,0
-154,29,0,0,0,0,0,0,0,0,0,-1,1070,995,0,0
-147,29,0,0,0,0,0,0,0,0,0,-1,1077,995,0,0
-140,29,0,0,0,0,0,0,0,0,0,-1,1084,995,0,0
-133,29,0,0,0,0,0,0,0,0,0,-1,1091,995,0,0
-126,29,0,0,0,0,0,0,0,0,0,-1,1098,995,0,0
-119,29,0,0,0,0,0,0,0,0,0,-1,1105,995,0,0
-112,29,0,0,0,0,0,0,0,0,0,-1,1112,995,0,0
-105,29,0,0,0,0,0,0,0,0,0,-1,1119,995,0,0
-98,29,0,0,0,0,0,0,0,0,0,-1,1126,995,0,0
-91,29,0,0,0,0,0,0,0,0,0,-1,1133,995,0,0
-84,29,0,0,0,0,0,0,0,0,0,-1,1140,995,0,0
-77,29,0,0,0,0,0,0,0,0,0,-1,1147,995,0,0
-70,29,0,0,0,0,0,0,0,0,0,-1,1154,995,0,0
-63,29,0,0,0,0,0,0,0,0,0,-1,1161,995,0,0
-56,29,0,0,0,0,0,0,0,0,0,-1,1168,995,0,0
-49,29,0,0,0,0,0,0,0,0,0,-1,1175,995,0,0
-42,29,0,0,0,0,0,0,0,0,0,-1,1182,995,0,0
-35,29,0,0,0,0,0,0,0,0,0,-1,1189,995,0,0
-28,29,0,0,0,0,0,0,0,0,0,-1,1196,995,0,0
-21,29,0,0,0,0,0,0,0,0,0,-1,1203,995,0,0
-14,29,0,0,0,0,0,0,0,0,0,-1,1210,995,0,0
-7,29,0,0,0,0,0,0,0,0,0,-1,1217,995,0,0
0,29,0,0,0,0,0,0,0,0,0,-1,1224,995,0,0
7,29,0,0,0,0,0,0,0,0,0,-1,1231,995,0,0
14,29,0,0,0,0,0,0,0,0,0,-1,1238,995,0,0
21,29,0,0,0,0,0,0,0,0,0,-1,1245,995,0,0
28,29,0,0,0,0,0,0,0,0,0,-1,1252,995,0,0
35,29,0,0,0,0,0,0,0,0,0,-1,1259,995,0,0
42,29,0,0,0,0,0,0,0,0,0,-1,1266,995,0,0
49,29,0,0,0,0,0,0,0,0,0,-1,1273,995,0,0
56,29,0,0,0,0,0,0,0,0,0,-1,1280,995,0,0
63,29,0,0,0,0,0,0,0,0,0,-1,1287,995,0,0
70,29,0,0,0,0,0,0,0,0,0,-1,1294,995,0,0
77,29,0,0,0,0,0,0,0,0,0,-1,1301,995,0,0
84,29,0,0,0,0,0,0,0,0,0,-1,1308,995,0,0
91,29,0,0,0,0,0,0,0,0,0,-1,1315,995,0,0
98,29,0,0,0,0,0,0,0,0,0,-1,1322,995,0,0
105,29,0,0,0,0,0,0,0,0,0,-1,1329,995,0,0
112,29,0,0,0,0,0,0,0,0,0,-1,1336,995,0,0
119,29,0,0,0,0,0,0,0,0,0,-1,1343,995,0,0
126,29,0,0,0,0,0,0,0,0,0,-1,1350,995,0,0
133,29,0,0,0,0,0,0,0,0,0,-1,1357,995,0,0
140,29,0,0,0,0,0,0,0,0,0,-1,1364,995,0,0
147,29,0,0,0,0,0,0,0,0,0,-1,1371,995,0,0
154,29,0,0,0,0,0,0,0,0,0,-1,1378,995,0,0
161,29,0,0,0,0,0,0,0,0,0,-1,1385,995,0,0
168,29,0,0,0,0,0,0,0,0,0,-1,1392,995,0,0
175,29,0,0,0,0,0,0,0,0,0,-1,1399,995,0,0
182,29,0,0,0,0,0,0,0,0,0,-1,1406,995,0,0
189,29,0,0,0,0,0,0,0,0,0,-1,1413,995,0,0
196,29,0,0,0,0,0,0,0,0,0,-1,1420,995,0,0
203,29,0,0,0,0,0,0,0,0,0,-1,1427,995,0,0
210,29,0,0,0,0,0,0,0,0,0,-1,1434,995,0,0
217,29,0,0,0,0,0,0,0,0,0,-1,1441,995,0,0
224,29,0,0,0,0,0,0,0,0,0,-1,1448,995,0,0
231,29,0,0,0,0,0,0,0,0,0,-1,1455,995,0,0
238,29,0,0,0,0,0,0,0,0,0,-1,1462,995,0,0
245,29,0,0,0,0,0,0,0,0,0,-1,1469,995,0,0
252,29,0,0,0,0,0,0,0,0,0,-1,1476,995,0,0
259,29,0,0,0,0,0,0,0,0,0,-1,1483,995,0,0
266,29,0,0,0,0,0,0,0,0,0,-1,1490,995,0,0
273,29,0,0,0,0,0,0,0,0,0,-1,1497,995,0,0
280,29,0,0,0,0,0,0,0,0,0,-1,1504,995,0,0
287,29,0,0,0,0,0,0,0,0,0,-1,1511,995,0,0
294,29,0,0,0,0,0,0,0,0,0,-1,1518,995,0,0
301,29,0,0,0,0,0,0,0,0,0,-1,1525,995,0,0
308,29,0,0,0,0,0,0,0,0,0,-1,1532,995,0,0
315,29,0,0,0,0,0,0,0,0,0,-1,1539,995,0,0
322,29,0,0,0,0,0,0,0,0,0,-1,1546,995,0,0
329,29,0,0,0,0,0,0,0,0,0,-1,1553,995,0,0
336,29,0,0,0,0,0,0,0,0,0,-1,1560,995,0,0
343,29,0,0,0,0,0,0,0,0,0,-1,1567,995,0,0
350,29,0,0,0,0,0,0,0,0,0,-1,1574,995,0,0
357,29,0,0,0,0,0,0,0,0,0,-1,1581,995,0,0
364,29,0,0,0,0,0,0,0,0,0,-1,1588,995,0,0
371,29,0,0,0,0,0,0,0,0,0,-1,1595,995,0,0
378,29,0,0,0,0,0,0,0,0,0,-1,1602,995,0,0
385,29,0,0,0,0,0,0,0,0,0,-1,1609,995,0,0
392,29,0,0,0,0,0,0,0,0,0,-1,1616,995,0,0
399,29,0,0,0,0,0,0,0,0,0,-1,1623,995,0,0
406,29,0,0,0,0,0,0,0,0,0,-1,1630,995,0,0
413,29,0,0,0,0,0,0,0,0,0,-1,1637,995,0,0
420,29,0,0,0,0,0,0,0,0,0,-1,1644,995,0,0
427,29,0,0,0,0,0,0,0,0,0,-1,1651,995,0,0
434,29,0,0,0,0,0,0,0,0,0,-1,1658,995,0,0
441,29,0,0,0,0,0,0,0,0,0,-1,1665,995,0,0
448,29,0,0,0,0,0,0,0,0,0,-1,1672,995,0,0
455,29,0,0,0,0,0,0,0,0,0,-1,1679,995,0,0
462,29,0,0,0,0,0,0,0,0,0,-1,1686,995,0,0
469,29,0,0,0,0,0,0,0,0,0,-1,1693,995,0,0
476,29,0,0,0,0,0,0,0,0,0,-1,1700,995,0,0
483,29,0,0,0,0,0,0,0,0,0,-1,1707,995,0,0
490,29,0,0,0,0,0,0,0,0,0,-1,1714,995,0,0
497,29,0,0,0,0,0,0,0,0,0,-1,1721,995,0,0
504,29,0,0,0,0,0,0,0,0,0,-1,1728,995,0,0
511,29,0,0,0,0,0,0,0,0,0,-1,1735,995,0,0
518,29,0,0,0,0,0,0,0,0,0,-1,1742,995,0,0
525,29,0,0,0,0,0,0,0,0,0,-1,1749,995,0,0
532,29,0,0,0,0,0,0,0,0,0,-1,1756,995,0,0
539,29,0,0,0,0,0,0,0,0,0,-1,1763,995,0,0
546,29,0,0,0,0,0,0,0,0,0,-1,1770,995,0,0
553,29,0,0,0,0,0,0,0,0,0,-1,1777,995,0,0
560,29,0,0,0,0,0,0,0,0,0,-1,1784,995,0,0
567,29,0,0,0,0,0,0,0,0,0,-1,1791,995,0,0
574,29,0,0,0,0,0,0,0,0,0,-1,1798,995,0,0
581,29,0,0,0,0,0,0,0,0,0,-1,1805,995,0,0
588,29,0,0,0,0,0,0,0,0,0,-1,1812,995,0,0
595,29,0,0,0,0,0,0,0,0,0,-1,1819,995,0,0
602,29,0,0,0,0,0,0,0,0,0,-1,1826,995,0,0
609,29,0,0,0,0,0,0,0,0,0,-1,1833,995,0,0
616,29,0,0,0,0,0,0,0,0,0,-1,1840,995,0,0
623,29,0,0,0,0,0,0,0,0,0,-1,1847,995,0,0
630,29,0,0,0,0,0,0,0,0,0,-1,1854,995,0,0
637,29,0,0,0,0,0,0,0,0,0,-1,1861,995,0,0
644,29,82.9436,2.48657,0.00714667,0.00216942,-0.00135832,0.00749324,0.00182286,-0.249811,0.00451232,0.0417127,1868,995,82.9436,-2.48657
651,29,82.9181,2.51074,0.00572363,0.00168264,-0.000664157,0.00582999,0.00157628,-0.158792,0.00348225,0.0454036,1875,995,82.9181,-2.51077
658,29,83.1365,2.33795,0.00449476,0.00121718,-0.000154029,0.00450198,0.00120996,-0.0468569,0.00269028,0.0452686,1882,995,83.1365,-2.33793
665,29,83.1606,2.45935,0.00337638,0.000884857,0.000207283,0.00339351,0.00086773,0.0824401,0.0020357,0.0394079,1889,995,83.1607,-2.45933
672,29,83.2148,2.51208,0.00228737,0.000589965,0.000506263,0.00242689,0.000450438,0.268926,0.00149064,0.0371763,1896,995,83.2148,-2.51206
679,29,83.1216,2.5213,0.00141502,0.00021253,0.000818907,0.0018297,-0.000202149,0.46874,0.00129247,0.0390967,1903,995,83.1215,-2.52132
686,29,83.2024,2.38281,0.000801552,-0.000295803,0.000988456,0.0013834,-0.000877653,0.532029,0.00131626,0.0376607,1910,995,83.2024,-2.38278
693,29,83.3175,2.37329,0.000185627,-0.000679385,0.00100727,0.000849321,-0.00134308,0.582609,0.00127644,0.0385035,1917,995,83.3175,-2.37331
700,29,83.307,2.41461,-0.000439084,-0.000832082,0.000865982,0.000252413,-0.00152358,0.673833,0.00110947,0.0363701,1924,995,83.307,-2.4146
707,29,83.2312,2.39612,-0.00129347,-0.000274983,0.000552866,-3.2568e-05,-0.00153588,1.15757,0.00101324,0.0259329,1931,995,83.2312,-2.39612
714,29,83.1824,2.39673,0,0,0,0,0,0,0,-1,1938,995,83.1824,-2.39674
721,29,78.8949,6.53455,0,0,0,0,0,0,0,-1,1945,995,78.8949,-6.53457
728,29,82.9221,7.28149,0,0,0,0,0,0,0,-1,1952,995,82.9221,-7.28149
735,29,83.1295,7.65643,-0.00750673,0.00744957,-0.000600556,0.00747365,-0.0075308,-1.53073,0.00866285,0.0179678,1959,995,83.1295,-7.65643
742,29,83.0925,7.87494,-0.00936921,0.00998072,-0.000841342,0.0100172,-0.00940573,-1.52743,0.0112157,0.015671,1966,995,83.0925,-7.87496
749,29,83.0403,8.18329,-0.0099638,0.0138799,-0.00269746,0.0141813,-0.0102652,-1.45954,0.0141744,0.0166526,1973,995,83.0402,-8.18327
756,29,83.0007,8.47119,-0.00994028,0.0187063,-0.00495427,0.0195389,-0.0107729,-1.40429,0.0177428,0.0150981,1980,995,83.0007,-8.4712
763,29,82.9158,8.62213,-0.00811687,0.0253217,-0.00855675,0.0273841,-0.0101793,-1.33428,0.0224327,0.0141417,1987,995,82.9159,-8.62216
770,29,82.7869,8.77002,-0.00350626,0.0342833,-0.013837,0.0388081,-0.00803106,-1.25475,0.0289231,0.0208734,1994,995,82.787,-8.76999
777,29,82.6169,9.11975,0.00501397,0.0442123,-0.0216018,0.053781,-0.00455471,-1.15381,0.0374646,0.0339219,2001,995,82.617,-9.11976
784,29,82.4734,9.51807,0,0,0,0,0,0,0,-1,2008,995,82.4733,-9.51805
791,29,81.4409,9.50781,0,0,0,0,0,0,0,-1,2015,995,81.4408,-9.50781
798,29,82.4993,9.72882,0,0,0,0,0,0,0,-1,2022,995,82.4992,-9.72882
805,29,74.3672,11.113,0,0,0,0,0,0,0,-1,2029,995,74.3672,-11.113
812,29,74.3464,11.3901,0,0,0,0,0,0,0,-1,2036,995,74.3464,-11.3901
-700,22,0,0,0,0,0,0,0,0,0,-1,524,1002,0,0
-693,22,-64.1387,1.95026,0,0,0,0,0,0,0,-1,531,1002,-64.1387,-1.95025
-686,22,-63.888,5.10138,0,0,0,0,0,0,0,-1,538,1002,-63.888,-5.10136
-679,22,-63.6181,5.81915,0,0,0,0,0,0,0,-1,545,1002,-63.6181,-5.81917
-672,22,-63.1216,6.43365,0,0,0,0,0,0,0,-1,552,1002,-63.1216,-6.43365
-665,22,-62.6777,7.04553,0,0,0,0,0,0,0,-1,559,1002,-62.6777,-7.04554
-658,22,-62.1954,7.73608,0,0,0,0,0,0,0,-1,566,1002,-62.1954,-7.73611
-651,22,-65.9989,7.98376,0,0,0,0,0,0,0,-1,573,1002,-65.9989,-7.98376
-644,22,-66.8424,8.13593,-0.0141751,0.0439551,0.00615899,0.0446005,-0.0148205,1.46639,0.035714,0.0480898,580,1002,-66.8424,-8.1359
-637,22,-67.334,8.23529,-0.0121171,0.0338873,0.00505874,0.034437,-0.0126668,1.46256,0.0281469,0.0336969,587,1002,-67.334,-8.2353
-630,22,-67.3174,8.16724,-0.0101951,0.0243088,0.00420161,0.024813,-0.0106993,1.45135,0.0210359,0.0194641,594,1002,-67.3174,-8.16726
-623,22,-67.3447,8.02368,-0.00860633,0.0165218,0.00340621,0.0169753,-0.00905987,1.43842,0.0152612,0.0147169,601,1002,-67.3447,-8.02371
-616,22,-67.3246,7.79956,-0.00732281,0.0110851,0.00270113,0.0114733,-0.00771098,1.42807,0.0111468,0.0244752,608,1002,-67.3246,-7.79953
-609,22,-67.4199,7.69,-0.00626136,0.00734821,0.00219953,0.00769486,-0.00660801,1.41448,0.00826571,0.0388095,615,1002,-67.4199,-7.69
-602,22,-67.665,7.55914,-0.00517279,0.00491255,0.00159202,0.00515789,-0.00541813,1.41789,0.00610669,0.0335517,622,1002,-67.665,-7.55911
-595,22,-67.9312,7.28125,-0.00409508,0.00312779,0.00108543,0.00328738,-0.00425467,1.42481,0.00436633,0.0396441,629,1002,-67.9312,-7.28128
-588,22,-68.0271,6.87695,0,0,0,0,0,0,0,-1,636,1002,-68.0271,-6.87694
-581,22,-66.3326,0.718689,0,0,0,0,0,0,0,-1,643,1002,-66.3326,-0.718705
-574,22,-66.3378,0.641479,-0.00184224,0.000633951,-0.000755974,0.000846504,-0.00205479,-1.29671,0.0017228,0.0372151,650,1002,-66.3377,-0.641492
-567,22,-66.319,0.549072,-0.00135113,0.000942648,-0.00139565,0.00160219,-0.00201067,-1.12933,0.00209032,0.0332239,657,1002,-66.319,-0.549068
-560,22,-66.3785,0.48645,-0.000897325,0.00182021,-0.00216859,0.00302055,-0.00209767,-1.06526,0.00297097,0.0383152,664,1002,-66.3785,-0.486463
-553,22,-66.3458,0.684937,-0.000612859,0.00312042,-0.00323445,0.00498821,-0.00248065,-1.04711,0.00439241,0.0425184,671,1002,-66.3458,-0.684934
-546,22,-66.1799,0.448914,-0.000685304,0.00450107,-0.00471953,0.00729291,-0.00347715,-1.03661,0.00634685,0.043535,678,1002,-66.1799,-0.448884
-539,22,-66.3981,0.384277,-0.0017699,0.00555873,-0.0067129,0.00954231,-0.00575348,-1.03523,0.00892088,0.0416198,685,1002,-66.3981,-0.384272
-532,22,-66.5865,0.535645,-0.0028852,0.00718066,-0.00908055,0.0125298,-0.00823431,-1.03845,0.0120733,0.042182,692,1002,-66.5866,-0.535635
-525,22,0,0,0,0,0,0,0,0,0,-1,699,1002,0,0
-518,22,0,0,0,0,0,0,0,0,0,-1,706,1002,0,0
-511,22,0,0,0,0,0,0,0,0,0,-1,713,1002,0,0
-504,22,0,0,0,0,0,0,0,0,0,-1,720,1002,0,0
-497,22,0,0,0,0,0,0,0,0,0,-1,727,1002,0,0
-490,22,0,0,0,0,0,0,0,0,0,-1,734,1002,0,0
-483,22,0,0,0,0,0,0,0,0,0,-1,741,1002,0,0
-476,22,0,0,0,0,0,0,0,0,0,-1,748,1002,0,0
-469,22,0,0,0,0,0,0,0,0,0,-1,755,1002,0,0
-462,22,0,0,0,0,0,0,0,0,0,-1,762,1002,0,0
-455,22,0,0,0,0,0,0,0,0,0,-1,769,1002,0,0
-448,22,0,0,0,0,0,0,0,0,0,-1,776,1002,0,0
-441,22,0,0,0,0,0,0,0,0,0,-1,783,1002,0,0
-434,22,0,0,0,0,0,0,0,0,0,-1,790,1002,0,0
-427,22,0,0,0,0,0,0,0,0,0,-1,797,1002,0,0
-420,22,0,0,0,0,0,0,0,0,0,-1,804,1002,0,0
-413,22,0,0,0,0,0,0,0,0,0,-1,811,1002,0,0
-406,22,0,0,0,0,0,0,0,0,0,-1,818,1002,0,0
-399,22,0,0,0,0,0,0,0,0,0,-1,825,1002,0,0
-392,22,0,0,0,0,0,0,0,0,0,-1,832,1002,0,0
-385,22,0,0,0,0,0,0,0,0,0,-1,839,1002,0,0
-378,22,0,0,0,0,0,0,0,0,0,-1,846,1002,0,0
-371,22,0,0,0,0,0,0,0,0,0,-1,853,1002,0,0
-364,22,0,0,0,0,0,0,0,0,0,-1,860,1002,0,0
-357,22,0,0,0,0,0,0,0,0,0,-1,867,1002,0,0
-350,22,0,0,0,0,0,0,0,0,0,-1,874,1002,0,0
-343,22,0,0,0,0,0,0,0,0,0,-1,881,1002,0,0
-336,22,0,0,0,0,0,0,0,0,0,-1,888,1002,0,0
-329,22,0,0,0,0,0,0,0,0,0,-1,895,1002,0,0
-322,22,0,0,0,0,0,0,0,0,0,-1,902,1002,0,0
-315,22,0,0,0,0,0,0,0,0,0,-1,909,1002,0,0
-308,22,0,0,0,0,0,0,0,0,0,-1,916,1002,0,0
-301,22,0,0,0,0,0,0,0,0,0,-1,923,1002,0,0
-294,22,0,0,0,0,0,0,0,0,0,-1,930,1002,0,0
-287,22,0,0,0,0,0,0,0,0,0,-1,937,1002,0,0
-280,22,0,0,0,0,0,0,0,0,0,-1,944,1002,0,0
-273,22,0,0,0,0,0,0,0,0,0,-1,951,1002,0,0
-266,22,0,0,0,0,0,0,0,0,0,-1,958,1002,0,0
-259,22,0,0,0,0,0,0,0,0,0,-1,965,1002,0,0
-252,22,0,0,0,0,0,0,0,0,0,-1,972,1002,0,0
-245,22,0,0,0,0,0,0,0,0,0,-1,979,1002,0,0
-238,22,0,0,0,0,0,0,0,0,0,-1,986,1002,0,0
-231,22,0,0,0,0,0,0,0,0,0,-1,993,1002,0,0
-224,22,0,0,0,0,0,0,0,0,0,-1,1000,1002,0,0
-217,22,0,0,0,0,0,0,0,0,0,-1,1007,1002,0,0
-210,22,0,0,0,0,0,0,0,0,0,-1,1014,1002,0,0
-203,22,0,0,0,0,0,0,0,0,0,-1,1021,1002,0,0
-196,22,0,0,0,0,0,0,0,0,0,-1,1028,1002,0,0
-189,22,0,0,0,0,0,0,0,0,0,-1,1035,1002,0,0
-182,22,0,0,0,0,0,0,0,0,0,-1,1042,1002,0,0
-175,22,0,0,0,0,0,0,0,0,0,-1,1049,1002,0,0
-168,22,0,0,0,0,0,0,0,0,0,-1,1056,1002,0,0
-161,22,0,0,0,0,0,0,0,0,0,-1,1063,1002,0,0
-154,22,0,0,0,0,0,0,0,0,0,-1,1070,1002,0,0
-147,22,0,0,0,0,0,0,0,0,0,-1,1077,1002,0,0
-140,22,0,0,0,0,0,0,0,0,0,-1,1084,1002,0,0
-133,22,0,0,0,0,0,0,0,0,0,-1,1091,1002,0,0
-126,22,0,0,0,0,0,0,0,0,0,-1,1098,1002,0,0
-119,22,0,0,0,0,0,0,0,0,0,-1,1105,1002,0,0
-112,22,0,0,0,0,0,0,0,0,0,-1,1112,1002,0,0
-105,22,0,0,0,0,0,0,0,0,0,-1,1119,1002,0,0
-98,22,0,0,0,0,0,0,0,0,0,-1,1126,1002,0,0
-91,22,0,0,0,0,0,0,0,0,0,-1,1133,1002,0,0
-84,22,0,0,0,0,0,0,0,0,0,-1,1140,1002,0,0
-77,22,0,0,0,0,0,0,0,0,0,-1,1147,1002,0,0
-70,22,0,0,0,0,0,0,0,0,0,-1,1154,1002,0,0
-63,22,0,0,0,0,0,0,0,0,0,-1,1161,1002,0,0
-56,22,0,0,0,0,0,0,0,0,0,-1,1168,1002,0,0
-49,22,0,0,0,0,0,0,0,0,0,-1,1175,1002,0,0
-42,22,0,0,0,0,0,0,0,0,0,-1,1182,1002,0,0
-35,22,0,0,0,0,0,0,0,0,0,-1,1189,1002,0,0
-28,22,0,0,0,0,0,0,0,0,0,-1,1196,1002,0,0
-21,22,0,0,0,0,0,0,0,0,0,-1,1203,1002,0,0
-14,22,0,0,0,0,0,0,0,0,0,-1,1210,1002,0,0
-7,22,0,0,0,0,0,0,0,0,0,-1,1217,1002,0,0
0,22,0,0,0,0,0,0,0,0,0,-1,1224,1002,0,0
7,22,0,0,0,0,0,0,0,0,0,-1,1231,1002,0,0
14,22,0,0,0,0,0,0,0,0,0,-1,1238,1002,0,0
21,22,0,0,0,0,0,0,0,0,0,-1,1245,1002,0,0
28,22,0,0,0,0,0,0,0,0,0,-1,1252,1002,0,0
35,22,0,0,0,0,0,0,0,0,0,-1,1259,1002,0,0
42,22,0,0,0,0,0,0,0,0,0,-1,1266,1002,0,0
49,22,0,0,0,0,0,0,0,0,0,-1,1273,1002,0,0
56,22,0,0,0,0,0,0,0,0,0,-1,1280,1002,0,0
63,22,0,0,0,0,0,0,0,0,0,-1,1287,1002,0,0
70,22,0,0,0,0,0,0,0,0,0,-1,1294,1002,0,0
77,22,0,0,0,0,0,0,0,0,0,-1,1301,1002,0,0
84,22,0,0,0,0,0,0,0,0,0,-1,1308,1002,0,0
91,22,0,0,0,0,0,0,0,0,0,-1,1315,1002,0,0
98,22,0,0,0,0,0,0,0,0,0,-1,1322,1002,0,0
105,22,0,0,0,0,0,0,0,0,0,-1,1329,1002,0,0
112,22,0,0,0,0,0,0,0,0,0,-1,1336,1002,0,0
119,22,0,0,0,0,0,0,0,0,0,-1,1343,1002,0,0
126,22,0,0,0,0,0,0,0,0,0,-1,1350,1002,0,0
133,22,0,0,0,0,0,0,0,0,0,-1,1357,1002,0,0
140,22,0,0,0,0,0,0,0,0,0,-1,1364,1002,0,0
147,22,0,0,0,0,0,0,0,0,0,-1,1371,1002,0,0
154,22,0,0,0,0,0,0,0,0,0,-1,1378,1002,0,0
161,22,0,0,0,0,0,0,0,0,0,-1,1385,1002,0,0
168,22,0,0,0,0,0,0,0,0,0,-1,1392,1002,0,0
175,22,0,0,0,0,0,0,0,0,0,-1,1399,1002,0,0
182,22,0,0,0,0,0,0,0,0,0,-1,1406,1002,0,0
189,22,0,0,0,0,0,0,0,0,0,-1,1413,1002,0,0
196,22,0,0,0,0,0,0,0,0,0,-1,1420,1002,0,0
203,22,0,0,0,0,0,0,0,0,0,-1,1427,1002,0,0
210,22,0,0,0,0,0,0,0,0,0,-1,1434,1002,0,0
217,22,0,0,0,0,0,0,0,0,0,-1,1441,1002,0,0
224,22,0,0,0,0,0,0,0,0,0,-1,1448,1002,0,0
231,22,0,0,0,0,0,0,0,0,0,-1,1455,1002,0,0
238,22,0,0,0,0,0,0,0,0,0,-1,1462,1002,0,0
245,22,0,0,0,0,0,0,0,0,0,-1,1469,1002,0,0
252,22,0,0,0,0,0,0,0,0,0,-1,1476,1002,0,0
259,22,0,0,0,0,0,0,0,0,0,-1,1483,1002,0,0
266,22,0,0,0,0,0,0,0,0,0,-1,1490,1002,0,0
273,22,0,0,0,0,0,0,0,0,0,-1,1497,1002,0,0
280,22,0,0,0,0,0,0,0,0,0,-1,1504,1002,0,0
287,22,0,0,0,0,0,0,0,0,0,-1,1511,1002,0,0
294,22,0,0,0,0,0,0,0,0,0,-1,1518,1002,0,0
301,22,0,0,0,0,0,0,0,0,0,-1,1525,1002,0,0
308,22,0,0,0,0,0,0,0,0,0,-1,1532,1002,0,0
315,22,0,0,0,0,0,0,0,0,0,-1,1539,1002,0,0
322,22,0,0,0,0,0,0,0,0,0,-1,1546,1002,0,0
329,22,0,0,0,0,0,0,0,0,0,-1,1553,1002,0,0
336,22,0,0,0,0,0,0,0,0,0,-1,1560,1002,0,0
343,22,0,0,0,0,0,0,0,0,0,-1,1567,1002,0,0
350,22,0,0,0,0,0,0,0,0,0,-1,1574,1002,0,0
357,22,0,0,0,0,0,0,0,0,0,-1,1581,1002,0,0
364,22,0,0,0,0,0,0,0,0,0,-1,1588,1002,0,0
371,22,0,0,0,0,0,0,0,0,0,-1,1595,1002,0,0
378,22,0,0,0,0,0,0,0,0,0,-1,1602,1002,0,0
385,22,0,0,0,0,0,0,0,0,0,-1,1609,1002,0,0
392,22,0,0,0,0,0,0,0,0,0,-1,1616,1002,0,0
399,22,0,0,0,0,0,0,0,0,0,-1,1623,1002,0,0
406,22,0,0,0,0,0,0,0,0,0,-1,1630,1002,0,0
413,22,0,0,0,0,0,0,0,0,0,-1,1637,1002,0,0
420,22,0,0,0,0,0,0,0,0,0,-1,1644,1002,0,0
427,22,0,0,0,0,0,0,0,0,0,-1,1651,1002,0,0
434,22,0,0,0,0,0,0,0,0,0,-1,1658,1002,0,0
441,22,0,0,0,0,0,0,0,0,0,-1,1665,1002,0,0
448,22,0,0,0,0,0,0,0,0,0,-1,1672,1002,0,0
455,22,0,0,0,0,0,0,0,0,0,-1,1679,1002,0,0
462,22,0,0,0,0,0,0,0,0,0,-1,1686,1002,0,0
469,22,0,0,0,0,0,0,0,0,0,-1,1693,1002,0,0
476,22,0,0,0,0,0,0,0,0,0,-1,1700,1002,0,0
483,22,0,0,0,0,0,0,0,0,0,-1,1707,1002,0,0
490,22,0,0,0,0,0,0,0,0,0,-1,1714,1002,0,0
497,22,0,0,0,0,0,0,0,0,0,-1,1721,1002,0,0
504,22,0,0,0,0,0,0,0,0,0,-1,1728,1002,0,0
511,22,0,0,0,0,0,0,0,0,0,-1,1735,1002,0,0
518,22,0,0,0,0,0,0,0,0,0,-1,1742,1002,0,0
525,22,0,0,0,0,0,0,0,0,0,-1,1749,1002,0,0
532,22,0,0,0,0,0,0,0,0,0,-1,1756,1002,0,0
539,22,0,0,0,0,0,0,0,0,0,-1,1763,1002,0,0
546,22,0,0,0,0,0,0,0,0,0,-1,1770,1002,0,0
553,22,0,0,0,0,0,0,0,0,0,-1,1777,1002,0,0
560,22,0,0,0,0,0,0,0,0,0,-1,1784,1002,0,0
567,22,0,0,0,0,0,0,0,0,0,-1,1791,1002,0,0
574,22,0,0,0,0,0,0,0,0,0,-1,1798,1002,0,0
581,22,0,0,0,0,0,0,0,0,0,-1,1805,1002,0,0
588,22,0,0,0,0,0,0,0,0,0,-1,1812,1002,0,0
595,22,0,0,0,0,0,0,0,0,0,-1,1819,1002,0,0
602,22,0,0,0,0,0,0,0,0,0,-1,1826,1002,0,0
609,22,0,0,0,0,0,0,0,0,0,-1,1833,1002,0,0
616,22,0,0,0,0,0,0,0,0,0,-1,1840,1002,0,0
623,22,0,0,0,0,0,0,0,0,0,-1,1847,1002,0,0
630,22,0,0,0,0,0,0,0,0,0,-1,1854,1002,0,0
637,22,0,0,0,0,0,0,0,0,0,-1,1861,1002,0,0
644,22,82.9088,2.42462,0.00780703,0.00204929,-0.00130926,0.00809077,0.00176556,-0.213413,0.00491225,0.0391059,1868,1002,82.9088,-2.42465
651,22,83.0311,2.14197,0.00606094,0.00164156,-0.000615256,0.00614499,0.00155751,-0.135779,0.00368877,0.044424,1875,1002,83.0312,-2.14197
658,22,83.1278,2.15839,0.00465186,0.00120006,-0.000158331,0.00465911,0.00119282,-0.0457411,0.00279465,0.0446598,1882,1002,83.1279,-2.15841
665,22,83.1119,2.4635,0.0034417,0.000877542,0.000162382,0.00345195,0.000867299,0.0629923,0.00207357,0.0386716,1889,1002,83.1119,-2.46352
672,22,83.1407,2.45245,0.00234047,0.000597252,0.000430333,0.00244091,0.000496808,0.229307,0.00148955,0.0393478,1896,1002,83.1407,-2.45247
679,22,83.1616,2.41663,0.00146602,0.000250753,0.000712948,0.00179514,-7.8371e-05,0.432489,0.00122372,0.0390661,1903,1002,83.1616,-2.4166
686,22,83.2993,2.51624,0.000807412,-0.000230205,0.000921443,0.00134606,-0.000768855,0.528999,0.00123611,0.0370544,1910,1002,83.2993,-2.51625
693,22,83.3217,2.54388,0.000165031,-0.000599023,0.00100712,0.000860148,-0.00129414,0.604119,0.00125216,0.0369234,1917,1002,83.3216,-2.54391
700,22,83.2532,2.47229,-0.000451071,-0.000800012,0.000937337,0.000327894,-0.00157898,0.693384,0.00117727,0.0338429,1924,1002,83.2532,-2.4723
707,22,83.1788,2.47021,-0.00133353,-0.000223125,0.000708307,0.000121643,-0.0016783,1.11781,0.00116154,0.0301808,1931,1002,83.1789,-2.47023
714,22,83.1564,2.62677,0,0,0,0,0,0,0,-1,1938,1002,83.1564,-2.62678
721,22,76.814,2.41211,0,0,0,0,0,0,0,-1,1945,1002,76.814,-2.41212
728,22,83.3524,7.63171,0,0,0,0,0,0,0,-1,1952,1002,83.3524,-7.63173
735,22,83.3578,7.78656,-0.00793228,0.007767,-0.000311528,0.00777318,-0.00793846,-1.55096,0.00907129,0.0183019,1959,1002,83.3578,-7.78657
742,22,83.3577,7.94476,-0.00986052,0.0102655,-0.000539505,0.01028,-0.00987497,-1.54402,0.0116373,0.0192589,1966,1002,83.3577,-7.94479
749,22,83.2585,8.15558,-0.0101201,0.0142957,-0.0027749,0.0146071,-0.0104315,-1.45904,0.0145229,0.0146493,1973,1002,83.2585,-8.15556
756,22,83.2395,8.32672,-0.00973475,0.0190539,-0.00545429,0.0200526,-0.0107335,-1.38969,0.0180437,0.0191437,1980,1002,83.2394,-8.32675
763,22,83.1775,8.48615,-0.00745586,0.0254977,-0.00977419,0.0281786,-0.0101368,-1.30309,0.0229243,0.0213541,1987,1002,83.1776,-8.48612
770,22,82.9185,8.62268,-0.00184501,0.0345961,-0.0165397,0.0409834,-0.00823238,-1.20226,0.0304398,0.0232713,1994,1002,82.9185,-8.62267
777,22,82.4351,8.67944,0.00823664,0.0450117,-0.0263659,0.0587686,-0.00552017,-1.08989,0.0411427,0.0475955,2001,1002,82.4352,-8.67941
784,22,82.0168,8.79767,0,0,0,0,0,0,0,-1,2008,1002,82.0169,-8.79767
791,22,81.1365,8.87616,0,0,0,0,0,0,0,-1,2015,1002,81.1364,-8.87619
798,22,75.3267,9.01569,0,0,0,0,0,0,0,-1,2022,1002,75.3266,-9.01571
805,22,75.3247,9.49249,0,0,0,0,0,0,0,-1,2029,1002,75.3248,-9.49248
812,22,75.3965,9.88782,0,0,0,0,0,0,0,-1,2036,1002,75.3966,-9.88781
-700,15,0,0,0,0,0,0,0,0,0,-1,524,1009,0,0
-693,15,-64.3082,1.03607,0,0,0,0,0,0,0,-1,531,1009,-64.3082,-1.03607
-686,15,-63.9231,4.78137,0,0,0,0,0,0,0,-1,538,1009,-63.9231,-4.78136
-679,15,-63.2324,4.75891,0,0,0,0,0,0,0,-1,545,1009,-63.2324,-4.75894
-672,15,-62.4885,5.21826,0,0,0,0,0,0,0,-1,552,1009,-62.4885,-5.21827
-665,15,-62.0263,5.41602,0,0,0,0,0,0,0,-1,559,1009,-62.0263,-5.416
-658,15,-67.7799,6.4903,0,0,0,0,0,0,0,-1,566,1009,-67.7799,-6.49027
-651,15,-51.4943,3.62128,0,0,0,0,0,0,0,-1,573,1009,-51.4943,-3.62128
-644,15,-67.3194,8.10889,0,0,0,0,0,0,0,-1,580,1009,-67.3194,-8.10889
-637,15,-67.4713,8.19855,-0.0129335,0.0329972,0.00466322,0.0334658,-0.0134022,1.47063,0.0278735,0.0376817,587,1009,-67.4713,-8.19854
-630,15,-67.4597,8.05658,-0.0106596,0.0233829,0.00366437,0.0237728,-0.0110496,1.46477,0.0205472,0.0210283,594,1009,-67.4597,-8.0566
-623,15,-67.5015,7.93616,-0.00884555,0.0158131,0.00277801,0.0161222,-0.00915464,1.45999,0.0147772,0.0111999,601,1009,-67.5014,-7.93618
-616,15,-67.5046,7.81531,-0.00741499,0.0105707,0.00199583,0.0107895,-0.00763381,1.4616,0.0106886,0.0186312,608,1009,-67.5046,-7.81532
-609,15,-67.6622,7.73358,-0.00624776,0.00693816,0.00145117,0.00709598,-0.00640558,1.46247,0.00779853,0.0272552,615,1009,-67.6622,-7.73359
-602,15,-67.7949,7.65845,-0.0051258,0.00457524,0.000882967,0.00465495,-0.00520551,1.48076,0.0056959,0.0262003,622,1009,-67.7949,-7.65845
-595,15,-67.8746,7.51062,0,0,0,0,0,0,0,-1,629,1009,-67.8746,-7.51063
-588,15,-66.2543,0.634216,0,0,0,0,0,0,0,-1,636,1009,-66.2543,-0.634244
-581,15,-66.3146,0.625549,-0.00247811,0.000322606,-0.000388527,0.000375505,-0.00253101,-1.43548,0.00182543,0.0402648,643,1009,-66.3146,-0.625537
-574,15,-66.3106,0.559998,-0.0018965,3.75661e-05,-0.00113781,0.000563775,-0.00242271,-1.13762,0.00183221,0.0339892,650,1009,-66.3106,-0.559979
-567,15,-66.2756,0.412231,-0.00149952,0.000211636,-0.00160975,0.00117905,-0.00246694,-1.02966,0.00214834,0.0338725,657,1009,-66.2756,-0.412227
-560,15,-66.2697,0.428955,-0.00115043,0.000915493,-0.00216605,0.00228228,-0.00251721,-1.00789,0.0027721,0.0380475,664,1009,-66.2697,-0.428927
-553,15,-66.3475,0.562744,-0.001016,0.00196555,-0.00295394,0.00378358,-0.00283403,-1.01909,0.00383377,0.0406269,671,1009,-66.3475,-0.562722
-546,15,-66.2012,0.572266,-0.00128028,0.0029814,-0.00409257,0.00546463,-0.0037635,-1.02542,0.00535796,0.0425138,678,1009,-66.2012,-0.572259
-539,15,-66.3337,0.512207,-0.00255872,0.00363101,-0.00565353,0.00698134,-0.00590905,-1.03583,0.00745085,0.0420307,685,1009,-66.3338,-0.512205
-532,15,-66.5148,0.460266,-0.00383928,0.00487269,-0.00758146,0.00926046,-0.00822704,-1.04615,0.0101023,0.0411164,692,1009,-66.5148,-0.460239
-525,15,0,0,0,0,0,0,0,0,0,-1,699,1009,0,0
-518,15,0,0,0,0,0,0,0,0,0,-1,706,1009,0,0
-511,15,0,0,0,0,0,0,0,0,0,-1,713,1009,0,0
-504,15,0,0,0,0,0,0,0,0,0,-1,720,1009,0,0
-497,15,0,0,0,0,0,0,0,0,0,-1,727,1009,0,0
-490,15,0,0,0,0,0,0,0,0,0,-1,734,1009,0,0
-483,15,0,0,0,0,0,0,0,0,0,-1,741,1009,0,0
-476,15,0,0,0,0,0,0,0,0,0,-1,748,1009,0,0
-469,15,0,0,0,0,0,0,0,0,0,-1,755,1009,0,0
-462,15,0,0,0,0,0,0,0,0,0,-1,762,1009,0,0
-455,15,0,0,0,0,0,0,0,0,0,-1,769,1009,0,0
-448,15,0,0,0,0,0,0,0,0,0,-1,776,1009,0,0
-441,15,0,0,0,0,0,0,0,0,0,-1,783,1009,0,0
-434,15,0,0,0,0,0,0,0,0,0,-1,790,1009,0,0
-427,15,0,0,0,0,0,0,0,0,0,-1,797,1009,0,0
-420,15,0,0,0,0,0,0,0,0,0,-1,804,1009,0,0
-413,15,0,0,0,0,0,0,0,0,0,-1,811,1009,0,0
-406,15,0,0,0,0,0,0,0,0,0,-1,818,1009,0,0
-399,15,0,0,0,0,0,0,0,0,0,-1,825,1009,0,0
-392,15,0,0,0,0,0,0,0,0,0,-1,832,1009,0,0
-385,15,0,0,0,0,0,0,0,0,0,-1,839,1009,0,0
-378,15,0,0,0,0,0,0,0,0,0,-1,846,1009,0,0
-371,15,0,0,0,0,0,0,0,0,0,-1,853,1009,0,0
-364,15,0,0,0,0,0,0,0,0,0,-1,860,1009,0,0
-357,15,0,0,0,0,0,0,0,0,0,-1,867,1009,0,0
-350,15,0,0,0,0,0,0,0,0,0,-1,874,1009,0,0
-343,15,0,0,0,0,0,0,0,0,0,-1,881,1009,0,0
-336,15,0,0,0,0,0,0,0,0,0,-1,888,1009,0,0
-329,15,0,0,0,0,0,0,0,0,0,-1,895,1009,0,0
-322,15,0,0,0,0,0,0,0,0,0,-1,902,1009,0,0
-315,15,0,0,0,0,0,0,0,0,0,-1,909,1009,0,0
-308,15,0,0,0,0,0,0,0,0,0,-1,916,1009,0,0
-301,15,0,0,0,0,0,0,0,0,0,-1,923,1009,0,0
-294,15,0,0,0,0,0,0,0,0,0,-1,930,1009,0,0
-287,15,0,0,0,0,0,0,0,0,0,-1,937,1009,0,0
-280,15,0,0,0,0,0,0,0,0,0,-1,944,1009,0,0
-273,15,0,0,0,0,0,0,0,0,0,-1,951,1009,0,0
-266,15,0,0,0,0,0,0,0,0,0,-1,958,1009,0,0
-259,15,0,0,0,0,0,0,0,0,0,-1,965,1009,0,0
-252,15,0,0,0,0,0,0,0,0,0,-1,972,1009,0,0
-245,15,0,0,0,0,0,0,0,0,0,-1,979,1009,0,0
-238,15,0,0,0,0,0,0,0,0,0,-1,986,1009,0,0
-231,15,0,0,0,0,0,0,0,0,0,-1,993,1009,0,0
-224,15,0,0,0,0,0,0,0,0,0,-1,1000,1009,0,0
-217,15,0,0,0,0,0,0,0,0,0,-1,1007,1009,0,0
-210,15,0,0,0,0,0,0,0,0,0,-1,1014,1009,0,0
-203,15,0,0,0,0,0,0,0,0,0,-1,1021,1009,0,0
-196,15,0,0,0,0,0,0,0,0,0,-1,1028,1009,0,0
-189,15,0,0,0,0,0,0,0,0,0,-1,1035,1009,0,0
-182,15,0,0,0,0,0,0,0,0,0,-1,1042,1009,0,0
-175,15,0,0,0,0,0,0,0,0,0,-1,1049,1009,0,0
-168,15,0,0,0,0,0,0,0,0,0,-1,1056,1009,0,0
-161,15,0,0,0,0,0,0,0,0,0,-1,1063,1009,0,0
-154,15,0,0,0,0,0,0,0,0,0,-1,1070,1009,0,0
-147,15,0,0,0,0,0,0,0,0,0,-1,1077,1009,0,0
-140,15,0,0,0,0,0,0,0,0,0,-1,1084,1009,0,0
-133,15,0,0,0,0,0,0,0,0,0,-1,1091,1009,0,0
-126,15,0,0,0,0,0,0,0,0,0,-1,1098,1009,0,0
-119,15,0,0,0,0,0,0,0,0,0,-1,1105,1009,0,0
-112,15,0,0,0,0,0,0,0,0,0,-1,1112,1009,0,0
-105,15,0,0,0,0,0,0,0,0,0,-1,1119,1009,0,0
-98,15,0,0,0,0,0,0,0,0,0,-1,1126,1009,0,0
-91,15,0,0,0,0,0,0,0,0,0,-1,1133,1009,0,0
-84,15,0,0,0,0,0,0,0,0,0,-1,1140,1009,0,0
-77,15,0,0,0,0,0,0,0,0,0,-1,1147,1009,0,0
-70,15,0,0,0,0,0,0,0,0,0,-1,1154,1009,0,0
-63,15,0,0,0,0,0,0,0,0,0,-1,1161,1009,0,0
-56,15,0,0,0,0,0,0,0,0,0,-1,1168,1009,0,0
-49,15,0,0,0,0,0,0,0,0,0,-1,1175,1009,0,0
-42,15,0,0,0,0,0,0,0,0,0,-1,1182,1009,0,0
-35,15,0,0,0,0,0,0,0,0,0,-1,1189,1009,0,0
-28,15,0,0,0,0,0,0,0,0,0,-1,1196,1009,0,0
-21,15,0,0,0,0,0,0,0,0,0,-1,1203,1009,0,0
-14,15,0,0,0,0,0,0,0,0,0,-1,1210,1009,0,0
-7,15,0,0,0,0,0,0,0,0,0,-1,1217,1009,0,0
0,15,0,0,0,0,0,0,0,0,0,-1,1224,1009,0,0
7,15,0,0,0,0,0,0,0,0,0,-1,1231,1009,0,0
14,15,0,0,0,0,0,0,0,0,0,-1,1238,1009,0,0
21,15,0,0,0,0,0,0,0,0,0,-1,1245,1009,0,0
28,15,0,0,0,0,0,0,0,0,0,-1,1252,1009,0,0
35,15,0,0,0,0,0,0,0,0,0,-1,1259,1009,0,0
42,15,0,0,0,0,0,0,0,0,0,-1,1266,1009,0,0
49,15,0,0,0,0,0,0,0,0,0,-1,1273,1009,0,0
56,15,0,0,0,0,0,0,0,0,0,-1,1280,1009,0,0
63,15,0,0,0,0,0,0,0,0,0,-1,1287,1009,0,0
70,15,0,0,0,0,0,0,0,0,0,-1,1294,1009,0,0
77,15,0,0,0,0,0,0,0,0,0,-1,1301,1009,0,0
84,15,0,0,0,0,0,0,0,0,0,-1,1308,1009,0,0
91,15,0,0,0,0,0,0,0,0,0,-1,1315,1009,0,0
98,15,0,0,0,0,0,0,0,0,0,-1,1322,1009,0,0
105,15,0,0,0,0,0,0,0,0,0,-1,1329,1009,0,0
112,15,0,0,0,0,0,0,0,0,0,-1,1336,1009,0,0
119,15,0,0,0,0,0,0,0,0,0,-1,1343,1009,0,0
126,15,0,0,0,0,0,0,0,0,0,-1,1350,1009,0,0
133,15,0,0,0,0,0,0,0,0,0,-1,1357,1009,0,0
140,15,0,0,0,0,0,0,0,0,0,-1,1364,1009,0,0
147,15,0,0,0,0,0,0,0,0,0,-1,1371,1009,0,0
154,15,0,0,0,0,0,0,0,0,0,-1,1378,1009,0,0
161,15,0,0,0,0,0,0,0,0,0,-1,1385,1009,0,0
168,15,0,0,0,0,0,0,0,0,0,-1,1392,1009,0,0
175,15,0,0,0,0,0,0,0,0,0,-1,1399,1009,0,0
182,15,0,0,0,0,0,0,0,0,0,-1,1406,1009,0,0
189,15,0,0,0,0,0,0,0,0,0,-1,1413,1009,0,0
196,15,0,0,0,0,0,0,0,0,0,-1,1420,1009,0,0
203,15,0,0,0,0,0,0,0,0,0,-1,1427,1009,0,0
210,15,0,0,0,0,0,0,0,0,0,-1,1434,1009,0,0
217,15,0,0,0,0,0,0,0,0,0,-1,1441,1009,0,0
224,15,0,0,0,0,0,0,0,0,0,-1,1448,1009,0,0
231,15,0,0,0,0,0,0,0,0,0,-1,1455,1009,0,0
238,15,0,0,0,0,0,0,0,0,0,-1,1462,1009,0,0
245,15,0,0,0,0,0,0,0,0,0,-1,1469,1009,0,0
252,15,0,0,0,0,0,0,0,0,0,-1,1476,1009,0,0
259,15,0,0,0,0,0,0,0,0,0,-1,1483,1009,0,0
266,15,0,0,0,0,0,0,0,0,0,-1,1490,1009,0,0
273,15,0,0,0,0,0,0,0,0,0,-1,1497,1009,0,0
280,15,0,0,0,0,0,0,0,0,0,-1,1504,1009,0,0
287,15,0,0,0,0,0,0,0,0,0,-1,1511,1009,0,0
294,15,0,0,0,0,0,0,0,0,0,-1,1518,1009,0,0
301,15,0,0,0,0,0,0,0,0,0,-1,1525,1009,0,0
308,15,0,0,0,0,0,0,0,0,0,-1,1532,1009,0,0
315,15,0,0,0,0,0,0,0,0,0,-1,1539,1009,0,0
322,15,0,0,0,0,0,0,0,0,0,-1,1546,1009,0,0
329,15,0,0,0,0,0,0,0,0,0,-1,1553,1009,0,0
336,15,0,0,0,0,0,0,0,0,0,-1,1560,1009,0,0
343,15,0,0,0,0,0,0,0,0,0,-1,1567,1009,0,0
350,15,0,0,0,0,0,0,0,0,0,-1,1574,1009,0,0
357,15,0,0,0,0,0,0,0,0,0,-1,1581,1009,0,0
364,15,0,0,0,0,0,0,0,0,0,-1,1588,1009,0,0
371,15,0,0,0,0,0,0,0,0,0,-1,1595,1009,0,0
378,15,0,0,0,0,0,0,0,0,0,-1,1602,1009,0,0
385,15,0,0,0,0,0,0,0,0,0,-1,1609,1009,0,0
392,15,0,0,0,0,0,0,0,0,0,-1,1616,1009,0,0
399,15,0,0,0,0,0,0,0,0,0,-1,1623,1009,0,0
406,15,0,0,0,0,0,0,0,0,0,-1,1630,1009,0,0
413,15,0,0,0,0,0,0,0,0,0,-1,1637,1009,0,0
420,15,0,0,0,0,0,0,0,0,0,-1,1644,1009,0,0
427,15,0,0,0,0,0,0,0,0,0,-1,1651,1009,0,0
434,15,0,0,0,0,0,0,0,0,0,-1,1658,1009,0,0
441,15,0,0,0,0,0,0,0,0,0,-1,1665,1009,0,0
448,15,0,0,0,0,0,0,0,0,0,-1,1672,1009,0,0
455,15,0,0,0,0,0,0,0,0,0,-1,1679,1009,0,0
462,15,0,0,0,0,0,0,0,0,0,-1,1686,1009,0,0
469,15,0,0,0,0,0,0,0,0,0,-1,1693,1009,0,0
476,15,0,0,0,0,0,0,0,0,0,-1,1700,1009,0,0
483,15,0,0,0,0,0,0,0,0,0,-1,1707,1009,0,0
490,15,0,0,0,0,0,0,0,0,0,-1,1714,1009,0,0
497,15,0,0,0,0,0,0,0,0,0,-1,1721,1009,0,0
504,15,0,0,0,0,0,0,0,0,0,-1,1728,1009,0,0
511,15,0,0,0,0,0,0,0,0,0,-1,1735,1009,0,0
518,15,0,0,0,0,0,0,0,0,0,-1,1742,1009,0,0
525,15,0,0,0,0,0,0,0,0,0,-1,1749,1009,0,0
532,15,0,0,0,0,0,0,0,0,0,-1,1756,1009,0,0
539,15,0,0,0,0,0,0,0,0,0,-1,1763,1009,0,0
546,15,0,0,0,0,0,0,0,0,0,-1,1770,1009,0,0
553,15,0,0,0,0,0,0,0,0,0,-1,1777,1009,0,0
560,15,0,0,0,0,0,0,0,0,0,-1,1784,1009,0,0
567,15,0,0,0,0,0,0,0,0,0,-1,1791,1009,0,0
574,15,0,0,0,0,0,0,0,0,0,-1,1798,1009,0,0
581,15,0,0,0,0,0,0,0,0,0,-1,1805,1009,0,0
588,15,0,0,0,0,0,0,0,0,0,-1,1812,1009,0,0
595,15,0,0,0,0,0,0,0,0,0,-1,1819,1009,0,0
602,15,0,0,0,0,0,0,0,0,0,-1,1826,1009,0,0
609,15,0,0,0,0,0,0,0,0,0,-1,1833,1009,0,0
616,15,0,0,0,0,0,0,0,0,0,-1,1840,1009,0,0
623,15,0,0,0,0,0,0,0,0,0,-1,1847,1009,0,0
630,15,0,0,0,0,0,0,0,0,0,-1,1854,1009,0,0
637,15,0,0,0,0,0,0,0,0,0,-1,1861,1009,0,0
644,15,83.0527,2.15662,0.00841258,0.001723,-0.000701306,0.00848531,0.00165027,-0.103339,0.00519491,0.0403496,1868,1009,83.0527,-2.15663
651,15,83.0975,2.16833,0.00630934,0.00140906,-0.000224735,0.00631963,0.00139878,-0.0457337,0.00383287,0.0419195,1875,1009,83.0976,-2.16836
658,15,83.1259,2.16498,0.00471051,0.00103792,5.55067e-05,0.00471135,0.00103708,0.0151092,0.00285862,0.0413865,1882,1009,83.1258,-2.16496
665,15,83.0791,2.32025,0.0033902,0.000771595,0.000264012,0.00341655,0.000745242,0.0994876,0.0020744,0.0384264,1889,1009,83.0791,-2.32025
672,15,83.0724,2.43085,0.0022582,0.000561942,0.000462394,0.00237606,0.000444084,0.249573,0.00145872,0.0390214,1896,1009,83.0724,-2.43085
679,15,83.1879,2.44135,0.00137327,0.000297468,0.000687541,0.00170832,-3.75863e-05,0.453454,0.00115161,0.0386848,1903,1009,83.1878,-2.44134
686,15,83.2498,2.49542,0.000680839,-0.000115537,0.000896617,0.00126371,-0.000698408,0.57643,0.00114839,0.0409543,1910,1009,83.2497,-2.49542
693,15,83.1989,2.45874,2.69024e-05,-0.000445832,0.00101901,0.000836599,-0.00125553,0.671435,0.00121594,0.0388003,1917,1009,83.1988,-2.45876
700,15,83.2177,2.35321,-0.000561048,-0.00067507,0.00101013,0.000393681,-0.0016298,0.757208,0.00123879,0.0321845,1924,1009,83.2177,-2.35324
707,15,83.203,2.39343,-0.00145016,-8.34212e-05,0.00084882,0.000322928,-0.00185651,1.12431,0.00135818,0.0290659,1931,1009,83.203,-2.39342
714,15,83.1798,2.46698,-0.00288449,0.0012945,0.000504633,0.00135457,-0.00294456,1.45231,0.00253806,0.0369759,1938,1009,83.1798,-2.467
721,15,83.0588,2.51801,0,0,0,0,0,0,0,-1,1945,1009,83.0589,-2.51803
728,15,83.5394,7.71619,0,0,0,0,0,0,0,-1,1952,1009,83.5394,-7.71622
735,15,83.4453,7.90881,0,0,0,0,0,0,0,-1,1959,1009,83.4454,-7.9088
742,15,83.6233,8.00232,0,0,0,0,0,0,0,-1,1966,1009,83.6233,-8.00231
749,15,83.4565,8.23224,-0.0102917,0.0146076,-0.00269653,0.0148963,-0.0105804,-1.46415,0.0147791,0.0321199,1973,1009,83.4566,-8.23221
756,15,83.4573,8.13666,-0.00976608,0.0192824,-0.0055711,0.0203143,-0.0107979,-1.38766,0.0182405,0.0219995,1980,1009,83.4572,-8.13668
763,15,83.3481,8.30444,-0.00732553,0.0255164,-0.0102368,0.0284459,-0.010255,-1.29207,0.0231521,0.0154876,1987,1009,83.3481,-8.30446
770,15,83.1216,8.32489,-0.00109977,0.0345986,-0.0180728,0.0421505,-0.00865173,-1.17499,0.0313843,0.0225941,1994,1009,83.1215,-8.32491
777,15,82.5828,8.39532,0.0102906,0.0454206,-0.0297017,0.0623625,-0.00665119,-1.05243,0.0439601,0.0495483,2001,1009,82.5827,-8.39533
784,15,82.1035,8.53467,0,0,0,0,0,0,0,-1,2008,1009,82.1036,-8.53467
791,15,77.2153,5.6933,0,0,0,0,0,0,0,-1,2015,1009,77.2154,-5.69328
798,15,76.228,7.3385,0,0,0,0,0,0,0,-1,2022,1009,76.228,-7.33848
805,15,76.9458,7.88257,0,0,0,0,0,0,0,-1,2029,1009,76.9457,-7.88254
812,15,76.5835,8.25714,0,0,0,0,0,0,0,-1,2036,1009,76.5836,-8.25712
-700,8,0,0,0,0,0,0,0,0,0,-1,524,1016,0,0
-693,8,-64.7491,0.138306,0,0,0,0,0,0,0,-1,531,1016,-64.7491,-0.138334
-686,8,-64.2523,3.81439,0,0,0,0,0,0,0,-1,538,1016,-64.2524,-3.81441
-679,8,-63.5828,7.08685,0,0,0,0,0,0,0,-1,545,1016,-63.5828,-7.08684
-672,8,-63.5015,5.07123,0,0,0,0,0,0,0,-1,552,1016,-63.5015,-5.07124
-665,8,-67.5996,6.2381,0,0,0,0,0,0,0,-1,559,1016,-67.5996,-6.23807
-658,8,-67.093,6.67358,0,0,0,0,0,0,0,-1,566,1016,-67.093,-6.67358
-651,8,-66.0091,7.37134,0,0,0,0,0,0,0,-1,573,1016,-66.0091,-7.37133
-644,8,-67.2775,7.64362,0,0,0,0,0,0,0,-1,580,1016,-67.2775,-7.64359
-637,8,-67.3025,7.7923,-0.0137594,0.0320165,0.00412695,0.0323856,-0.0141285,1.4816,0.0275358,0.0495937,587,1016,-67.3025,-7.79228
-630,8,-67.5402,7.91785,-0.0109975,0.0223974,0.00299473,0.0226638,-0.011264,1.48206,0.0199534,0.0297519,594,1016,-67.5402,-7.91784
-623,8,-67.5153,7.92371,-0.00889231,0.0150411,0.00203285,0.0152125,-0.00906375,1.48666,0.014165,0.0184328,601,1016,-67.5153,-7.92371
-616,8,-67.5818,7.83771,-0.0072865,0.00996118,0.00120518,0.010045,-0.0073703,1.50137,0.0100942,0.020583,608,1016,-67.5818,-7.83772
-609,8,-67.7013,7.71283,-0.00601333,0.00639487,0.000645491,0.00642835,-0.00604682,1.51896,0.00720367,0.0241774,615,1016,-67.7013,-7.71282
-602,8,-67.6395,7.74634,-0.00488434,0.0040742,0.000151706,0.00407677,-0.00488691,1.55387,0.00518223,0.028856,622,1016,-67.6394,-7.74631
-595,8,-67.6935,7.63965,0,0,0,0,0,0,0,-1,629,1016,-67.6935,-7.63966
-588,8,-66.2032,0.514099,0,0,0,0,0,0,0,-1,636,1016,-66.2032,-0.514069
-581,8,-66.2853,0.51709,-0.00233348,-0.000276466,-0.000894137,5.78577e-05,-0.00266781,-1.21299,0.00179813,0.0315324,643,1016,-66.2853,-0.517082
-574,8,-66.3006,0.4646,-0.00183806,-0.000671268,-0.00146447,0.000321736,-0.00283106,-0.974946,0.00200325,0.0365321,650,1016,-66.3006,-0.464611
-567,8,-66.2644,0.292908,-0.00156045,-0.000610287,-0.00177128,0.000748511,-0.00291925,-0.916422,0.0022378,0.0403986,657,1016,-66.2644,-0.292906
-560,8,-66.1496,0.534363,-0.00134335,-5.57043e-05,-0.00212479,0.00152066,-0.00291971,-0.932504,0.00260572,0.0413146,664,1016,-66.1496,-0.534371
-553,8,-66.2741,0.49707,-0.0013726,0.000785891,-0.00266519,0.00258206,-0.00316877,-0.977777,0.003326,0.0408296,671,1016,-66.2741,-0.49709
-546,8,-66.3354,0.523682,-0.00180393,0.00151218,-0.00352485,0.00374947,-0.00404123,-1.00524,0.00449901,0.0391529,678,1016,-66.3354,-0.523704
-539,8,-66.3926,0.561646,-0.00318923,0.00187333,-0.00479423,0.00476349,-0.00607939,-1.02829,0.00627548,0.0391362,685,1016,-66.3926,-0.561625
-532,8,-66.3163,0.497375,-0.00457561,0.00279041,-0.00644248,0.00652833,-0.00831352,-1.04506,0.00858958,0.042032,692,1016,-66.3163,-0.497353
-525,8,0,0,0,0,0,0,0,0,0,-1,699,1016,0,0
-518,8,0,0,0,0,0,0,0,0,0,-1,706,1016,0,0
-511,8,0,0,0,0,0,0,0,0,0,-1,713,1016,0,0
-504,8,0,0,0,0,0,0,0,0,0,-1,720,1016,0,0
-497,8,0,0,0,0,0,0,0,0,0,-1,727,1016,0,0
-490,8,0,0,0,0,0,0,0,0,0,-1,734,1016,0,0
-483,8,0,0,0,0,0,0,0,0,0,-1,741,1016,0,0
-476,8,0,0,0,0,0,0,0,0,0,-1,748,1016,0,0
-469,8,0,0,0,0,0,0,0,0,0,-1,755,1016,0,0
-462,8,0,0,0,0,0,0,0,0,0,-1,762,1016,0,0
-455,8,0,0,0,0,0,0,0,0,0,-1,769,1016,0,0
-448,8,0,0,0,0,0,0,0,0,0,-1,776,1016,0,0
-441,8,0,0,0,0,0,0,0,0,0,-1,783,1016,0,0
-434,8,0,0,0,0,0,0,0,0,0,-1,790,1016,0,0
-427,8,0,0,0,0,0,0,0,0,0,-1,797,1016,0,0
-420,8,0,0,0,0,0,0,0,0,0,-1,804,1016,0,0
-413,8,0,0,0,0,0,0,0,0,0,-1,811,1016,0,0
-406,8,0,0,0,0,0,0,0,0,0,-1,818,1016,0,0
-399,8,0,0,0,0,0,0,0,0,0,-1,825,1016,0,0
-392,8,0,0,0,0,0,0,0,0,0,-1,832,1016,0,0
-385,8,0,0,0,0,0,0,0,0,0,-1,839,1016,0,0
-378,8,0,0,0,0,0,0,0,0,0,-1,846,1016,0,0
-371,8,0,0,0,0,0,0,0,0,0,-1,853,1016,0,0
-364,8,0,0,0,0,0,0,0,0,0,-1,860,1016,0,0
-357,8,0,0,0,0,0,0,0,0,0,-1,867,1016,0,0
-350,8,0,0,0,0,0,0,0,0,0,-1,874,1016,0,0
-343,8,0,0,0,0,0,0,0,0,0,-1,881,1016,0,0
-336,8,0,0,0,0,0,0,0,0,0,-1,888,1016,0,0
-329,8,0,0,0,0,0,0,0,0,0,-1,895,1016,0,0
-322,8,0,0,0,0,0,0,0,0,0,-1,902,1016,0,0
-315,8,0,0,0,0,0,0,0,0,0,-1,909,1016,0,0
-308,8,0,0,0,0,0,0,0,0,0,-1,916,1016,0,0
-301,8,0,0,0,0,0,0,0,0,0,-1,923,1016,0,0
-294,8,0,0,0,0,0,0,0,0,0,-1,930,1016,0,0
-287,8,0,0,0,0,0,0,0,0,0,-1,937,1016,0,0
-280,8,0,0,0,0,0,0,0,0,0,-1,944,1016,0,0
-273,8,0,0,0,0,0,0,0,0,0,-1,951,1016,0,0
-266,8,0,0,0,0,0,0,0,0,0,-1,958,1016,0,0
-259,8,0,0,0,0,0,0,0,0,0,-1,965,1016,0,0
-252,8,0,0,0,0,0,0,0,0,0,-1,972,1016,0,0
-245,8,0,0,0,0,0,0,0,0,0,-1,979,1016,0,0
-238,8,0,0,0,0,0,0,0,0,0,-1,986,1016,0,0
-231,8,0,0,0,0,0,0,0,0,0,-1,993,1016,0,0
-224,8,0,0,0,0,0,0,0,0,0,-1,1000,1016,0,0
-217,8,0,0,0,0,0,0,0,0,0,-1,1007,1016,0,0
-210,8,0,0,0,0,0,0,0,0,0,-1,1014,1016,0,0
-203,8,0,0,0,0,0,0,0,0,0,-1,1021,1016,0,0
-196,8,0,0,0,0,0,0,0,0,0,-1,1028,1016,0,0
-189,8,0,0,0,0,0,0,0,0,0,-1,1035,1016,0,0
-182,8,0,0,0,0,0,0,0,0,0,-1,1042,1016,0,0
-175,8,0,0,0,0,0,0,0,0,0,-1,1049,1016,0,0
-168,8,0,0,0,0,0,0,0,0,0,-1,1056,1016,0,0
-161,8,0,0,0,0,0,0,0,0,0,-1,1063,1016,0,0
-154,8,0,0,0,0,0,0,0,0,0,-1,1070,1016,0,0
-147,8,0,0,0,0,0,0,0,0,0,-1,1077,1016,0,0
-140,8,0,0,0,0,0,0,0,0,0,-1,1084,1016,0,0
-133,8,0,0,0,0,0,0,0,0,0,-1,1091,1016,0,0
-126,8,0,0,0,0,0,0,0,0,0,-1,1098,1016,0,0
-119,8,0,0,0,0,0,0,0,0,0,-1,1105,1016,0,0
-112,8,0,0,0,0,0,0,0,0,0,-1,1112,1016,0,0
-105,8,0,0,0,0,0,0,0,0,0,-1,1119,1016,0,0
-98,8,0,0,0,0,0,0,0,0,0,-1,1126,1016,0,0
-91,8,0,0,0,0,0,0,0,0,0,-1,1133,1016,0,0
-84,8,0,0,0,0,0,0,0,0,0,-1,1140,1016,0,0
-77,8,0,0,0,0,0,0,0,0,0,-1,1147,1016,0,0
-70,8,0,0,0,0,0,0,0,0,0,-1,1154,1016,0,0
-63,8,0,0,0,0,0,0,0,0,0,-1,1161,1016,0,0
-56,8,0,0,0,0,0,0,0,0,0,-1,1168,1016,0,0
-49,8,0,0,0,0,0,0,0,0,0,-1,1175,1016,0,0
-42,8,0,0,0,0,0,0,0,0,0,-1,1182,1016,0,0
-35,8,0,0,0,0,0,0,0,0,0,-1,1189,1016,0,0
-28,8,0,0,0,0,0,0,0,0,0,-1,1196,1016,0,0
-21,8,0,0,0,0,0,0,0,0,0,-1,1203,1016,0,0
-14,8,0,0,0,0,0,0,0,0,0,-1,1210,1016,0,0
-7,8,0,0,0,0,0,0,0,0,0,-1,1217,1016,0,0
0,8,0,0,0,0,0,0,0,0,0,-1,1224,1016,0,0
7,8,0,0,0,0,0,0,0,0,0,-1,1231,1016,0,0
14,8,0,0,0,0,0,0,0,0,0,-1,1238,1016,0,0
21,8,0,0,0,0,0,0,0,0,0,-1,1245,1016,0,0
28,8,0,0,0,0,0,0,0,0,0,-1,1252,1016,0,0
35,8,0,0,0,0,0,0,0,0,0,-1,1259,1016,0,0
42,8,0,0,0,0,0,0,0,0,0,-1,1266,1016,0,0
49,8,0,0,0,0,0,0,0,0,0,-1,1273,1016,0,0
56,8,0,0,0,0,0,0,0,0,0,-1,1280,1016,0,0
63,8,0,0,0,0,0,0,0,0,0,-1,1287,1016,0,0
70,8,0,0,0,0,0,0,0,0,0,-1,1294,1016,0,0
77,8,0,0,0,0,0,0,0,0,0,-1,1301,1016,0,0
84,8,0,0,0,0,0,0,0,0,0,-1,1308,1016,0,0
91,8,0,0,0,0,0,0,0,0,0,-1,1315,1016,0,0
98,8,0,0,0,0,0,0,0,0,0,-1,1322,1016,0,0
105,8,0,0,0,0,0,0,0,0,0,-1,1329,1016,0,0
112,8,0,0,0,0,0,0,0,0,0,-1,1336,1016,0,0
119,8,0,0,0,0,0,0,0,0,0,-1,1343,1016,0,0
126,8,0,0,0,0,0,0,0,0,0,-1,1350,1016,0,0
133,8,0,0,0,0,0,0,0,0,0,-1,1357,1016,0,0
140,8,0,0,0,0,0,0,0,0,0,-1,1364,1016,0,0
147,8,0,0,0,0,0,0,0,0,0,-1,1371,1016,0,0
154,8,0,0,0,0,0,0,0,0,0,-1,1378,1016,0,0
161,8,0,0,0,0,0,0,0,0,0,-1,1385,1016,0,0
168,8,0,0,0,0,0,0,0,0,0,-1,1392,1016,0,0
175,8,0,0,0,0,0,0,0,0,0,-1,1399,1016,0,0
182,8,0,0,0,0,0,0,0,0,0,-1,1406,1016,0,0
189,8,0,0,0,0,0,0,0,0,0,-1,1413,1016,0,0
196,8,0,0,0,0,0,0,0,0,0,-1,1420,1016,0,0
203,8,0,0,0,0,0,0,0,0,0,-1,1427,1016,0,0
210,8,0,0,0,0,0,0,0,0,0,-1,1434,1016,0,0
217,8,0,0,0,0,0,0,0,0,0,-1,1441,1016,0,0
224,8,0,0,0,0,0,0,0,0,0,-1,1448,1016,0,0
231,8,0,0,0,0,0,0,0,0,0,-1,1455,1016,0,0
238,8,0,0,0,0,0,0,0,0,0,-1,1462,1016,0,0
245,8,0,0,0,0,0,0,0,0,0,-1,1469,1016,0,0
252,8,0,0,0,0,0,0,0,0,0,-1,1476,1016,0,0
259,8,0,0,0,0,0,0,0,0,0,-1,1483,1016,0,0
266,8,0,0,0,0,0,0,0,0,0,-1,1490,1016,0,0
273,8,0,0,0,0,0,0,0,0,0,-1,1497,1016,0,0
280,8,0,0,0,0,0,0,0,0,0,-1,1504,1016,0,0
287,8,0,0,0,0,0,0,0,0,0,-1,1511,1016,0,0
294,8,0,0,0,0,0,0,0,0,0,-1,1518,1016,0,0
301,8,0,0,0,0,0,0,0,0,0,-1,1525,1016,0,0
308,8,0,0,0,0,0,0,0,0,0,-1,1532,1016,0,0
315,8,0,0,0,0,0,0,0,0,0,-1,1539,1016,0,0
322,8,0,0,0,0,0,0,0,0,0,-1,1546,1016,0,0
329,8,0,0,0,0,0,0,0,0,0,-1,1553,1016,0,0
336,8,0,0,0,0,0,0,0,0,0,-1,1560,1016,0,0
343,8,0,0,0,0,0,0,0,0,0,-1,1567,1016,0,0
350,8,0,0,0,0,0,0,0,0,0,-1,1574,1016,0,0
357,8,0,0,0,0,0,0,0,0,0,-1,1581,1016,0,0
364,8,0,0,0,0,0,0,0,0,0,-1,1588,1016,0,0
371,8,0,0,0,0,0,0,0,0,0,-1,1595,1016,0,0
378,8,0,0,0,0,0,0,0,0,0,-1,1602,1016,0,0
385,8,0,0,0,0,0,0,0,0,0,-1,1609,1016,0,0
392,8,0,0,0,0,0,0,0,0,0,-1,1616,1016,0,0
399,8,0,0,0,0,0,0,0,0,0,-1,1623,1016,0,0
406,8,0,0,0,0,0,0,0,0,0,-1,1630,1016,0,0
413,8,0,0,0,0,0,0,0,0,0,-1,1637,1016,0,0
420,8,0,0,0,0,0,0,0,0,0,-1,1644,1016,0,0
427,8,0,0,0,0,0,0,0,0,0,-1,1651,1016,0,0
434,8,0,0,0,0,0,0,0,0,0,-1,1658,1016,0,0
441,8,0,0,0,0,0,0,0,0,0,-1,1665,1016,0,0
448,8,0,0,0,0,0,0,0,0,0,-1,1672,1016,0,0
455,8,0,0,0,0,0,0,0,0,0,-1,1679,1016,0,0
462,8,0,0,0,0,0,0,0,0,0,-1,1686,1016,0,0
469,8,0,0,0,0,0,0,0,0,0,-1,1693,1016,0,0
476,8,0,0,0,0,0,0,0,0,0,-1,1700,1016,0,0
483,8,0,0,0,0,0,0,0,0,0,-1,1707,1016,0,0
490,8,0,0,0,0,0,0,0,0,0,-1,1714,1016,0,0
497,8,0,0,0,0,0,0,0,0,0,-1,1721,1016,0,0
504,8,0,0,0,0,0,0,0,0,0,-1,1728,1016,0,0
511,8,0,0,0,0,0,0,0,0,0,-1,1735,1016,0,0
518,8,0,0,0,0,0,0,0,0,0,-1,1742,1016,0,0
525,8,0,0,0,0,0,0,0,0,0,-1,1749,1016,0,0
532,8,0,0,0,0,0,0,0,0,0,-1,1756,1016,0,0
539,8,0,0,0,0,0,0,0,0,0,-1,1763,1016,0,0
546,8,0,0,0,0,0,0,0,0,0,-1,1770,1016,0,0
553,8,0,0,0,0,0,0,0,0,0,-1,1777,1016,0,0
560,8,0,0,0,0,0,0,0,0,0,-1,1784,1016,0,0
567,8,0,0,0,0,0,0,0,0,0,-1,1791,1016,0,0
574,8,0,0,0,0,0,0,0,0,0,-1,1798,1016,0,0
581,8,0,0,0,0,0,0,0,0,0,-1,1805,1016,0,0
588,8,0,0,0,0,0,0,0,0,0,-1,1812,1016,0,0
595,8,0,0,0,0,0,0,0,0,0,-1,1819,1016,0,0
602,8,0,0,0,0,0,0,0,0,0,-1,1826,1016,0,0
609,8,0,0,0,0,0,0,0,0,0,-1,1833,1016,0,0
616,8,0,0,0,0,0,0,0,0,0,-1,1840,1016,0,0
623,8,0,0,0,0,0,0,0,0,0,-1,1847,1016,0,0
630,8,0,0,0,0,0,0,0,0,0,-1,1854,1016,0,0
637,8,0,0,0,0,0,0,0,0,0,-1,1861,1016,0,0
644,8,82.9812,2.32959,0.0090903,0.00142717,0.0001982,0.00909542,0.00142205,0.0258411,0.00564957,0.043784,1868,1016,82.9812,-2.32958
651,8,83.2172,2.1983,0.0066279,0.00122582,0.000476873,0.00666967,0.00118404,0.0873755,0.00410903,0.0426243,1875,1016,83.2172,-2.19832
658,8,83.1395,2.28259,0.00481456,0.000963316,0.000576774,0.00489908,0.000878792,0.145511,0.00301611,0.0398601,1882,1016,83.1396,-2.28256
665,8,83.0585,2.41608,0.00335486,0.000775896,0.000651561,0.00351013,0.000620631,0.233935,0.00216309,0.041017,1889,1016,83.0585,-2.41605
672,8,83.1138,2.44122,0.00215733,0.000650464,0.00074938,0.00246655,0.000341243,0.391351,0.00154325,0.043206,1896,1016,83.1137,-2.4412
679,8,83.1589,2.32794,0.00123974,0.000490887,0.0008875,0.00182857,-9.79361e-05,0.585781,0.00125297,0.0387712,1903,1016,83.159,-2.32796
686,8,83.1531,2.32562,0.000506106,0.000164155,0.00106409,0.00141287,-0.000742609,0.70574,0.00126436,0.0406023,1910,1016,83.1531,-2.32565
693,8,83.1307,2.36615,-0.000155366,-0.000121281,0.0012035,0.0010653,-0.00134195,0.792478,0.00139288,0.0388477,1917,1016,83.1307,-2.36617
700,8,83.2222,2.31519,-0.00069995,-0.000371281,0.00124588,0.000721058,-0.00179229,0.850971,0.00149437,0.0301412,1924,1016,83.2221,-2.31519
707,8,83.2212,2.32434,-0.00158121,0.000208917,0.00114517,0.00076732,-0.00213961,1.11711,0.00173954,0.0246995,1931,1016,83.2212,-2.32434
714,8,83.2103,2.328,-0.00303076,0.0015969,0.000856399,0.0017503,-0.00318416,1.39355,0.00288873,0.0315225,1938,1016,83.2104,-2.32799
721,8,83.1854,2.41815,0,0,0,0,0,0,0,-1,1945,1016,83.1854,-2.41818
728,8,52.1681,5.36774,0,0,0,0,0,0,0,-1,1952,1016,52.168,-5.36773
735,8,83.5233,8.06665,0,0,0,0,0,0,0,-1,1959,1016,83.5233,-8.06666
742,8,81.3546,8.25195,0,0,0,0,0,0,0,-1,1966,1016,81.3546,-8.25195
749,8,83.7109,8.31128,0,0,0,0,0,0,0,-1,1973,1016,83.7109,-8.3113
756,8,83.6121,8.13629,0,0,0,0,0,0,0,-1,1980,1016,83.612,-8.1363
763,8,83.4683,8.08356,-0.00753041,0.0252023,-0.00999326,0.028012,-0.0103402,-1.29671,0.0229128,0.0172875,1987,1016,83.4684,-8.08354
770,8,83.2861,8.0426,-0.00124528,0.0340537,-0.0182949,0.0418249,-0.00901643,-1.16912,0.0313243,0.0234065,1994,1016,83.2861,-8.04261
777,8,82.8818,8.04736,0.0108126,0.0451039,-0.0310918,0.0634642,-0.00754766,-1.03738,0.0450367,0.03809,2001,1016,82.8818,-8.04736
784,8,82.4773,8.03003,0,0,0,0,0,0,0,-1,2008,1016,82.4772,-8.03004
791,8,80.6008,7.35516,0,0,0,0,0,0,0,-1,2015,1016,80.6009,-7.35515
798,8,79.4893,8.18854,0,0,0,0,0,0,0,-1,2022,1016,79.4892,-8.18856
805,8,81.541,6.34625,0,0,0,0,0,0,0,-1,2029,1016,81.5409,-6.34626
812,8,82.2876,4.81787,0,0,0,0,0,0,0,-1,2036,1016,82.2877,-4.81785
-700,1,0,0,0,0,0,0,0,0,0,-1,524,1023,0,0
-693,1,-64.7999,0.317383,0,0,0,0,0,0,0,-1,531,1023,-64.7999,-0.317397
-686,1,-64.6177,2.70496,0,0,0,0,0,0,0,-1,538,1023,-64.6177,-2.70493
-679,1,-64.7328,5.33777,0,0,0,0,0,0,0,-1,545,1023,-64.7328,-5.33775
-672,1,-67.6211,6.46521,0,0,0,0,0,0,0,-1,552,1023,-67.6211,-6.46518
-665,1,-66.9445,6.54993,0,0,0,0,0,0,0,-1,559,1023,-66.9445,-6.54995
-658,1,-66.4612,6.88458,0,0,0,0,0,0,0,-1,566,1023,-66.4612,-6.88459
-651,1,-66.2375,7.28052,0,0,0,0,0,0,0,-1,573,1023,-66.2375,-7.28049
-644,1,-67.0797,7.82312,0,0,0,0,0,0,0,-1,580,1023,-67.0797,-7.82311
-637,1,-67.291,7.69513,-0.0141382,0.0315882,0.00407113,0.0319479,-0.0144978,1.48269,0.027439,0.0475129,587,1023,-67.291,-7.69512
-630,1,-67.644,7.68207,-0.0110216,0.021776,0.00262983,0.0219855,-0.0112312,1.49129,0.0195098,0.0408411,594,1023,-67.644,-7.68209
-623,1,-67.4964,7.81445,-0.00871116,0.0144209,0.00147194,0.0145142,-0.00880445,1.5075,0.0135969,0.0200532,601,1023,-67.4964,-7.81447
-616,1,-67.6804,7.67957,-0.00698899,0.00936092,0.000544298,0.00937902,-0.00700709,1.53755,0.00949351,0.0265793,608,1023,-67.6804,-7.67954
-609,1,-67.7361,7.72833,-0.00564395,0.00577335,-5.94853e-05,0.00577366,-0.00564426,-1.56559,0.00659228,0.0292707,615,1023,-67.7361,-7.72833
-602,1,-67.4957,7.86902,-0.00451049,0.00346786,-0.000521213,0.00350176,-0.0045444,-1.50584,0.00465844,0.018907,622,1023,-67.4957,-7.86903
-595,1,-67.5809,7.86316,0,0,0,0,0,0,0,-1,629,1023,-67.5809,-7.86313
-588,1,-66.2133,0.49823,0,0,0,0,0,0,0,-1,636,1023,-66.2133,-0.498205
-581,1,-66.2967,0.497742,-0.00211072,-0.000861165,-0.00137808,2.71482e-05,-0.00299903,-0.998224,0.00200846,0.0306628,643,1023,-66.2967,-0.497718
-574,1,-66.3055,0.468689,-0.00170699,-0.0013011,-0.00177174,0.000279276,-0.00328737,-0.842423,0.00229035,0.0375169,650,1023,-66.3055,-0.468695
-567,1,-66.3191,0.270569,-0.0015612,-0.00125017,-0.00191427,0.000514889,-0.00332626,-0.82593,0.00240756,0.044079,657,1023,-66.3191,-0.270597
-560,1,-66.2424,0.413818,-0.00151689,-0.0007076,-0.00205429,0.000981516,-0.00320601,-0.882641,0.00252882,0.0437755,664,1023,-66.2423,-0.413828
-553,1,-66.2545,0.463928,-0.00176404,0.000106205,-0.00232122,0.00167359,-0.00333142,-0.976882,0.00294201,0.040196,671,1023,-66.2545,-0.463931
-546,1,-66.276,0.528198,-0.00243059,0.000764598,-0.00285942,0.00244246,-0.00410845,-1.04015,0.00382272,0.0380749,678,1023,-66.276,-0.52819
-539,1,-66.3005,0.484131,-0.0040207,0.0010692,-0.00381181,0.00310755,-0.00605905,-1.07974,0.00538301,0.0377041,685,1023,-66.3005,-0.484106
-532,1,-66.2473,0.532837,-0.00567926,0.00183861,-0.00518778,0.00448613,-0.00832678,-1.09891,0.0075075,0.0426477,692,1023,-66.2473,-0.532857
-525,1,0,0,0,0,0,0,0,0,0,-1,699,1023,0,0
-518,1,0,0,0,0,0,0,0,0,0,-1,706,1023,0,0
-511,1,0,0,0,0,0,0,0,0,0,-1,713,1023,0,0
-504,1,0,0,0,0,0,0,0,0,0,-1,720,1023,0,0
-497,1,0,0,0,0,0,0,0,0,0,-1,727,1023,0,0
-490,1,0,0,0,0,0,0,0,0,0,-1,734,1023,0,0
-483,1,0,0,0,0,0,0,0,0,0,-1,741,1023,0,0
-476,1,0,0,0,0,0,0,0,0,0,-1,748,1023,0,0
-469,1,0,0,0,0,0,0,0,0,0,-1,755,1023,0,0
-462,1,0,0,0,0,0,0,0,0,0,-1,762,1023,0,0
-455,1,0,0,0,0,0,0,0,0,0,-1,769,1023,0,0
-448,1,0,0,0,0,0,0,0,0,0,-1,776,1023,0,0
-441,1,0,0,0,0,0,0,0,0,0,-1,783,1023,0,0
-434,1,0,0,0,0,0,0,0,0,0,-1,790,1023,0,0
-427,1,0,0,0,0,0,0,0,0,0,-1,797,1023,0,0
-420,1,0,0,0,0,0,0,0,0,0,-1,804,1023,0,0
-413,1,0,0,0,0,0,0,0,0,0,-1,811,1023,0,0
-406,1,0,0,0,0,0,0,0,0,0,-1,818,1023,0,0
-399,1,0,0,0,0,0,0,0,0,0,-1,825,1023,0,0
-392,1,0,0,0,0,0,0,0,0,0,-1,832,1023,0,0
-385,1,0,0,0,0,0,0,0,0,0,-1,839,1023,0,0
-378,1,0,0,0,0,0,0,0,0,0,-1,846,1023,0,0
-371,1,0,0,0,0,0,0,0,0,0,-1,853,1023,0,0
-364,1,0,0,0,0,0,0,0,0,0,-1,860,1023,0,0
-357,1,0,0,0,0,0,0,0,0,0,-1,867,1023,0,0
-350,1,0,0,0,0,0,0,0,0,0,-1,874,1023,0,0
-343,1,0,0,0,0,0,0,0,0,0,-1,881,1023,0,0
-336,1,0,0,0,0,0,0,0,0,0,-1,888,1023,0,0
-329,1,0,0,0,0,0,0,0,0,0,-1,895,1023,0,0
-322,1,0,0,0,0,0,0,0,0,0,-1,902,1023,0,0
-315,1,0,0,0,0,0,0,0,0,0,-1,909,1023,0,0
-308,1,0,0,0,0,0,0,0,0,0,-1,916,1023,0,0
-301,1,0,0,0,0,0,0,0,0,0,-1,923,1023,0,0
-294,1,0,0,0,0,0,0,0,0,0,-1,930,1023,0,0
-287,1,0,0,0,0,0,0,0,0,0,-1,937,1023,0,0
-280,1,0,0,0,0,0,0,0,0,0,-1,944,1023,0,0
-273,1,0,0,0,0,0,0,0,0,0,-1,951,1023,0,0
-266,1,0,0,0,0,0,0,0,0,0,-1,958,1023,0,0
-259,1,0,0,0,0,0,0,0,0,0,-1,965,1023,0,0
-252,1,0,0,0,0,0,0,0,0,0,-1,972,1023,0,0
-245,1,0,0,0,0,0,0,0,0,0,-1,979,1023,0,0
-238,1,0,0,0,0,0,0,0,0,0,-1,986,1023,0,0
-231,1,0,0,0,0,0,0,0,0,0,-1,993,1023,0,0
-224,1,0,0,0,0,0,0,0,0,0,-1,1000,1023,0,0
-217,1,0,0,0,0,0,0,0,0,0,-1,1007,1023,0,0
-210,1,0,0,0,0,0,0,0,0,0,-1,1014,1023,0,0
-203,1,0,0,0,0,0,0,0,0,0,-1,1021,1023,0,0
-196,1,0,0,0,0,0,0,0,0,0,-1,1028,1023,0,0
-189,1,0,0,0,0,0,0,0,0,0,-1,1035,1023,0,0
-182,1,0,0,0,0,0,0,0,0,0,-1,1042,1023,0,0
-175,1,0,0,0,0,0,0,0,0,0,-1,1049,1023,0,0
-168,1,0,0,0,0,0,0,0,0,0,-1,1056,1023,0,0
-161,1,0,0,0,0,0,0,0,0,0,-1,1063,1023,0,0
-154,1,0,0,0,0,0,0,0,0,0,-1,1070,1023,0,0
-147,1,0,0,0,0,0,0,0,0,0,-1,1077,1023,0,0
-140,1,0,0,0,0,0,0,0,0,0,-1,1084,1023,0,0
-133,1,0,0,0,0,0,0,0,0,0,-1,1091,1023,0,0
-126,1,0,0,0,0,0,0,0,0,0,-1,1098,1023,0,0
-119,1,0,0,0,0,0,0,0,0,0,-1,1105,1023,0,0
-112,1,0,0,0,0,0,0,0,0,0,-1,1112,1023,0,0
-105,1,0,0,0,0,0,0,0,0,0,-1,1119,1023,0,0
-98,1,0,0,0,0,0,0,0,0,0,-1,1126,1023,0,0
-91,1,0,0,0,0,0,0,0,0,0,-1,1133,1023,0,0
-84,1,0,0,0,0,0,0,0,0,0,-1,1140,1023,0,0
-77,1,0,0,0,0,0,0,0,0,0,-1,1147,1023,0,0
-70,1,0,0,0,0,0,0,0,0,0,-1,1154,1023,0,0
-63,1,0,0,0,0,0,0,0,0,0,-1,1161,1023,0,0
-56,1,0,0,0,0,0,0,0,0,0,-1,1168,1023,0,0
-49,1,0,0,0,0,0,0,0,0,0,-1,1175,1023,0,0
-42,1,0,0,0,0,0,0,0,0,0,-1,1182,1023,0,0
-35,1,0,0,0,0,0,0,0,0,0,-1,1189,1023,0,0
-28,1,0,0,0,0,0,0,0,0,0,-1,1196,1023,0,0
-21,1,0,0,0,0,0,0,0,0,0,-1,1203,1023,0,0
-14,1,0,0,0,0,0,0,0,0,0,-1,1210,1023,0,0
-7,1,0,0,0,0,0,0,0,0,0,-1,1217,1023,0,0
0,1,0,0,0,0,0,0,0,0,0,-1,1224,1023,0,0
7,1,0,0,0,0,0,0,0,0,0,-1,1231,1023,0,0
14,1,0,0,0,0,0,0,0,0,0,-1,1238,1023,0,0
21,1,0,0,0,0,0,0,0,0,0,-1,1245,1023,0,0
28,1,0,0,0,0,0,0,0,0,0,-1,1252,1023,0,0
35,1,0,0,0,0,0,0,0,0,0,-1,1259,1023,0,0
42,1,0,0,0,0,0,0,0,0,0,-1,1266,1023,0,0
49,1,0,0,0,0,0,0,0,0,0,-1,1273,1023,0,0
56,1,0,0,0,0,0,0,0,0,0,-1,1280,1023,0,0
63,1,0,0,0,0,0,0,0,0,0,-1,1287,1023,0,0
70,1,0,0,0,0,0,0,0,0,0,-1,1294,1023,0,0
77,1,0,0,0,0,0,0,0,0,0,-1,1301,1023,0,0
84,1,0,0,0,0,0,0,0,0,0,-1,1308,1023,0,0
91,1,0,0,0,0,0,0,0,0,0,-1,1315,1023,0,0
98,1,0,0,0,0,0,0,0,0,0,-1,1322,1023,0,0
105,1,0,0,0,0,0,0,0,0,0,-1,1329,1023,0,0
112,1,0,0,0,0,0,0,0,0,0,-1,1336,1023,0,0
119,1,0,0,0,0,0,0,0,0,0,-1,1343,1023,0,0
126,1,0,0,0,0,0,0,0,0,0,-1,1350,1023,0,0
133,1,0,0,0,0,0,0,0,0,0,-1,1357,1023,0,0
140,1,0,0,0,0,0,0,0,0,0,-1,1364,1023,0,0
147,1,0,0,0,0,0,0,0,0,0,-1,1371,1023,0,0
154,1,0,0,0,0,0,0,0,0,0,-1,1378,1023,0,0
161,1,0,0,0,0,0,0,0,0,0,-1,1385,1023,0,0
168,1,0,0,0,0,0,0,0,0,0,-1,1392,1023,0,0
175,1,0,0,0,0,0,0,0,0,0,-1,1399,1023,0,0
182,1,0,0,0,0,0,0,0,0,0,-1,1406,1023,0,0
189,1,0,0,0,0,0,0,0,0,0,-1,1413,1023,0,0
196,1,0,0,0,0,0,0,0,0,0,-1,1420,1023,0,0
203,1,0,0,0,0,0,0,0,0,0,-1,1427,1023,0,0
210,1,0,0,0,0,0,0,0,0,0,-1,1434,1023,0,0
217,1,0,0,0,0,0,0,0,0,0,-1,1441,1023,0,0
224,1,0,0,0,0,0,0,0,0,0,-1,1448,1023,0,0
231,1,0,0,0,0,0,0,0,0,0,-1,1455,1023,0,0
238,1,0,0,0,0,0,0,0,0,0,-1,1462,1023,0,0
245,1,0,0,0,0,0,0,0,0,0,-1,1469,1023,0,0
252,1,0,0,0,0,0,0,0,0,0,-1,1476,1023,0,0
259,1,0,0,0,0,0,0,0,0,0,-1,1483,1023,0,0
266,1,0,0,0,0,0,0,0,0,0,-1,1490,1023,0,0
273,1,0,0,0,0,0,0,0,0,0,-1,1497,1023,0,0
280,1,0,0,0,0,0,0,0,0,0,-1,1504,1023,0,0
287,1,0,0,0,0,0,0,0,0,0,-1,1511,1023,0,0
294,1,0,0,0,0,0,0,0,0,0,-1,1518,1023,0,0
301,1,0,0,0,0,0,0,0,0,0,-1,1525,1023,0,0
308,1,0,0,0,0,0,0,0,0,0,-1,1532,1023,0,0
315,1,0,0,0,0,0,0,0,0,0,-1,1539,1023,0,0
322,1,0,0,0,0,0,0,0,0,0,-1,1546,1023,0,0
329,1,0,0,0,0,0,0,0,0,0,-1,1553,1023,0,0
336,1,0,0,0,0,0,0,0,0,0,-1,1560,1023,0,0
343,1,0,0,0,0,0,0,0,0,0,-1,1567,1023,0,0
350,1,0,0,0,0,0,0,0,0,0,-1,1574,1023,0,0
357,1,0,0,0,0,0,0,0,0,0,-1,1581,1023,0,0
364,1,0,0,0,0,0,0,0,0,0,-1,1588,1023,0,0
371,1,0,0,0,0,0,0,0,0,0,-1,1595,1023,0,0
378,1,0,0,0,0,0,0,0,0,0,-1,1602,1023,0,0
385,1,0,0,0,0,0,0,0,0,0,-1,1609,1023,0,0
392,1,0,0,0,0,0,0,0,0,0,-1,1616,1023,0,0
399,1,0,0,0,0,0,0,0,0,0,-1,1623,1023,0,0
406,1,0,0,0,0,0,0,0,0,0,-1,1630,1023,0,0
413,1,0,0,0,0,0,0,0,0,0,-1,1637,1023,0,0
420,1,0,0,0,0,0,0,0,0,0,-1,1644,1023,0,0
427,1,0,0,0,0,0,0,0,0,0,-1,1651,1023,0,0
434,1,0,0,0,0,0,0,0,0,0,-1,1658,1023,0,0
441,1,0,0,0,0,0,0,0,0,0,-1,1665,1023,0,0
448,1,0,0,0,0,0,0,0,0,0,-1,1672,1023,0,0
455,1,0,0,0,0,0,0,0,0,0,-1,1679,1023,0,0
462,1,0,0,0,0,0,0,0,0,0,-1,1686,1023,0,0
469,1,0,0,0,0,0,0,0,0,0,-1,1693,1023,0,0
476,1,0,0,0,0,0,0,0,0,0,-1,1700,1023,0,0
483,1,0,0,0,0,0,0,0,0,0,-1,1707,1023,0,0
490,1,0,0,0,0,0,0,0,0,0,-1,1714,1023,0,0
497,1,0,0,0,0,0,0,0,0,0,-1,1721,1023,0,0
504,1,0,0,0,0,0,0,0,0,0,-1,1728,1023,0,0
511,1,0,0,0,0,0,0,0,0,0,-1,1735,1023,0,0
518,1,0,0,0,0,0,0,0,0,0,-1,1742,1023,0,0
525,1,0,0,0,0,0,0,0,0,0,-1,1749,1023,0,0
532,1,0,0,0,0,0,0,0,0,0,-1,1756,1023,0,0
539,1,0,0,0,0,0,0,0,0,0,-1,1763,1023,0,0
546,1,0,0,0,0,0,0,0,0,0,-1,1770,1023,0,0
553,1,0,0,0,0,0,0,0,0,0,-1,1777,1023,0,0
560,1,0,0,0,0,0,0,0,0,0,-1,1784,1023,0,0
567,1,0,0,0,0,0,0,0,0,0,-1,1791,1023,0,0
574,1,0,0,0,0,0,0,0,0,0,-1,1798,1023,0,0
581,1,0,0,0,0,0,0,0,0,0,-1,1805,1023,0,0
588,1,0,0,0,0,0,0,0,0,0,-1,1812,1023,0,0
595,1,0,0,0,0,0,0,0,0,0,-1,1819,1023,0,0
602,1,0,0,0,0,0,0,0,0,0,-1,1826,1023,0,0
609,1,0,0,0,0,0,0,0,0,0,-1,1833,1023,0,0
616,1,0,0,0,0,0,0,0,0,0,-1,1840,1023,0,0
623,1,0,0,0,0,0,0,0,0,0,-1,1847,1023,0,0
630,1,0,0,0,0,0,0,0,0,0,-1,1854,1023,0,0
637,1,0,0,0,0,0,0,0,0,0,-1,1861,1023,0,0
644,1,0,0,0,0,0,0,0,0,0,-1,1868,1023,0,0
651,1,83.1176,2.26581,0.00609398,0.000647751,0.00107922,0.00630004,0.000441689,0.188665,0.00406081,0.0396415,1875,1023,83.1176,-2.2658
658,1,83.2471,2.32013,0.00430584,0.000554057,0.00102304,0.00456668,0.000293225,0.249638,0.00295157,0.040918,1882,1023,83.2471,-2.32011
665,1,83.2861,2.38263,0.00290049,0.000507649,0.00098105,0.00325128,0.000156852,0.343405,0.00211718,0.0431199,1889,1023,83.2862,-2.3826
672,1,83.2944,2.47363,0.00178567,0.000512808,0.000995847,0.00233109,-3.26047e-05,0.501066,0.00156504,0.0440536,1896,1023,83.2944,-2.47364
679,1,83.2686,2.42212,0.000928385,0.000498258,0.00106416,0.00179899,-0.000372352,0.685692,0.00134079,0.0398683,1903,1023,83.2685,-2.42215
686,1,83.183,2.33856,0.00020135,0.000283726,0.00122325,0.00146649,-0.000981409,0.802227,0.00142251,0.0411001,1910,1023,83.183,-2.33854
693,1,83.2102,2.42096,-0.000448646,6.77531e-05,0.00138041,0.0012139,-0.0015948,0.877852,0.00162657,0.0368747,1917,1023,83.2103,-2.42097
700,1,83.2338,2.4281,-0.000957172,-0.000191877,0.00147427,0.00094859,-0.00209764,0.912372,0.00179996,0.0297067,1924,1023,83.2337,-2.42809
707,1,83.194,2.41119,-0.00183243,0.000340486,0.00145181,0.00106735,-0.00255929,1.10662,0.00215209,0.026149,1931,1023,83.1939,-2.41117
714,1,83.1914,2.3952,-0.00326721,0.00167714,0.00122979,0.00196613,-0.0035562,1.33999,0.00323208,0.0294423,1938,1023,83.1914,-2.39518
721,1,83.2034,2.43018,0,0,0,0,0,0,0,-1,1945,1023,83.2033,-2.4302
728,1,52.4639,5.59277,0,0,0,0,0,0,0,-1,1952,1023,52.4639,-5.59276
735,1,53.3617,6.10699,0,0,0,0,0,0,0,-1,1959,1023,53.3617,-6.10698
742,1,52.4393,5.81525,0,0,0,0,0,0,0,-1,1966,1023,52.4393,-5.81527
749,1,82.8113,7.83478,0,0,0,0,0,0,0,-1,1973,1023,82.8112,-7.8348
756,1,83.5635,8.08545,0,0,0,0,0,0,0,-1,1980,1023,83.5636,-8.08544
763,1,83.4326,7.94788,-0.00800076,0.0245976,-0.00964741,0.0272387,-0.0106419,-1.30358,0.0225593,0.0183477,1987,1023,83.4327,-7.9479
770,1,83.3271,7.85675,-0.00212522,0.0330375,-0.0179878,0.040609,-0.00969672,-1.17238,0.0308177,0.0204797,1994,1023,83.3272,-7.85672
777,1,83.0034,7.69891,0.00982293,0.0440211,-0.0313961,0.0626724,-0.0088284,-1.03475,0.0450139,0.0285151,2001,1023,83.0034,-7.69894
784,1,82.6821,7.50031,0,0,0,0,0,0,0,-1,2008,1023,82.682,-7.50032
791,1,79.3574,8.52612,0,0,0,0,0,0,0,-1,2015,1023,79.3575,-8.52613
798,1,80.6362,7.45343,0.0701329,0.0799091,-0.0904691,0.165622,-0.01558,-0.812387,0.115957,0.0481111,2022,1023,80.6363,-7.4534
805,1,82.2095,5.57025,0.0994258,0.0923453,-0.116823,0.212762,-0.020991,-0.770251,0.149331,0.0482884,2029,1023,82.2094,-5.57026
812,1,82.8064,4.1261,0.133873,0.10516,-0.146854,0.267071,-0.0280377,-0.736674,0.188091,0.0456977,2036,1023,82.8064,-4.12608
-700,-6,0,0,0,0,0,0,0,0,0,-1,524,1030,0,0
-693,-6,-64.8591,-0.483398,0,0,0,0,0,0,0,-1,531,1030,-64.8591,0.48345
-686,-6,-64.6687,1.76709,0,0,0,0,0,0,0,-1,538,1030,-64.6687,-1.76708
-679,-6,-64.4364,3.95764,0,0,0,0,0,0,0,-1,545,1030,-64.4364,-3.95767
-672,-6,-63.6079,4.43958,0,0,0,0,0,0,0,-1,552,1030,-63.6079,-4.43955
-665,-6,-65.2781,6.10516,0,0,0,0,0,0,0,-1,559,1030,-65.2781,-6.10517
-658,-6,-66.5536,6.54388,0,0,0,0,0,0,0,-1,566,1030,-66.5536,-6.5439
-651,-6,-66.5003,6.91187,0,0,0,0,0,0,0,-1,573,1030,-66.5003,-6.91185
-644,-6,-66.0692,7.48773,0,0,0,0,0,0,0,-1,580,1030,-66.0691,-7.48773
-637,-6,-67.4135,7.8241,0,0,0,0,0,0,0,-1,587,1030,-67.4134,-7.82408
-630,-6,-67.5405,7.57806,-0.0108664,0.0209875,0.0019945,0.0211119,-0.0109908,1.50851,0.018839,0.0299355,594,1030,-67.5405,-7.57804
-623,-6,-67.4525,7.69739,-0.00820663,0.0136562,0.000826576,0.0136874,-0.00823783,1.53306,0.0127882,0.0217381,601,1030,-67.4525,-7.6974
-616,-6,-67.5295,7.66913,-0.0062984,0.00863928,-0.000105913,0.00864003,-0.00629915,-1.56371,0.00866036,0.0259345,608,1030,-67.5296,-7.66916
-609,-6,-67.5223,7.81262,-0.00486008,0.00506892,-0.00069881,0.00511786,-0.00490902,-1.50087,0.00578944,0.0254668,615,1030,-67.5224,-7.81262
-602,-6,-67.3959,7.95795,-0.00372579,0.00280703,-0.00109861,0.00298684,-0.0039056,-1.40857,0.00399112,0.0155023,622,1030,-67.396,-7.95797
-595,-6,-67.4653,8.04639,0,0,0,0,0,0,0,-1,629,1030,-67.4653,-8.04637
-588,-6,-66.25,0.552612,0,0,0,0,0,0,0,-1,636,1030,-66.25,-0.552569
-581,-6,-66.2882,0.457886,-0.00159313,-0.00137443,-0.00173463,0.000254297,-0.00322185,-0.816876,0.00223749,0.0272217,643,1030,-66.2882,-0.457924
-574,-6,-66.3,0.445313,-0.00132491,-0.001815,-0.00197834,0.000423497,-0.00356341,-0.72378,0.00252862,0.0312627,650,1030,-66.3,-0.44534
-567,-6,-66.3379,0.413696,-0.00136388,-0.00173593,-0.00197728,0.000436104,-0.00353591,-0.738496,0.00251528,0.0398431,657,1030,-66.3379,-0.413735
-560,-6,-66.4297,0.395264,-0.00156604,-0.00117711,-0.00191927,0.000557524,-0.00330068,-0.835887,0.0024079,0.0424301,664,1030,-66.4298,-0.395262
-553,-6,-66.397,0.392822,-0.00210054,-0.000388783,-0.00191605,0.000853851,-0.00334318,-0.995448,0.00256129,0.0417469,671,1030,-66.397,-0.392779
-546,-6,-66.2809,0.47168,-0.00305175,0.000188225,-0.00210565,0.00122495,-0.00408847,-1.11328,0.00321277,0.0413135,678,1030,-66.2809,-0.471676
-539,-6,-66.2316,0.453735,-0.00481905,0.000387188,-0.00267167,0.00151423,-0.00594609,-1.1716,0.00455351,0.040542,685,1030,-66.2316,-0.453696
-532,-6,-66.2315,0.485596,-0.00669537,0.000929777,-0.003612,0.00236909,-0.00813468,-1.1916,0.0063616,0.0407592,692,1030,-66.2315,-0.485593
-525,-6,0,0,0,0,0,0,0,0,0,-1,699,1030,0,0
-518,-6,0,0,0,0,0,0,0,0,0,-1,706,1030,0,0
-511,-6,0,0,0,0,0,0,0,0,0,-1,713,1030,0,0
-504,-6,0,0,0,0,0,0,0,0,0,-1,720,1030,0,0
-497,-6,0,0,0,0,0,0,0,0,0,-1,727,1030,0,0
-490,-6,0,0,0,0,0,0,0,0,0,-1,734,1030,0,0
-483,-6,0,0,0,0,0,0,0,0,0,-1,741,1030,0,0
-476,-6,0,0,0,0,0,0,0,0,0,-1,748,1030,0,0
-469,-6,0,0,0,0,0,0,0,0,0,-1,755,1030,0,0
-462,-6,0,0,0,0,0,0,0,0,0,-1,762,1030,0,0
-455,-6,0,0,0,0,0,0,0,0,0,-1,769,1030,0,0
-448,-6,0,0,0,0,0,0,0,0,0,-1,776,1030,0,0
-441,-6,0,0,0,0,0,0,0,0,0,-1,783,1030,0,0
-434,-6,0,0,0,0,0,0,0,0,0,-1,790,1030,0,0
-427,-6,0,0,0,0,0,0,0,0,0,-1,797,1030,0,0
-420,-6,0,0,0,0,0,0,0,0,0,-1,804,1030,0,0
-413,-6,0,0,0,0,0,0,0,0,0,-1,811,1030,0,0
-406,-6,0,0,0,0,0,0,0,0,0,-1,818,1030,0,0
-399,-6,0,0,0,0,0,0,0,0,0,-1,825,1030,0,0
-392,-6,0,0,0,0,0,0,0,0,0,-1,832,1030,0,0
-385,-6,0,0,0,0,0,0,0,0,0,-1,839,1030,0,0
-378,-6,0,0,0,0,0,0,0,0,0,-1,846,1030,0,0
-371,-6,0,0,0,0,0,0,0,0,0,-1,853,1030,0,0
-364,-6,0,0,0,0,0,0,0,0,0,-1,860,1030,0,0
-357,-6,0,0,0,0,0,0,0,0,0,-1,867,1030,0,0
-350,-6,0,0,0,0,0,0,0,0,0,-1,874,1030,0,0
-343,-6,0,0,0,0,0,0,0,0,0,-1,881,1030,0,0
-336,-6,0,0,0,0,0,0,0,0,0,-1,888,1030,0,0
-329,-6,0,0,0,0,0,0,0,0,0,-1,895,1030,0,0
-322,-6,0,0,0,0,0,0,0,0,0,-1,902,1030,0,0
-315,-6,0,0,0,0,0,0,0,0,0,-1,909,1030,0,0
-308,-6,0,0,0,0,0,0,0,0,0,-1,916,1030,0,0
-301,-6,0,0,0,0,0,0,0,0,0,-1,923,1030,0,0
-294,-6,0,0,0,0,0,0,0,0,0,-1,930,1030,0,0
-287,-6,0,0,0,0,0,0,0,0,0,-1,937,1030,0,0
-280,-6,0,0,0,0,0,0,0,0,0,-1,944,1030,0,0
-273,-6,0,0,0,0,0,0,0,0,0,-1,951,1030,0,0
-266,-6,0,0,0,0,0,0,0,0,0,-1,958,1030,0,0
-259,-6,0,0,0,0,0,0,0,0,0,-1,965,1030,0,0
-252,-6,0,0,0,0,0,0,0,0,0,-1,972,1030,0,0
-245,-6,0,0,0,0,0,0,0,0,0,-1,979,1030,0,0
-238,-6,0,0,0,0,0,0,0,0,0,-1,986,1030,0,0
-231,-6,0,0,0,0,0,0,0,0,0,-1,993,1030,0,0
-224,-6,0,0,0,0,0,0,0,0,0,-1,1000,1030,0,0
-217,-6,0,0,0,0,0,0,0,0,0,-1,1007,1030,0,0
-210,-6,0,0,0,0,0,0,0,0,0,-1,1014,1030,0,0
-203,-6,0,0,0,0,0,0,0,0,0,-1,1021,1030,0,0
-196,-6,0,0,0,0,0,0,0,0,0,-1,1028,1030,0,0
-189,-6,0,0,0,0,0,0,0,0,0,-1,1035,1030,0,0
-182,-6,0,0,0,0,0,0,0,0,0,-1,1042,1030,0,0
-175,-6,0,0,0,0,0,0,0,0,0,-1,1049,1030,0,0
-168,-6,0,0,0,0,0,0,0,0,0,-1,1056,1030,0,0
-161,-6,0,0,0,0,0,0,0,0,0,-1,1063,1030,0,0
-154,-6,0,0,0,0,0,0,0,0,0,-1,1070,1030,0,0
-147,-6,0,0,0,0,0,0,0,0,0,-1,1077,1030,0,0
-140,-6,0,0,0,0,0,0,0,0,0,-1,1084,1030,0,0
-133,-6,0,0,0,0,0,0,0,0,0,-1,1091,1030,0,0
-126,-6,0,0,0,0,0,0,0,0,0,-1,1098,1030,0,0
-119,-6,0,0,0,0,0,0,0,0,0,-1,1105,1030,0,0
-112,-6,0,0,0,0,0,0,0,0,0,-1,1112,1030,0,0
-105,-6,0,0,0,0,0,0,0,0,0,-1,1119,1030,0,0
-98,-6,0,0,0,0,0,0,0,0,0,-1,1126,1030,0,0
-91,-6,0,0,0,0,0,0,0,0,0,-1,1133,1030,0,0
-84,-6,0,0,0,0,0,0,0,0,0,-1,1140,1030,0,0
-77,-6,0,0,0,0,0,0,0,0,0,-1,1147,1030,0,0
-70,-6,0,0,0,0,0,0,0,0,0,-1,1154,1030,0,0
-63,-6,0,0,0,0,0,0,0,0,0,-1,1161,1030,0,0
-56,-6,0,0,0,0,0,0,0,0,0,-1,1168,1030,0,0
-49,-6,0,0,0,0,0,0,0,0,0,-1,1175,1030,0,0
-42,-6,0,0,0,0,0,0,0,0,0,-1,1182,1030,0,0
-35,-6,0,0,0,0,0,0,0,0,0,-1,1189,1030,0,0
-28,-6,0,0,0,0,0,0,0,0,0,-1,1196,1030,0,0
-21,-6,0,0,0,0,0,0,0,0,0,-1,1203,1030,0,0
-14,-6,0,0,0,0,0,0,0,0,0,-1,1210,1030,0,0
-7,-6,0,0,0,0,0,0,0,0,0,-1,1217,1030,0,0
0,-6,0,0,0,0,0,0,0,0,0,-1,1224,1030,0,0
7,-6,0,0,0,0,0,0,0,0,0,-1,1231,1030,0,0
14,-6,0,0,0,0,0,0,0,0,0,-1,1238,1030,0,0
21,-6,0,0,0,0,0,0,0,0,0,-1,1245,1030,0,0
28,-6,0,0,0,0,0,0,0,0,0,-1,1252,1030,0,0
35,-6,0,0,0,0,0,0,0,0,0,-1,1259,1030,0,0
42,-6,0,0,0,0,0,0,0,0,0,-1,1266,1030,0,0
49,-6,0,0,0,0,0,0,0,0,0,-1,1273,1030,0,0
56,-6,0,0,0,0,0,0,0,0,0,-1,1280,1030,0,0
63,-6,0,0,0,0,0,0,0,0,0,-1,1287,1030,0,0
70,-6,0,0,0,0,0,0,0,0,0,-1,1294,1030,0,0
77,-6,0,0,0,0,0,0,0,0,0,-1,1301,1030,0,0
84,-6,0,0,0,0,0,0,0,0,0,-1,1308,1030,0,0
91,-6,0,0,0,0,0,0,0,0,0,-1,1315,1030,0,0
98,-6,0,0,0,0,0,0,0,0,0,-1,1322,1030,0,0
105,-6,0,0,0,0,0,0,0,0,0,-1,1329,1030,0,0
112,-6,0,0,0,0,0,0,0,0,0,-1,1336,1030,0,0
119,-6,0,0,0,0,0,0,0,0,0,-1,1343,1030,0,0
126,-6,0,0,0,0,0,0,0,0,0,-1,1350,1030,0,0
133,-6,0,0,0,0,0,0,0,0,0,-1,1357,1030,0,0
140,-6,0,0,0,0,0,0,0,0,0,-1,1364,1030,0,0
147,-6,0,0,0,0,0,0,0,0,0,-1,1371,1030,0,0
154,-6,0,0,0,0,0,0,0,0,0,-1,1378,1030,0,0
161,-6,0,0,0,0,0,0,0,0,0,-1,1385,1030,0,0
168,-6,0,0,0,0,0,0,0,0,0,-1,1392,1030,0,0
175,-6,0,0,0,0,0,0,0,0,0,-1,1399,1030,0,0
182,-6,0,0,0,0,0,0,0,0,0,-1,1406,1030,0,0
189,-6,0,0,0,0,0,0,0,0,0,-1,1413,1030,0,0
196,-6,0,0,0,0,0,0,0,0,0,-1,1420,1030,0,0
203,-6,0,0,0,0,0,0,0,0,0,-1,1427,1030,0,0
210,-6,0,0,0,0,0,0,0,0,0,-1,1434,1030,0,0
217,-6,0,0,0,0,0,0,0,0,0,-1,1441,1030,0,0
224,-6,0,0,0,0,0,0,0,0,0,-1,1448,1030,0,0
231,-6,0,0,0,0,0,0,0,0,0,-1,1455,1030,0,0
238,-6,0,0,0,0,0,0,0,0,0,-1,1462,1030,0,0
245,-6,0,0,0,0,0,0,0,0,0,-1,1469,1030,0,0
252,-6,0,0,0,0,0,0,0,0,0,-1,1476,1030,0,0
259,-6,0,0,0,0,0,0,0,0,0,-1,1483,1030,0,0
266,-6,0,0,0,0,0,0,0,0,0,-1,1490,1030,0,0
273,-6,0,0,0,0,0,0,0,0,0,-1,1497,1030,0,0
280,-6,0,0,0,0,0,0,0,0,0,-1,1504,1030,0,0
287,-6,0,0,0,0,0,0,0,0,0,-1,1511,1030,0,0
294,-6,0,0,0,0,0,0,0,0,0,-1,1518,1030,0,0
301,-6,0,0,0,0,0,0,0,0,0,-1,1525,1030,0,0
308,-6,0,0,0,0,0,0,0,0,0,-1,1532,1030,0,0
315,-6,0,0,0,0,0,0,0,0,0,-1,1539,1030,0,0
322,-6,0,0,0,0,0,0,0,0,0,-1,1546,1030,0,0
329,-6,0,0,0,0,0,0,0,0,0,-1,1553,1030,0,0
336,-6,0,0,0,0,0,0,0,0,0,-1,1560,1030,0,0
343,-6,0,0,0,0,0,0,0,0,0,-1,1567,1030,0,0
350,-6,0,0,0,0,0,0,0,0,0,-1,1574,1030,0,0
357,-6,0,0,0,0,0,0,0,0,0,-1,1581,1030,0,0
364,-6,0,0,0,0,0,0,0,0,0,-1,1588,1030,0,0
371,-6,0,0,0,0,0,0,0,0,0,-1,1595,1030,0,0
378,-6,0,0,0,0,0,0,0,0,0,-1,1602,1030,0,0
385,-6,0,0,0,0,0,0,0,0,0,-1,1609,1030,0,0
392,-6,0,0,0,0,0,0,0,0,0,-1,1616,1030,0,0
399,-6,0,0,0,0,0,0,0,0,0,-1,1623,1030,0,0
406,-6,0,0,0,0,0,0,0,0,0,-1,1630,1030,0,0
413,-6,0,0,0,0,0,0,0,0,0,-1,1637,1030,0,0
420,-6,0,0,0,0,0,0,0,0,0,-1,1644,1030,0,0
427,-6,0,0,0,0,0,0,0,0,0,-1,1651,1030,0,0
434,-6,0,0,0,0,0,0,0,0,0,-1,1658,1030,0,0
441,-6,0,0,0,0,0,0,0,0,0,-1,1665,1030,0,0
448,-6,0,0,0,0,0,0,0,0,0,-1,1672,1030,0,0
455,-6,0,0,0,0,0,0,0,0,0,-1,1679,1030,0,0
462,-6,0,0,0,0,0,0,0,0,0,-1,1686,1030,0,0
469,-6,0,0,0,0,0,0,0,0,0,-1,1693,1030,0,0
476,-6,0,0,0,0,0,0,0,0,0,-1,1700,1030,0,0
483,-6,0,0,0,0,0,0,0,0,0,-1,1707,1030,0,0
490,-6,0,0,0,0,0,0,0,0,0,-1,1714,1030,0,0
497,-6,0,0,0,0,0,0,0,0,0,-1,1721,1030,0,0
504,-6,0,0,0,0,0,0,0,0,0,-1,1728,1030,0,0
511,-6,0,0,0,0,0,0,0,0,0,-1,1735,1030,0,0
518,-6,0,0,0,0,0,0,0,0,0,-1,1742,1030,0,0
525,-6,0,0,0,0,0,0,0,0,0,-1,1749,1030,0,0
532,-6,0,0,0,0,0,0,0,0,0,-1,1756,1030,0,0
539,-6,0,0,0,0,0,0,0,0,0,-1,1763,1030,0,0
546,-6,0,0,0,0,0,0,0,0,0,-1,1770,1030,0,0
553,-6,0,0,0,0,0,0,0,0,0,-1,1777,1030,0,0
560,-6,0,0,0,0,0,0,0,0,0,-1,1784,1030,0,0
567,-6,0,0,0,0,0,0,0,0,0,-1,1791,1030,0,0
574,-6,0,0,0,0,0,0,0,0,0,-1,1798,1030,0,0
581,-6,0,0,0,0,0,0,0,0,0,-1,1805,1030,0,0
588,-6,0,0,0,0,0,0,0,0,0,-1,1812,1030,0,0
595,-6,0,0,0,0,0,0,0,0,0,-1,1819,1030,0,0
602,-6,0,0,0,0,0,0,0,0,0,-1,1826,1030,0,0
609,-6,0,0,0,0,0,0,0,0,0,-1,1833,1030,0,0
616,-6,0,0,0,0,0,0,0,0,0,-1,1840,1030,0,0
623,-6,0,0,0,0,0,0,0,0,0,-1,1847,1030,0,0
630,-6,0,0,0,0,0,0,0,0,0,-1,1854,1030,0,0
637,-6,0,0,0,0,0,0,0,0,0,-1,1861,1030,0,0
644,-6,0,0,0,0,0,0,0,0,0,-1,1868,1030,0,0
651,-6,83.2891,2.34106,0.00524975,-0.000161202,0.00179549,0.00579133,-0.000702786,0.292956,0.0041152,0.03453,1875,1030,83.2891,-2.34101
658,-6,83.443,2.2738,0.00357754,-0.000144725,0.00149849,0.00410582,-0.000673005,0.338937,0.00298693,0.0389199,1882,1030,83.443,-2.27378
665,-6,83.486,2.25293,0.00229714,-9.50783e-05,0.00128581,0.00285716,-0.000655098,0.410763,0.00215656,0.043207,1889,1030,83.486,-2.25288
672,-6,83.4271,2.40454,0.00132027,1.48408e-05,0.00119153,0.00202616,-0.000691041,0.534824,0.00163068,0.0405959,1896,1030,83.4271,-2.40451
679,-6,83.3369,2.56396,0.000579944,0.000122511,0.0011725,0.00154582,-0.000843369,0.689074,0.00139913,0.0418583,1903,1030,83.3369,-2.56401
686,-6,83.2406,2.54663,-7.32022e-05,1.62536e-05,0.00129202,0.00126432,-0.00132127,0.802701,0.00149291,0.0419037,1910,1030,83.2406,-2.54659
693,-6,83.2169,2.2085,-0.000650246,-0.000117088,0.00144566,0.00108636,-0.0018537,0.876574,0.0017166,0.0380306,1917,1030,83.217,-2.20848
700,-6,83.2083,2.42542,-0.00110389,-0.00034794,0.00158796,0.000906408,-0.00235824,0.902237,0.00194598,0.0312664,1924,1030,83.2083,-2.42537
707,-6,83.1674,2.3905,-0.00197017,0.000144096,0.00165053,0.00104701,-0.00287308,1.07023,0.00234369,0.0294444,1931,1030,83.1673,-2.39051
714,-6,83.1515,2.37439,-0.00337355,0.00142412,0.00151247,0.00186112,-0.00381055,1.28952,0.00333839,0.0371576,1938,1030,83.1515,-2.3744
721,-6,83.139,2.46399,0,0,0,0,0,0,0,-1,1945,1030,83.1391,-2.46396
728,-6,53.1713,6.25494,0,0,0,0,0,0,0,-1,1952,1030,53.1713,-6.25495
735,-6,78.4772,7.47345,0,0,0,0,0,0,0,-1,1959,1030,78.4772,-7.47343
742,-6,83.0745,8.30255,0,0,0,0,0,0,0,-1,1966,1030,83.0745,-8.30255
749,-6,83.5527,7.78693,0,0,0,0,0,0,0,-1,1973,1030,83.5527,-7.78695
756,-6,83.5876,7.8858,-0.010319,0.0183966,-0.00469509,0.0191448,-0.0110672,-1.41277,0.0176495,0.0429962,1980,1030,83.5877,-7.88583
763,-6,83.3625,7.72656,-0.00833455,0.023967,-0.00932243,0.0264644,-0.010832,-1.30905,0.0221546,0.02462,1987,1030,83.3626,-7.72657
770,-6,83.2424,7.62146,-0.0030574,0.0319542,-0.0174063,0.039135,-0.0102383,-1.17952,0.0300891,0.0212896,1994,1030,83.2424,-7.62147
777,-6,83.0586,7.54285,0.0083333,0.0426834,-0.0308662,0.0608312,-0.00981448,-1.03928,0.0441904,0.0217189,2001,1030,83.0586,-7.54287
784,-6,82.8877,7.42792,0.0231542,0.0538334,-0.0470241,0.0879566,-0.010969,-0.94306,0.0626152,0.0473404,2008,1030,82.8878,-7.42791
791,-6,82.741,7.32501,0,0,0,0,0,0,0,-1,2015,1030,82.741,-7.32501
798,-6,81.7375,6.61621,0.0651148,0.0775692,-0.0889881,0.160548,-0.0178637,-0.82033,0.113456,0.0466341,2022,1030,81.7376,-6.61619
805,-6,82.6064,4.8241,0.0924659,0.0895844,-0.114538,0.205572,-0.0235217,-0.779109,0.145524,0.047564,2029,1030,82.6064,-4.82411
812,-6,83.2693,3.38696,0.124226,0.101688,-0.143217,0.256616,-0.0307027,-0.746137,0.182176,0.0453743,2036,1030,83.2693,-3.387
-700,-13,0,0,0,0,0,0,0,0,0,-1,524,1037,0,0
-693,-13,-65.1174,-1.12244,0,0,0,0,0,0,0,-1,531,1037,-65.1174,1.12246
-686,-13,-64.6696,0.924072,0,0,0,0,0,0,0,-1,538,1037,-64.6696,-0.924132
-679,-13,-64.4668,3.11487,0,0,0,0,0,0,0,-1,545,1037,-64.4668,-3.1149
-672,-13,-65.3631,5.49707,0,0,0,0,0,0,0,-1,552,1037,-65.3631,-5.49708
-665,-13,-66.1849,6.7616,0,0,0,0,0,0,0,-1,559,1037,-66.1849,-6.76155
-658,-13,-66.3976,6.75256,0,0,0,0,0,0,0,-1,566,1037,-66.3976,-6.75253
-651,-13,-66.4084,6.72559,0,0,0,0,0,0,0,-1,573,1037,-66.4084,-6.72558
-644,-13,-66.8725,7.25647,0,0,0,0,0,0,0,-1,580,1037,-66.8725,-7.25642
-637,-13,-67.087,7.36389,-0.0145141,0.0291268,0.00367528,0.0294341,-0.0148214,1.48736,0.0260111,0.0339064,587,1037,-67.087,-7.36392
-630,-13,-67.2805,7.40356,-0.0104164,0.0198943,0.00176164,0.0199963,-0.0105185,1.51294,0.0178987,0.0203786,594,1037,-67.2805,-7.40354
-623,-13,-67.3441,7.58801,-0.0074184,0.0129074,0.000317725,0.0129124,-0.00742337,1.55517,0.0118826,0.0170947,601,1037,-67.3441,-7.58796
-616,-13,-67.3366,7.76819,-0.0053429,0.00807391,-0.000725731,0.00811305,-0.00538204,-1.51691,0.0078444,0.0152711,608,1037,-67.3366,-7.76822
-609,-13,-67.3115,7.922,-0.00384999,0.00449567,-0.00131679,0.00469851,-0.00405283,-1.41796,0.00505717,0.0183209,615,1037,-67.3115,-7.92204
-602,-13,-67.2702,8.03857,-0.00274342,0.00222033,-0.0016496,0.00271854,-0.00324163,-1.27749,0.00344552,0.0135622,622,1037,-67.2702,-8.03852
-595,-13,-67.2922,8.12085,0,0,0,0,0,0,0,-1,629,1037,-67.2922,-8.12086
-588,-13,-66.2313,0.673584,0,0,0,0,0,0,0,-1,636,1037,-66.2313,-0.673534
-581,-13,-66.2808,0.422729,-0.00102328,-0.00202821,-0.00202983,0.000565351,-0.00361684,-0.664066,0.00262009,0.025464,643,1037,-66.2808,-0.422758
-574,-13,-66.2688,0.39563,-0.0009184,-0.00253433,-0.00212754,0.000549429,-0.00400215,-0.603928,0.00286884,0.0333689,650,1037,-66.2688,-0.395602
-567,-13,-66.3273,0.589844,-0.00117965,-0.00252546,-0.00198627,0.000244602,-0.00394971,-0.622077,0.00271834,0.0421174,657,1037,-66.3272,-0.589828
-560,-13,-66.4073,0.498413,-0.00166196,-0.00205254,-0.00174652,-9.98435e-05,-0.00361466,-0.72972,0.00237719,0.0456324,664,1037,-66.4073,-0.498434
-553,-13,-66.4008,0.523193,-0.00249504,-0.00137186,-0.00151329,-0.000319322,-0.00354758,-0.963074,0.00226613,0.0452006,671,1037,-66.4008,-0.523249
-546,-13,-66.332,0.431152,-0.00371393,-0.000891477,-0.00143119,-0.000292764,-0.00431264,-1.17459,0.00278264,0.0418391,678,1037,-66.3319,-0.4312
-539,-13,-66.223,0.52002,-0.00558941,-0.000766386,-0.00172255,-0.000214356,-0.00614144,-1.26067,0.00402475,0.0394091,685,1037,-66.223,-0.520045
-532,-13,-66.2243,0.467407,-0.00762106,-0.000324718,-0.00232782,0.000354684,-0.00830046,-1.28682,0.00565558,0.0383441,692,1037,-66.2243,-0.467393
-525,-13,0,0,0,0,0,0,0,0,0,-1,699,1037,0,0
-518,-13,0,0,0,0,0,0,0,0,0,-1,706,1037,0,0
-511,-13,0,0,0,0,0,0,0,0,0,-1,713,1037,0,0
-504,-13,0,0,0,0,0,0,0,0,0,-1,720,1037,0,0
-497,-13,0,0,0,0,0,0,0,0,0,-1,727,1037,0,0
-490,-13,0,0,0,0,0,0,0,0,0,-1,734,1037,0,0
-483,-13,0,0,0,0,0,0,0,0,0,-1,741,1037,0,0
-476,-13,0,0,0,0,0,0,0,0,0,-1,748,1037,0,0
-469,-13,0,0,0,0,0,0,0,0,0,-1,755,1037,0,0
-462,-13,0,0,0,0,0,0,0,0,0,-1,762,1037,0,0
-455,-13,0,0,0,0,0,0,0,0,0,-1,769,1037,0,0
-448,-13,0,0,0,0,0,0,0,0,0,-1,776,1037,0,0
-441,-13,0,0,0,0,0,0,0,0,0,-1,783,1037,0,0
-434,-13,0,0,0,0,0,0,0,0,0,-1,790,1037,0,0
-427,-13,0,0,0,0,0,0,0,0,0,-1,797,1037,0,0
-420,-13,0,0,0,0,0,0,0,0,0,-1,804,1037,0,0
-413,-13,0,0,0,0,0,0,0,0,0,-1,811,1037,0,0
-406,-13,0,0,0,0,0,0,0,0,0,-1,818,1037,0,0
-399,-13,0,0,0,0,0,0,0,0,0,-1,825,1037,0,0
-392,-13,0,0,0,0,0,0,0,0,0,-1,832,1037,0,0
-385,-13,0,0,0,0,0,0,0,0,0,-1,839,1037,0,0
-378,-13,0,0,0,0,0,0,0,0,0,-1,846,1037,0,0
-371,-13,0,0,0,0,0,0,0,0,0,-1,853,1037,0,0
-364,-13,0,0,0,0,0,0,0,0,0,-1,860,1037,0,0
-357,-13,0,0,0,0,0,0,0,0,0,-1,867,1037,0,0
-350,-13,0,0,0,0,0,0,0,0,0,-1,874,1037,0,0
-343,-13,0,0,0,0,0,0,0,0,0,-1,881,1037,0,0
-336,-13,0,0,0,0,0,0,0,0,0,-1,888,1037,0,0
-329,-13,0,0,0,0,0,0,0,0,0,-1,895,1037,0,0
-322,-13,0,0,0,0,0,0,0,0,0,-1,902,1037,0,0
-315,-13,0,0,0,0,0,0,0,0,0,-1,909,1037,0,0
-308,-13,0,0,0,0,0,0,0,0,0,-1,916,1037,0,0
-301,-13,0,0,0,0,0,0,0,0,0,-1,923,1037,0,0
-294,-13,0,0,0,0,0,0,0,0,0,-1,930,1037,0,0
-287,-13,0,0,0,0,0,0,0,0,0,-1,937,1037,0,0
-280,-13,0,0,0,0,0,0,0,0,0,-1,944,1037,0,0
-273,-13,0,0,0,0,0,0,0,0,0,-1,951,1037,0,0
-266,-13,0,0,0,0,0,0,0,0,0,-1,958,1037,0,0
-259,-13,0,0,0,0,0,0,0,0,0,-1,965,1037,0,0
-252,-13,0,0,0,0,0,0,0,0,0,-1,972,1037,0,0
-245,-13,0,0,0,0,0,0,0,0,0,-1,979,1037,0,0
-238,-13,0,0,0,0,0,0,0,0,0,-1,986,1037,0,0
-231,-13,0,0,0,0,0,0,0,0,0,-1,993,1037,0,0
-224,-13,0,0,0,0,0,0,0,0,0,-1,1000,1037,0,0
-217,-13,0,0,0,0,0,0,0,0,0,-1,1007,1037,0,0
-210,-13,0,0,0,0,0,0,0,0,0,-1,1014,1037,0,0
-203,-13,0,0,0,0,0,0,0,0,0,-1,1021,1037,0,0
-196,-13,0,0,0,0,0,0,0,0,0,-1,1028,1037,0,0
-189,-13,0,0,0,0,0,0,0,0,0,-1,1035,1037,0,0
-182,-13,0,0,0,0,0,0,0,0,0,-1,1042,1037,0,0
-175,-13,0,0,0,0,0,0,0,0,0,-1,1049,1037,0,0
-168,-13,0,0,0,0,0,0,0,0,0,-1,1056,1037,0,0
-161,-13,0,0,0,0,0,0,0,0,0,-1,1063,1037,0,0
-154,-13,0,0,0,0,0,0,0,0,0,-1,1070,1037,0,0
-147,-13,0,0,0,0,0,0,0,0,0,-1,1077,1037,0,0
-140,-13,0,0,0,0,0,0,0,0,0,-1,1084,1037,0,0
-133,-13,0,0,0,0,0,0,0,0,0,-1,1091,1037,0,0
-126,-13,0,0,0,0,0,0,0,0,0,-1,1098,1037,0,0
-119,-13,0,0,0,0,0,0,0,0,0,-1,1105,1037,0,0
-112,-13,0,0,0,0,0,0,0,0,0,-1,1112,1037,0,0
-105,-13,0,0,0,0,0,0,0,0,0,-1,1119,1037,0,0
-98,-13,0,0,0,0,0,0,0,0,0,-1,1126,1037,0,0
-91,-13,0,0,0,0,0,0,0,0,0,-1,1133,1037,0,0
-84,-13,0,0,0,0,0,0,0,0,0,-1,1140,1037,0,0
-77,-13,0,0,0,0,0,0,0,0,0,-1,1147,1037,0,0
-70,-13,0,0,0,0,0,0,0,0,0,-1,1154,1037,0,0
-63,-13,0,0,0,0,0,0,0,0,0,-1,1161,1037,0,0
-56,-13,0,0,0,0,0,0,0,0,0,-1,1168,1037,0,0
-49,-13,0,0,0,0,0,0,0,0,0,-1,1175,1037,0,0
-42,-13,0,0,0,0,0,0,0,0,0,-1,1182,1037,0,0
-35,-13,0,0,0,0,0,0,0,0,0,-1,1189,1037,0,0
-28,-13,0,0,0,0,0,0,0,0,0,-1,1196,1037,0,0
-21,-13,0,0,0,0,0,0,0,0,0,-1,1203,1037,0,0
-14,-13,0,0,0,0,0,0,0,0,0,-1,1210,1037,0,0
-7,-13,0,0,0,0,0,0,0,0,0,-1,1217,1037,0,0
0,-13,0,0,0,0,0,0,0,0,0,-1,1224,1037,0,0
7,-13,0,0,0,0,0,0,0,0,0,-1,1231,1037,0,0
14,-13,0,0,0,0,0,0,0,0,0,-1,1238,1037,0,0
21,-13,0,0,0,0,0,0,0,0,0,-1,1245,1037,0,0
28,-13,0,0,0,0,0,0,0,0,0,-1,1252,1037,0,0
35,-13,0,0,0,0,0,0,0,0,0,-1,1259,1037,0,0
42,-13,0,0,0,0,0,0,0,0,0,-1,1266,1037,0,0
49,-13,0,0,0,0,0,0,0,0,0,-1,1273,1037,0,0
56,-13,0,0,0,0,0,0,0,0,0,-1,1280,1037,0,0
63,-13,0,0,0,0,0,0,0,0,0,-1,1287,1037,0,0
70,-13,0,0,0,0,0,0,0,0,0,-1,1294,1037,0,0
77,-13,0,0,0,0,0,0,0,0,0,-1,1301,1037,0,0
84,-13,0,0,0,0,0,0,0,0,0,-1,1308,1037,0,0
91,-13,0,0,0,0,0,0,0,0,0,-1,1315,1037,0,0
98,-13,0,0,0,0,0,0,0,0,0,-1,1322,1037,0,0
105,-13,0,0,0,0,0,0,0,0,0,-1,1329,1037,0,0
112,-13,0,0,0,0,0,0,0,0,0,-1,1336,1037,0,0
119,-13,0,0,0,0,0,0,0,0,0,-1,1343,1037,0,0
126,-13,0,0,0,0,0,0,0,0,0,-1,1350,1037,0,0
133,-13,0,0,0,0,0,0,0,0,0,-1,1357,1037,0,0
140,-13,0,0,0,0,0,0,0,0,0,-1,1364,1037,0,0
147,-13,0,0,0,0,0,0,0,0,0,-1,1371,1037,0,0
154,-13,0,0,0,0,0,0,0,0,0,-1,1378,1037,0,0
161,-13,0,0,0,0,0,0,0,0,0,-1,1385,1037,0,0
168,-13,0,0,0,0,0,0,0,0,0,-1,1392,1037,0,0
175,-13,0,0,0,0,0,0,0,0,0,-1,1399,1037,0,0
182,-13,0,0,0,0,0,0,0,0,0,-1,1406,1037,0,0
189,-13,0,0,0,0,0,0,0,0,0,-1,1413,1037,0,0
196,-13,0,0,0,0,0,0,0,0,0,-1,1420,1037,0,0
203,-13,0,0,0,0,0,0,0,0,0,-1,1427,1037,0,0
210,-13,0,0,0,0,0,0,0,0,0,-1,1434,1037,0,0
217,-13,0,0,0,0,0,0,0,0,0,-1,1441,1037,0,0
224,-13,0,0,0,0,0,0,0,0,0,-1,1448,1037,0,0
231,-13,0,0,0,0,0,0,0,0,0,-1,1455,1037,0,0
238,-13,0,0,0,0,0,0,0,0,0,-1,1462,1037,0,0
245,-13,0,0,0,0,0,0,0,0,0,-1,1469,1037,0,0
252,-13,0,0,0,0,0,0,0,0,0,-1,1476,1037,0,0
259,-13,0,0,0,0,0,0,0,0,0,-1,1483,1037,0,0
266,-13,0,0,0,0,0,0,0,0,0,-1,1490,1037,0,0
273,-13,0,0,0,0,0,0,0,0,0,-1,1497,1037,0,0
280,-13,0,0,0,0,0,0,0,0,0,-1,1504,1037,0,0
287,-13,0,0,0,0,0,0,0,0,0,-1,1511,1037,0,0
294,-13,0,0,0,0,0,0,0,0,0,-1,1518,1037,0,0
301,-13,0,0,0,0,0,0,0,0,0,-1,1525,1037,0,0
308,-13,0,0,0,0,0,0,0,0,0,-1,1532,1037,0,0
315,-13,0,0,0,0,0,0,0,0,0,-1,1539,1037,0,0
322,-13,0,0,0,0,0,0,0,0,0,-1,1546,1037,0,0
329,-13,0,0,0,0,0,0,0,0,0,-1,1553,1037,0,0
336,-13,0,0,0,0,0,0,0,0,0,-1,1560,1037,0,0
343,-13,0,0,0,0,0,0,0,0,0,-1,1567,1037,0,0
350,-13,0,0,0,0,0,0,0,0,0,-1,1574,1037,0,0
357,-13,0,0,0,0,0,0,0,0,0,-1,1581,1037,0,0
364,-13,0,0,0,0,0,0,0,0,0,-1,1588,1037,0,0
371,-13,0,0,0,0,0,0,0,0,0,-1,1595,1037,0,0
378,-13,0,0,0,0,0,0,0,0,0,-1,1602,1037,0,0
385,-13,0,0,0,0,0,0,0,0,0,-1,1609,1037,0,0
392,-13,0,0,0,0,0,0,0,0,0,-1,1616,1037,0,0
399,-13,0,0,0,0,0,0,0,0,0,-1,1623,1037,0,0
406,-13,0,0,0,0,0,0,0,0,0,-1,1630,1037,0,0
413,-13,0,0,0,0,0,0,0,0,0,-1,1637,1037,0,0
420,-13,0,0,0,0,0,0,0,0,0,-1,1644,1037,0,0
427,-13,0,0,0,0,0,0,0,0,0,-1,1651,1037,0,0
434,-13,0,0,0,0,0,0,0,0,0,-1,1658,1037,0,0
441,-13,0,0,0,0,0,0,0,0,0,-1,1665,1037,0,0
448,-13,0,0,0,0,0,0,0,0,0,-1,1672,1037,0,0
455,-13,0,0,0,0,0,0,0,0,0,-1,1679,1037,0,0
462,-13,0,0,0,0,0,0,0,0,0,-1,1686,1037,0,0
469,-13,0,0,0,0,0,0,0,0,0,-1,1693,1037,0,0
476,-13,0,0,0,0,0,0,0,0,0,-1,1700,1037,0,0
483,-13,0,0,0,0,0,0,0,0,0,-1,1707,1037,0,0
490,-13,0,0,0,0,0,0,0,0,0,-1,1714,1037,0,0
497,-13,0,0,0,0,0,0,0,0,0,-1,1721,1037,0,0
504,-13,0,0,0,0,0,0,0,0,0,-1,1728,1037,0,0
511,-13,0,0,0,0,0,0,0,0,0,-1,1735,1037,0,0
518,-13,0,0,0,0,0,0,0,0,0,-1,1742,1037,0,0
525,-13,0,0,0,0,0,0,0,0,0,-1,1749,1037,0,0
532,-13,0,0,0,0,0,0,0,0,0,-1,1756,1037,0,0
539,-13,0,0,0,0,0,0,0,0,0,-1,1763,1037,0,0
546,-13,0,0,0,0,0,0,0,0,0,-1,1770,1037,0,0
553,-13,0,0,0,0,0,0,0,0,0,-1,1777,1037,0,0
560,-13,0,0,0,0,0,0,0,0,0,-1,1784,1037,0,0
567,-13,0,0,0,0,0,0,0,0,0,-1,1791,1037,0,0
574,-13,0,0,0,0,0,0,0,0,0,-1,1798,1037,0,0
581,-13,0,0,0,0,0,0,0,0,0,-1,1805,1037,0,0
588,-13,0,0,0,0,0,0,0,0,0,-1,1812,1037,0,0
595,-13,0,0,0,0,0,0,0,0,0,-1,1819,1037,0,0
602,-13,0,0,0,0,0,0,0,0,0,-1,1826,1037,0,0
609,-13,0,0,0,0,0,0,0,0,0,-1,1833,1037,0,0
616,-13,0,0,0,0,0,0,0,0,0,-1,1840,1037,0,0
623,-13,0,0,0,0,0,0,0,0,0,-1,1847,1037,0,0
630,-13,0,0,0,0,0,0,0,0,0,-1,1854,1037,0,0
637,-13,0,0,0,0,0,0,0,0,0,-1,1861,1037,0,0
644,-13,0,0,0,0,0,0,0,0,0,-1,1868,1037,0,0
651,-13,83.2651,2.43701,0.00444538,-0.000395686,0.00284888,0.00576318,-0.00171348,0.433255,0.0045228,0.0354902,1875,1037,83.2652,-2.43697
658,-13,83.2961,2.53442,0.00287822,-0.00037373,0.0022034,0.00399063,-0.00148614,0.467529,0.00327037,0.0431968,1882,1037,83.2962,-2.53445
665,-13,83.4213,2.48364,0.00172333,-0.000306088,0.00174277,0.00272528,-0.00130803,0.521769,0.00237607,0.0443248,1889,1037,83.4213,-2.48367
672,-13,83.4468,2.33301,0.000881254,-0.000152095,0.00148273,0.00193475,-0.00120559,0.617746,0.00182929,0.0369002,1896,1037,83.4467,-2.33307
679,-13,83.3781,2.41675,0.000259645,2.42633e-05,0.00132977,0.00147693,-0.00119302,0.741261,0.0015444,0.0376537,1903,1037,83.378,-2.41673
686,-13,83.1189,2.24353,-0.000329202,-1.62172e-05,0.00137698,0.00121314,-0.00155856,0.84198,0.00160437,0.0415982,1910,1037,83.1189,-2.2435
693,-13,83.0892,2.43945,-0.000856526,-0.000113989,0.00150807,0.00106785,-0.00203836,0.906092,0.00182231,0.0398588,1917,1037,83.0893,-2.4395
700,-13,83.1885,2.42114,-0.00130072,-0.000328956,0.0017043,0.000957369,-0.00258705,0.92426,0.00211724,0.0367467,1924,1037,83.1885,-2.42118
707,-13,83.2396,2.35156,-0.00219217,9.95537e-05,0.00185538,0.00113439,-0.00322701,1.06202,0.00261288,0.0340016,1931,1037,83.2396,-2.35154
714,-13,83.1774,2.62097,-0.00355826,0.00128728,0.00179698,0.00188096,-0.00415194,1.25171,0.00356441,0.0329102,1938,1037,83.1774,-2.62092
721,-13,82.9432,2.7594,0,0,0,0,0,0,0,-1,1945,1037,82.9432,-2.75942
728,-13,78.576,7.60706,0,0,0,0,0,0,0,-1,1952,1037,78.5761,-7.60708
735,-13,83.3328,8.19238,0,0,0,0,0,0,0,-1,1959,1037,83.3328,-8.19243
742,-13,82.7966,7.99121,0,0,0,0,0,0,0,-1,1966,1037,82.7966,-7.99121
749,-13,83.0676,7.9314,0,0,0,0,0,0,0,-1,1973,1037,83.0676,-7.9314
756,-13,83.3821,7.81848,-0.0103056,0.0177674,-0.00453203,0.0184809,-0.0110191,-1.41464,0.0172125,0.0253618,1980,1037,83.382,-7.81853
763,-13,83.3171,7.63953,-0.00835262,0.0231127,-0.009107,0.0255584,-0.0107984,-1.30843,0.0215595,0.0342148,1987,1037,83.3171,-7.63949
770,-13,83.1902,7.51013,-0.00355345,0.0305695,-0.0167168,0.0373941,-0.010378,-1.1832,0.0290141,0.0283058,1994,1037,83.1903,-7.51013
777,-13,82.9353,7.29395,0.00716757,0.0408427,-0.0296286,0.0580838,-0.0100735,-1.04379,0.0424804,0.0197011,2001,1037,82.9353,-7.2939
784,-13,82.8347,7.06165,0.0209714,0.0515199,-0.0450084,0.0837752,-0.0112839,-0.948983,0.0599664,0.0396211,2008,1037,82.8347,-7.06159
791,-13,83.4143,6.17847,0,0,0,0,0,0,0,-1,2015,1037,83.4142,-6.17849
798,-13,82.4814,5.72253,0.0594806,0.074184,-0.0844827,0.151634,-0.0179697,-0.828799,0.107581,0.0470939,2022,1037,82.4816,-5.72253
805,-13,82.9072,4.24475,0.0843979,0.0856188,-0.108279,0.193289,-0.0232722,-0.788217,0.137276,0.0436425,2029,1037,82.9072,-4.24474
812,-13,83.6885,3.10461,0.112965,0.0969735,-0.13458,0.239787,-0.0298482,-0.755726,0.17068,0.0441008,2036,1037,83.6884,-3.10459
-700,-20,-65.4676,-3.9325,0,0,0,0,0,0,0,-1,524,1044,-65.4676,3.93249
-693,-20,-65.3737,-1.73792,0,0,0,0,0,0,0,-1,531,1044,-65.3737,1.73796
-686,-20,-65.2567,0.564087,0,0,0,0,0,0,0,-1,538,1044,-65.2567,-0.564031
-679,-20,-64.9108,5.0835,0,0,0,0,0,0,0,-1,545,1044,-64.9108,-5.08344
-672,-20,-66.7953,6.53333,0,0,0,0,0,0,0,-1,552,1044,-66.7953,-6.53328
-665,-20,-66.5534,6.51733,0,0,0,0,0,0,0,-1,559,1044,-66.5534,-6.51731
-658,-20,-66.8462,6.0542,0,0,0,0,0,0,0,-1,566,1044,-66.8462,-6.0542
-651,-20,-66.8357,6.72961,0,0,0,0,0,0,0,-1,573,1044,-66.8357,-6.72965
-644,-20,-66.7872,6.79419,-0.0188978,0.0349343,0.0075455,0.035972,-0.0199354,1.43414,0.0327178,0.035432,580,1044,-66.7872,-6.79417
-637,-20,-66.892,6.93738,-0.0141506,0.027018,0.00435991,0.0274747,-0.0146073,1.46644,0.0246717,0.0235955,587,1044,-66.892,-6.93735
-630,-20,-67.0435,7.26355,-0.00974101,0.0187154,0.00177365,0.0188255,-0.00985114,1.50879,0.0168245,0.0193536,594,1044,-67.0434,-7.2636
-623,-20,-67.1321,7.5509,-0.00645108,0.0121742,-0.000114051,0.0121749,-0.00645178,-1.56467,0.010922,0.0171987,601,1044,-67.1322,-7.55095
-616,-20,-67.1356,7.78015,-0.00423203,0.00758052,-0.00131793,0.00772578,-0.00437728,-1.46102,0.00707629,0.0163442,608,1044,-67.1356,-7.78018
-609,-20,-67.1666,8.0061,-0.00273086,0.00401166,-0.00188133,0.00450108,-0.00322027,-1.31629,0.00447832,0.0171247,615,1044,-67.1666,-8.00606
-602,-20,-67.1051,8.12537,-0.00168529,0.00175369,-0.00214304,0.0027818,-0.00271339,-1.12349,0.00317273,0.0149984,622,1044,-67.1051,-8.12537
-595,-20,-67.1229,8.27173,0,0,0,0,0,0,0,-1,629,1044,-67.1228,-8.27173
-588,-20,-66.2584,0.598999,0,0,0,0,0,0,0,-1,636,1044,-66.2583,-0.598939
-581,-20,-66.2567,0.370117,-0.000391277,-0.00248314,-0.00228871,0.00107917,-0.00395359,-0.57107,0.00305956,0.0315452,643,1044,-66.2567,-0.370171
-574,-20,-66.249,0.439209,-0.000418292,-0.0030512,-0.00223859,0.000862238,-0.00433173,-0.519596,0.00321402,0.0376858,650,1044,-66.2491,-0.439181
-567,-20,-66.4245,0.150635,-0.000863288,-0.00310518,-0.00197854,0.000289784,-0.00425825,-0.527668,0.00294019,0.0471516,657,1044,-66.4245,-0.150602
-560,-20,-66.0128,0.701782,-0.0015618,-0.0027188,-0.00159252,-0.000445962,-0.00383464,-0.61118,0.0024215,0.049925,664,1044,-66.0128,-0.701774
-553,-20,-66.0007,0.564575,-0.00260032,-0.00215336,-0.00117855,-0.00117729,-0.00357639,-0.879097,0.00210461,0.0464866,671,1044,-66.0007,-0.564633
-546,-20,-65.9841,0.538086,-0.00394982,-0.00181079,-0.000880981,-0.00149467,-0.00426595,-1.22628,0.00249944,0.0428766,678,1044,-65.9842,-0.538143
-539,-20,-66.1233,0.547974,-0.00574689,-0.00189893,-0.000941356,-0.00168099,-0.00596483,-1.34328,0.00355141,0.0406975,685,1044,-66.1233,-0.547981
-532,-20,-66.2827,0.530396,-0.00768176,-0.00173224,-0.00123187,-0.00148726,-0.00792674,-1.37449,0.00486511,0.0404733,692,1044,-66.2827,-0.530338
-525,-20,0,0,0,0,0,0,0,0,0,-1,699,1044,0,0
-518,-20,0,0,0,0,0,0,0,0,0,-1,706,1044,0,0
-511,-20,0,0,0,0,0,0,0,0,0,-1,713,1044,0,0
-504,-20,0,0,0,0,0,0,0,0,0,-1,720,1044,0,0
-497,-20,0,0,0,0,0,0,0,0,0,-1,727,1044,0,0
-490,-20,0,0,0,0,0,0,0,0,0,-1,734,1044,0,0
-483,-20,0,0,0,0,0,0,0,0,0,-1,741,1044,0,0
-476,-20,0,0,0,0,0,0,0,0,0,-1,748,1044,0,0
-469,-20,0,0,0,0,0,0,0,0,0,-1,755,1044,0,0
-462,-20,0,0,0,0,0,0,0,0,0,-1,762,1044,0,0
-455,-20,0,0,0,0,0,0,0,0,0,-1,769,1044,0,0
-448,-20,0,0,0,0,0,0,0,0,0,-1,776,1044,0,0
-441,-20,0,0,0,0,0,0,0,0,0,-1,783,1044,0,0
-434,-20,0,0,0,0,0,0,0,0,0,-1,790,1044,0,0
-427,-20,0,0,0,0,0,0,0,0,0,-1,797,1044,0,0
-420,-20,0,0,0,0,0,0,0,0,0,-1,804,1044,0,0
-413,-20,0,0,0,0,0,0,0,0,0,-1,811,1044,0,0
-406,-20,0,0,0,0,0,0,0,0,0,-1,818,1044,0,0
-399,-20,0,0,0,0,0,0,0,0,0,-1,825,1044,0,0
-392,-20,0,0,0,0,0,0,0,0,0,-1,832,1044,0,0
-385,-20,0,0,0,0,0,0,0,0,0,-1,839,1044,0,0
-378,-20,0,0,0,0,0,0,0,0,0,-1,846,1044,0,0
-371,-20,0,0,0,0,0,0,0,0,0,-1,853,1044,0,0
-364,-20,0,0,0,0,0,0,0,0,0,-1,860,1044,0,0
-357,-20,0,0,0,0,0,0,0,0,0,-1,867,1044,0,0
-350,-20,0,0,0,0,0,0,0,0,0,-1,874,1044,0,0
-343,-20,0,0,0,0,0,0,0,0,0,-1,881,1044,0,0
-336,-20,0,0,0,0,0,0,0,0,0,-1,888,1044,0,0
-329,-20,0,0,0,0,0,0,0,0,0,-1,895,1044,0,0
-322,-20,0,0,0,0,0,0,0,0,0,-1,902,1044,0,0
-315,-20,0,0,0,0,0,0,0,0,0,-1,909,1044,0,0
-308,-20,0,0,0,0,0,0,0,0,0,-1,916,1044,0,0
-301,-20,0,0,0,0,0,0,0,0,0,-1,923,1044,0,0
-294,-20,0,0,0,0,0,0,0,0,0,-1,930,1044,0,0
-287,-20,0,0,0,0,0,0,0,0,0,-1,937,1044,0,0
-280,-20,0,0,0,0,0,0,0,0,0,-1,944,1044,0,0
-273,-20,0,0,0,0,0,0,0,0,0,-1,951,1044,0,0
-266,-20,0,0,0,0,0,0,0,0,0,-1,958,1044,0,0
-259,-20,0,0,0,0,0,0,0,0,0,-1,965,1044,0,0
-252,-20,0,0,0,0,0,0,0,0,0,-1,972,1044,0,0
-245,-20,0,0,0,0,0,0,0,0,0,-1,979,1044,0,0
-238,-20,0,0,0,0,0,0,0,0,0,-1,986,1044,0,0
-231,-20,0,0,0,0,0,0,0,0,0,-1,993,1044,0,0
-224,-20,0,0,0,0,0,0,0,0,0,-1,1000,1044,0,0
-217,-20,0,0,0,0,0,0,0,0,0,-1,1007,1044,0,0
-210,-20,0,0,0,0,0,0,0,0,0,-1,1014,1044,0,0
-203,-20,0,0,0,0,0,0,0,0,0,-1,1021,1044,0,0
-196,-20,0,0,0,0,0,0,0,0,0,-1,1028,1044,0,0
-189,-20,0,0,0,0,0,0,0,0,0,-1,1035,1044,0,0
-182,-20,0,0,0,0,0,0,0,0,0,-1,1042,1044,0,0
-175,-20,0,0,0,0,0,0,0,0,0,-1,1049,1044,0,0
-168,-20,0,0,0,0,0,0,0,0,0,-1,1056,1044,0,0
-161,-20,0,0,0,0,0,0,0,0,0,-1,1063,1044,0,0
-154,-20,0,0,0,0,0,0,0,0,0,-1,1070,1044,0,0
-147,-20,0,0,0,0,0,0,0,0,0,-1,1077,1044,0,0
-140,-20,0,0,0,0,0,0,0,0,0,-1,1084,1044,0,0
-133,-20,0,0,0,0,0,0,0,0,0,-1,1091,1044,0,0
-126,-20,0,0,0,0,0,0,0,0,0,-1,1098,1044,0,0
-119,-20,0,0,0,0,0,0,0,0,0,-1,1105,1044,0,0
-112,-20,0,0,0,0,0,0,0,0,0,-1,1112,1044,0,0
-105,-20,0,0,0,0,0,0,0,0,0,-1,1119,1044,0,0
-98,-20,0,0,0,0,0,0,0,0,0,-1,1126,1044,0,0
-91,-20,0,0,0,0,0,0,0,0,0,-1,1133,1044,0,0
-84,-20,0,0,0,0,0,0,0,0,0,-1,1140,1044,0,0
-77,-20,0,0,0,0,0,0,0,0,0,-1,1147,1044,0,0
-70,-20,0,0,0,0,0,0,0,0,0,-1,1154,1044,0,0
-63,-20,0,0,0,0,0,0,0,0,0,-1,1161,1044,0,0
-56,-20,0,0,0,0,0,0,0,0,0,-1,1168,1044,0,0
-49,-20,0,0,0,0,0,0,0,0,0,-1,1175,1044,0,0
-42,-20,0,0,0,0,0,0,0,0,0,-1,1182,1044,0,0
-35,-20,0,0,0,0,0,0,0,0,0,-1,1189,1044,0,0
-28,-20,0,0,0,0,0,0,0,0,0,-1,1196,1044,0,0
-21,-20,0,0,0,0,0,0,0,0,0,-1,1203,1044,0,0
-14,-20,0,0,0,0,0,0,0,0,0,-1,1210,1044,0,0
-7,-20,0,0,0,0,0,0,0,0,0,-1,1217,1044,0,0
0,-20,0,0,0,0,0,0,0,0,0,-1,1224,1044,0,0
7,-20,0,0,0,0,0,0,0,0,0,-1,1231,1044,0,0
14,-20,0,0,0,0,0,0,0,0,0,-1,1238,1044,0,0
21,-20,0,0,0,0,0,0,0,0,0,-1,1245,1044,0,0
28,-20,0,0,0,0,0,0,0,0,0,-1,1252,1044,0,0
35,-20,0,0,0,0,0,0,0,0,0,-1,1259,1044,0,0
42,-20,0,0,0,0,0,0,0,0,0,-1,1266,1044,0,0
49,-20,0,0,0,0,0,0,0,0,0,-1,1273,1044,0,0
56,-20,0,0,0,0,0,0,0,0,0,-1,1280,1044,0,0
63,-20,0,0,0,0,0,0,0,0,0,-1,1287,1044,0,0
70,-20,0,0,0,0,0,0,0,0,0,-1,1294,1044,0,0
77,-20,0,0,0,0,0,0,0,0,0,-1,1301,1044,0,0
84,-20,0,0,0,0,0,0,0,0,0,-1,1308,1044,0,0
91,-20,0,0,0,0,0,0,0,0,0,-1,1315,1044,0,0
98,-20,0,0,0,0,0,0,0,0,0,-1,1322,1044,0,0
105,-20,0,0,0,0,0,0,0,0,0,-1,1329,1044,0,0
112,-20,0,0,0,0,0,0,0,0,0,-1,1336,1044,0,0
119,-20,0,0,0,0,0,0,0,0,0,-1,1343,1044,0,0
126,-20,0,0,0,0,0,0,0,0,0,-1,1350,1044,0,0
133,-20,0,0,0,0,0,0,0,0,0,-1,1357,1044,0,0
140,-20,0,0,0,0,0,0,0,0,0,-1,1364,1044,0,0
147,-20,0,0,0,0,0,0,0,0,0,-1,1371,1044,0,0
154,-20,0,0,0,0,0,0,0,0,0,-1,1378,1044,0,0
161,-20,0,0,0,0,0,0,0,0,0,-1,1385,1044,0,0
168,-20,0,0,0,0,0,0,0,0,0,-1,1392,1044,0,0
175,-20,0,0,0,0,0,0,0,0,0,-1,1399,1044,0,0
182,-20,0,0,0,0,0,0,0,0,0,-1,1406,1044,0,0
189,-20,0,0,0,0,0,0,0,0,0,-1,1413,1044,0,0
196,-20,0,0,0,0,0,0,0,0,0,-1,1420,1044,0,0
203,-20,0,0,0,0,0,0,0,0,0,-1,1427,1044,0,0
210,-20,0,0,0,0,0,0,0,0,0,-1,1434,1044,0,0
217,-20,0,0,0,0,0,0,0,0,0,-1,1441,1044,0,0
224,-20,0,0,0,0,0,0,0,0,0,-1,1448,1044,0,0
231,-20,0,0,0,0,0,0,0,0,0,-1,1455,1044,0,0
238,-20,0,0,0,0,0,0,0,0,0,-1,1462,1044,0,0
245,-20,0,0,0,0,0,0,0,0,0,-1,1469,1044,0,0
252,-20,0,0,0,0,0,0,0,0,0,-1,1476,1044,0,0
259,-20,0,0,0,0,0,0,0,0,0,-1,1483,1044,0,0
266,-20,0,0,0,0,0,0,0,0,0,-1,1490,1044,0,0
273,-20,0,0,0,0,0,0,0,0,0,-1,1497,1044,0,0
280,-20,0,0,0,0,0,0,0,0,0,-1,1504,1044,0,0
287,-20,0,0,0,0,0,0,0,0,0,-1,1511,1044,0,0
294,-20,0,0,0,0,0,0,0,0,0,-1,1518,1044,0,0
301,-20,0,0,0,0,0,0,0,0,0,-1,1525,1044,0,0
308,-20,0,0,0,0,0,0,0,0,0,-1,1532,1044,0,0
315,-20,0,0,0,0,0,0,0,0,0,-1,1539,1044,0,0
322,-20,0,0,0,0,0,0,0,0,0,-1,1546,1044,0,0
329,-20,0,0,0,0,0,0,0,0,0,-1,1553,1044,0,0
336,-20,0,0,0,0,0,0,0,0,0,-1,1560,1044,0,0
343,-20,0,0,0,0,0,0,0,0,0,-1,1567,1044,0,0
350,-20,0,0,0,0,0,0,0,0,0,-1,1574,1044,0,0
357,-20,0,0,0,0,0,0,0,0,0,-1,1581,1044,0,0
364,-20,0,0,0,0,0,0,0,0,0,-1,1588,1044,0,0
371,-20,0,0,0,0,0,0,0,0,0,-1,1595,1044,0,0
378,-20,0,0,0,0,0,0,0,0,0,-1,1602,1044,0,0
385,-20,0,0,0,0,0,0,0,0,0,-1,1609,1044,0,0
392,-20,0,0,0,0,0,0,0,0,0,-1,1616,1044,0,0
399,-20,0,0,0,0,0,0,0,0,0,-1,1623,1044,0,0
406,-20,0,0,0,0,0,0,0,0,0,-1,1630,1044,0,0
413,-20,0,0,0,0,0,0,0,0,0,-1,1637,1044,0,0
420,-20,0,0,0,0,0,0,0,0,0,-1,1644,1044,0,0
427,-20,0,0,0,0,0,0,0,0,0,-1,1651,1044,0,0
434,-20,0,0,0,0,0,0,0,0,0,-1,1658,1044,0,0
441,-20,0,0,0,0,0,0,0,0,0,-1,1665,1044,0,0
448,-20,0,0,0,0,0,0,0,0,0,-1,1672,1044,0,0
455,-20,0,0,0,0,0,0,0,0,0,-1,1679,1044,0,0
462,-20,0,0,0,0,0,0,0,0,0,-1,1686,1044,0,0
469,-20,0,0,0,0,0,0,0,0,0,-1,1693,1044,0,0
476,-20,0,0,0,0,0,0,0,0,0,-1,1700,1044,0,0
483,-20,0,0,0,0,0,0,0,0,0,-1,1707,1044,0,0
490,-20,0,0,0,0,0,0,0,0,0,-1,1714,1044,0,0
497,-20,0,0,0,0,0,0,0,0,0,-1,1721,1044,0,0
504,-20,0,0,0,0,0,0,0,0,0,-1,1728,1044,0,0
511,-20,0,0,0,0,0,0,0,0,0,-1,1735,1044,0,0
518,-20,0,0,0,0,0,0,0,0,0,-1,1742,1044,0,0
525,-20,0,0,0,0,0,0,0,0,0,-1,1749,1044,0,0
532,-20,0,0,0,0,0,0,0,0,0,-1,1756,1044,0,0
539,-20,0,0,0,0,0,0,0,0,0,-1,1763,1044,0,0
546,-20,0,0,0,0,0,0,0,0,0,-1,1770,1044,0,0
553,-20,0,0,0,0,0,0,0,0,0,-1,1777,1044,0,0
560,-20,0,0,0,0,0,0,0,0,0,-1,1784,1044,0,0
567,-20,0,0,0,0,0,0,0,0,0,-1,1791,1044,0,0
574,-20,0,0,0,0,0,0,0,0,0,-1,1798,1044,0,0
581,-20,0,0,0,0,0,0,0,0,0,-1,1805,1044,0,0
588,-20,0,0,0,0,0,0,0,0,0,-1,1812,1044,0,0
595,-20,0,0,0,0,0,0,0,0,0,-1,1819,1044,0,0
602,-20,0,0,0,0,0,0,0,0,0,-1,1826,1044,0,0
609,-20,0,0,0,0,0,0,0,0,0,-1,1833,1044,0,0
616,-20,0,0,0,0,0,0,0,0,0,-1,1840,1044,0,0
623,-20,0,0,0,0,0,0,0,0,0,-1,1847,1044,0,0
630,-20,0,0,0,0,0,0,0,0,0,-1,1854,1044,0,0
637,-20,0,0,0,0,0,0,0,0,0,-1,1861,1044,0,0
644,-20,0,0,0,0,0,0,0,0,0,-1,1868,1044,0,0
651,-20,83.2588,2.36414,0.00333894,-0.000671295,0.00326601,0.00516623,-0.00249858,0.510096,0.00451373,0.0389251,1875,1044,83.2588,-2.36408
658,-20,83.2194,2.60242,0.00192357,-0.000514282,0.00238201,0.00338042,-0.00197112,0.548907,0.00312522,0.0440142,1882,1044,83.2193,-2.60243
665,-20,83.2832,2.52344,0.000948585,-0.000340128,0.00175953,0.00217803,-0.00156958,0.609877,0.00217317,0.0406309,1889,1044,83.2832,-2.5234
672,-20,83.2925,2.34998,0.000286853,-8.17932e-05,0.00140604,0.0015206,-0.00131554,0.720223,0.00163887,0.0258465,1896,1044,83.2925,-2.34993
679,-20,83.2305,2.33557,-0.000170497,0.000205763,0.00118014,0.00121268,-0.00117741,0.864439,0.00137997,0.0276693,1903,1044,83.2305,-2.33562
686,-20,83.101,2.33984,-0.00065043,0.000237313,0.00121231,0.00108445,-0.00149757,0.960888,0.00149708,0.0370514,1910,1044,83.1009,-2.33987
693,-20,83.0482,2.3833,-0.00111328,0.000168909,0.00137177,0.001042,-0.00198637,1.00399,0.00177654,0.0407566,1917,1044,83.0482,-2.38325
700,-20,83.1199,2.33484,-0.00154406,-3.61273e-05,0.00165573,0.00102922,-0.00260941,0.999053,0.0021658,0.0374897,1924,1044,83.1198,-2.33486
707,-20,83.1984,2.35046,-0.00242341,0.000312155,0.00190522,0.00128973,-0.00340099,1.09672,0.00279813,0.0346576,1931,1044,83.1984,-2.35052
714,-20,83.1945,2.54138,-0.00373615,0.00136875,0.00195208,0.00202965,-0.00439705,1.24435,0.00379344,0.0326457,1938,1044,83.1945,-2.54141
721,-20,82.9952,2.51245,0,0,0,0,0,0,0,-1,1945,1044,82.9952,-2.51246
728,-20,83.7025,8.48938,0,0,0,0,0,0,0,-1,1952,1044,83.7026,-8.48933
735,-20,83.3613,8.3269,0,0,0,0,0,0,0,-1,1959,1044,83.3613,-8.32692
742,-20,83.3315,8.16187,0,0,0,0,0,0,0,-1,1966,1044,83.3316,-8.16181
749,-20,83.198,7.87769,-0.0105473,0.0128506,-0.00126378,0.0129187,-0.0106154,-1.51699,0.0136091,0.0421877,1973,1044,83.198,-7.87765
756,-20,83.1899,7.75513,-0.00998332,0.0168203,-0.00416088,0.0174513,-0.0106144,-1.42028,0.0163632,0.0236186,1980,1044,83.19,-7.75509
763,-20,83.0874,7.58301,-0.00797829,0.0218504,-0.00857455,0.0241396,-0.0102674,-1.30991,0.020396,0.0348499,1987,1044,83.0873,-7.58299
770,-20,82.9568,7.46655,-0.00352099,0.028691,-0.0155361,0.0349629,-0.00979293,-1.1871,0.0271678,0.0289224,1994,1044,82.9568,-7.46653
777,-20,82.7214,7.13391,0.00645794,0.0382595,-0.0273735,0.0540154,-0.00929796,-1.04852,0.0394763,0.0199946,2001,1044,82.7215,-7.13392
784,-20,82.6682,6.87439,0.0191417,0.0482271,-0.0414259,0.0775888,-0.01022,-0.954204,0.0554474,0.0253505,2008,1044,82.6681,-6.87438
791,-20,82.9644,6.16479,0,0,0,0,0,0,0,-1,2015,1044,82.9644,-6.16477
798,-20,83.0203,4.88611,0.0540194,0.0694667,-0.0773625,0.13949,-0.016004,-0.835152,0.0987613,0.0446239,2022,1044,83.0203,-4.88616
805,-20,83.2319,3.84741,0.076517,0.0802532,-0.0989724,0.177375,-0.020605,-0.794835,0.125683,0.0428237,2029,1044,83.2319,-3.84739
812,-20,83.4771,2.9342,0.102131,0.0910116,-0.122596,0.219293,-0.0261504,-0.762739,0.155646,0.0460362,2036,1044,83.4769,-2.93421
-700,-27,-65.2666,-4.33008,0,0,0,0,0,0,0,-1,524,1051,-65.2666,4.33004
-693,-27,-65.4191,-2.54846,0,0,0,0,0,0,0,-1,531,1051,-65.4191,2.54852
-686,-27,-65.3723,-0.291504,0,0,0,0,0,0,0,-1,538,1051,-65.3723,0.291546
-679,-27,-64.7381,5.10791,0,0,0,0,0,0,0,-1,545,1051,-64.7381,-5.10795
-672,-27,-67.0513,6.37,0,0,0,0,0,0,0,-1,552,1051,-67.0513,-6.36994
-665,-27,-66.7583,6.09766,0,0,0,0,0,0,0,-1,559,1051,-66.7583,-6.09768
-658,-27,-66.7552,6.06873,0,0,0,0,0,0,0,-1,566,1051,-66.7551,-6.06876
-651,-27,-66.5794,6.27551,-0.0253882,0.0359972,0.0165282,0.0401646,-0.0295556,1.32381,0.040408,0.0386352,573,1051,-66.5794,-6.27549
-644,-27,-66.5911,6.52954,-0.0188746,0.0305069,0.0102068,0.0325334,-0.0209011,1.3748,0.0310932,0.0186155,580,1051,-66.5911,-6.52959
-637,-27,-66.6671,6.76086,-0.0137013,0.0241647,0.00568314,0.0249992,-0.0145359,1.42499,0.0230905,0.0160883,587,1051,-66.6671,-6.76081
-630,-27,-66.8257,7.21533,-0.00897801,0.0174501,0.00208859,0.0176142,-0.00914205,1.49242,0.0157037,0.0209101,594,1051,-66.8258,-7.21532
-623,-27,-66.8907,7.54553,-0.00546505,0.0113639,-0.000376827,0.0113723,-0.00547348,-1.54842,0.00992269,0.0197757,601,1051,-66.8907,-7.54549
-616,-27,-66.8395,7.80334,-0.00310938,0.00701485,-0.00180293,0.00732633,-0.00342086,-1.39972,0.00633999,0.0164651,608,1051,-66.8395,-7.80333
-609,-27,-66.7984,8.04761,-0.00160463,0.00349778,-0.00233319,0.0044038,-0.00251065,-1.2004,0.00404163,0.0162454,615,1051,-66.7984,-8.04761
-602,-27,-66.791,8.26819,-0.000621339,0.00131684,-0.00252284,0.00305032,-0.00235481,-0.968772,0.00312926,0.0140975,622,1051,-66.791,-8.26819
-595,-27,-66.7455,8.52917,2.53485e-06,-0.000511039,-0.00259977,0.00235817,-0.00286668,-0.736171,0.00302132,0.0313238,629,1051,-66.7455,-8.5292
-588,-27,-66.8384,8.81506,0,0,0,0,0,0,0,-1,636,1051,-66.8384,-8.81502
-581,-27,-66.1897,0.457397,0.000280653,-0.00263611,-0.00243378,0.00165955,-0.004015,-0.515474,0.00336897,0.024634,643,1051,-66.1897,-0.457454
-574,-27,-66.1851,0.502197,8.38272e-05,-0.00313305,-0.00223547,0.00122937,-0.00427859,-0.473548,0.0033385,0.0370391,650,1051,-66.1851,-0.502147
-567,-27,-66.1805,0.151733,-0.00056133,-0.00311231,-0.0018632,0.000421142,-0.00409479,-0.485251,0.00288052,0.0491619,657,1051,-66.1805,-0.151717
-560,-27,-65.5751,0.290649,0,0,0,0,0,0,0,-1,664,1051,-65.5751,-0.290655
-553,-27,-65.7302,0.413208,-0.00291242,-0.00204965,-0.000748061,-0.00161751,-0.00334457,-1.04694,0.00193133,0.0433312,671,1051,-65.7302,-0.413259
-546,-27,-65.8809,0.504883,-0.00465254,-0.00168561,-0.000228252,-0.00166816,-0.00467,-1.49446,0.00273263,0.0419533,678,1051,-65.8809,-0.504861
-539,-27,-66.14,0.509155,-0.00685793,-0.00186913,-1.85672e-05,-0.00186906,-0.006858,-1.56707,0.00409376,0.040912,685,1051,-66.14,-0.509197
-532,-27,-66.3824,0.531982,-0.00926042,-0.00186147,6.03034e-05,-0.00186098,-0.00926091,1.56265,0.00565659,0.0422657,692,1051,-66.3824,-0.532021
-525,-27,0,0,0,0,0,0,0,0,0,-1,699,1051,0,0
-518,-27,0,0,0,0,0,0,0,0,0,-1,706,1051,0,0
-511,-27,0,0,0,0,0,0,0,0,0,-1,713,1051,0,0
-504,-27,0,0,0,0,0,0,0,0,0,-1,720,1051,0,0
-497,-27,0,0,0,0,0,0,0,0,0,-1,727,1051,0,0
-490,-27,0,0,0,0,0,0,0,0,0,-1,734,1051,0,0
-483,-27,0,0,0,0,0,0,0,0,0,-1,741,1051,0,0
-476,-27,0,0,0,0,0,0,0,0,0,-1,748,1051,0,0
-469,-27,0,0,0,0,0,0,0,0,0,-1,755,1051,0,0
-462,-27,0,0,0,0,0,0,0,0,0,-1,762,1051,0,0
-455,-27,0,0,0,0,0,0,0,0,0,-1,769,1051,0,0
-448,-27,0,0,0,0,0,0,0,0,0,-1,776,1051,0,0
-441,-27,0,0,0,0,0,0,0,0,0,-1,783,1051,0,0
-434,-27,0,0,0,0,0,0,0,0,0,-1,790,1051,0,0
-427,-27,0,0,0,0,0,0,0,0,0,-1,797,1051,0,0
-420,-27,0,0,0,0,0,0,0,0,0,-1,804,1051,0,0
-413,-27,0,0,0,0,0,0,0,0,0,-1,811,1051,0,0
-406,-27,0,0,0,0,0,0,0,0,0,-1,818,1051,0,0
-399,-27,0,0,0,0,0,0,0,0,0,-1,825,1051,0,0
-392,-27,0,0,0,0,0,0,0,0,0,-1,832,1051,0,0
-385,-27,0,0,0,0,0,0,0,0,0,-1,839,1051,0,0
-378,-27,0,0,0,0,0,0,0,0,0,-1,846,1051,0,0
-371,-27,0,0,0,0,0,0,0,0,0,-1,853,1051,0,0
-364,-27,0,0,0,0,0,0,0,0,0,-1,860,1051,0,0
-357,-27,0,0,0,0,0,0,0,0,0,-1,867,1051,0,0
-350,-27,0,0,0,0,0,0,0,0,0,-1,874,1051,0,0
-343,-27,0,0,0,0,0,0,0,0,0,-1,881,1051,0,0
-336,-27,0,0,0,0,0,0,0,0,0,-1,888,1051,0,0
-329,-27,0,0,0,0,0,0,0,0,0,-1,895,1051,0,0
-322,-27,0,0,0,0,0,0,0,0,0,-1,902,1051,0,0
-315,-27,0,0,0,0,0,0,0,0,0,-1,909,1051,0,0
-308,-27,0,0,0,0,0,0,0,0,0,-1,916,1051,0,0
-301,-27,0,0,0,0,0,0,0,0,0,-1,923,1051,0,0
-294,-27,0,0,0,0,0,0,0,0,0,-1,930,1051,0,0
-287,-27,0,0,0,0,0,0,0,0,0,-1,937,1051,0,0
-280,-27,0,0,0,0,0,0,0,0,0,-1,944,1051,0,0
-273,-27,0,0,0,0,0,0,0,0,0,-1,951,1051,0,0
-266,-27,0,0,0,0,0,0,0,0,0,-1,958,1051,0,0
-259,-27,0,0,0,0,0,0,0,0,0,-1,965,1051,0,0
-252,-27,0,0,0,0,0,0,0,0,0,-1,972,1051,0,0
-245,-27,0,0,0,0,0,0,0,0,0,-1,979,1051,0,0
-238,-27,0,0,0,0,0,0,0,0,0,-1,986,1051,0,0
-231,-27,0,0,0,0,0,0,0,0,0,-1,993,1051,0,0
-224,-27,0,0,0,0,0,0,0,0,0,-1,1000,1051,0,0
-217,-27,0,0,0,0,0,0,0,0,0,-1,1007,1051,0,0
-210,-27,0,0,0,0,0,0,0,0,0,-1,1014,1051,0,0
-203,-27,0,0,0,0,0,0,0,0,0,-1,1021,1051,0,0
-196,-27,0,0,0,0,0,0,0,0,0,-1,1028,1051,0,0
-189,-27,0,0,0,0,0,0,0,0,0,-1,1035,1051,0,0
-182,-27,0,0,0,0,0,0,0,0,0,-1,1042,1051,0,0
-175,-27,0,0,0,0,0,0,0,0,0,-1,1049,1051,0,0
-168,-27,0,0,0,0,0,0,0,0,0,-1,1056,1051,0,0
-161,-27,0,0,0,0,0,0,0,0,0,-1,1063,1051,0,0
-154,-27,0,0,0,0,0,0,0,0,0,-1,1070,1051,0,0
-147,-27,0,0,0,0,0,0,0,0,0,-1,1077,1051,0,0
-140,-27,0,0,0,0,0,0,0,0,0,-1,1084,1051,0,0
-133,-27,0,0,0,0,0,0,0,0,0,-1,1091,1051,0,0
-126,-27,0,0,0,0,0,0,0,0,0,-1,1098,1051,0,0
-119,-27,0,0,0,0,0,0,0,0,0,-1,1105,1051,0,0
-112,-27,0,0,0,0,0,0,0,0,0,-1,1112,1051,0,0
-105,-27,0,0,0,0,0,0,0,0,0,-1,1119,1051,0,0
-98,-27,0,0,0,0,0,0,0,0,0,-1,1126,1051,0,0
-91,-27,0,0,0,0,0,0,0,0,0,-1,1133,1051,0,0
-84,-27,0,0,0,0,0,0,0,0,0,-1,1140,1051,0,0
-77,-27,0,0,0,0,0,0,0,0,0,-1,1147,1051,0,0
-70,-27,0,0,0,0,0,0,0,0,0,-1,1154,1051,0,0
-63,-27,0,0,0,0,0,0,0,0,0,-1,1161,1051,0,0
-56,-27,0,0,0,0,0,0,0,0,0,-1,1168,1051,0,0
-49,-27,0,0,0,0,0,0,0,0,0,-1,1175,1051,0,0
-42,-27,0,0,0,0,0,0,0,0,0,-1,1182,1051,0,0
-35,-27,0,0,0,0,0,0,0,0,0,-1,1189,1051,0,0
-28,-27,0,0,0,0,0,0,0,0,0,-1,1196,1051,0,0
-21,-27,0,0,0,0,0,0,0,0,0,-1,1203,1051,0,0
-14,-27,0,0,0,0,0,0,0,0,0,-1,1210,1051,0,0
-7,-27,0,0,0,0,0,0,0,0,0,-1,1217,1051,0,0
0,-27,0,0,0,0,0,0,0,0,0,-1,1224,1051,0,0
7,-27,0,0,0,0,0,0,0,0,0,-1,1231,1051,0,0
14,-27,0,0,0,0,0,0,0,0,0,-1,1238,1051,0,0
21,-27,0,0,0,0,0,0,0,0,0,-1,1245,1051,0,0
28,-27,0,0,0,0,0,0,0,0,0,-1,1252,1051,0,0
35,-27,0,0,0,0,0,0,0,0,0,-1,1259,1051,0,0
42,-27,0,0,0,0,0,0,0,0,0,-1,1266,1051,0,0
49,-27,0,0,0,0,0,0,0,0,0,-1,1273,1051,0,0
56,-27,0,0,0,0,0,0,0,0,0,-1,1280,1051,0,0
63,-27,0,0,0,0,0,0,0,0,0,-1,1287,1051,0,0
70,-27,0,0,0,0,0,0,0,0,0,-1,1294,1051,0,0
77,-27,0,0,0,0,0,0,0,0,0,-1,1301,1051,0,0
84,-27,0,0,0,0,0,0,0,0,0,-1,1308,1051,0,0
91,-27,0,0,0,0,0,0,0,0,0,-1,1315,1051,0,0
98,-27,0,0,0,0,0,0,0,0,0,-1,1322,1051,0,0
105,-27,0,0,0,0,0,0,0,0,0,-1,1329,1051,0,0
112,-27,0,0,0,0,0,0,0,0,0,-1,1336,1051,0,0
119,-27,0,0,0,0,0,0,0,0,0,-1,1343,1051,0,0
126,-27,0,0,0,0,0,0,0,0,0,-1,1350,1051,0,0
133,-27,0,0,0,0,0,0,0,0,0,-1,1357,1051,0,0
140,-27,0,0,0,0,0,0,0,0,0,-1,1364,1051,0,0
147,-27,0,0,0,0,0,0,0,0,0,-1,1371,1051,0,0
154,-27,0,0,0,0,0,0,0,0,0,-1,1378,1051,0,0
161,-27,0,0,0,0,0,0,0,0,0,-1,1385,1051,0,0
168,-27,0,0,0,0,0,0,0,0,0,-1,1392,1051,0,0
175,-27,0,0,0,0,0,0,0,0,0,-1,1399,1051,0,0
182,-27,0,0,0,0,0,0,0,0,0,-1,1406,1051,0,0
189,-27,0,0,0,0,0,0,0,0,0,-1,1413,1051,0,0
196,-27,0,0,0,0,0,0,0,0,0,-1,1420,1051,0,0
203,-27,0,0,0,0,0,0,0,0,0,-1,1427,1051,0,0
210,-27,0,0,0,0,0,0,0,0,0,-1,1434,1051,0,0
217,-27,0,0,0,0,0,0,0,0,0,-1,1441,1051,0,0
224,-27,0,0,0,0,0,0,0,0,0,-1,1448,1051,0,0
231,-27,0,0,0,0,0,0,0,0,0,-1,1455,1051,0,0
238,-27,0,0,0,0,0,0,0,0,0,-1,1462,1051,0,0
245,-27,0,0,0,0,0,0,0,0,0,-1,1469,1051,0,0
252,-27,0,0,0,0,0,0,0,0,0,-1,1476,1051,0,0
259,-27,0,0,0,0,0,0,0,0,0,-1,1483,1051,0,0
266,-27,0,0,0,0,0,0,0,0,0,-1,1490,1051,0,0
273,-27,0,0,0,0,0,0,0,0,0,-1,1497,1051,0,0
280,-27,0,0,0,0,0,0,0,0,0,-1,1504,1051,0,0
287,-27,0,0,0,0,0,0,0,0,0,-1,1511,1051,0,0
294,-27,0,0,0,0,0,0,0,0,0,-1,1518,1051,0,0
301,-27,0,0,0,0,0,0,0,0,0,-1,1525,1051,0,0
308,-27,0,0,0,0,0,0,0,0,0,-1,1532,1051,0,0
315,-27,0,0,0,0,0,0,0,0,0,-1,1539,1051,0,0
322,-27,0,0,0,0,0,0,0,0,0,-1,1546,1051,0,0
329,-27,0,0,0,0,0,0,0,0,0,-1,1553,1051,0,0
336,-27,0,0,0,0,0,0,0,0,0,-1,1560,1051,0,0
343,-27,0,0,0,0,0,0,0,0,0,-1,1567,1051,0,0
350,-27,0,0,0,0,0,0,0,0,0,-1,1574,1051,0,0
357,-27,0,0,0,0,0,0,0,0,0,-1,1581,1051,0,0
364,-27,0,0,0,0,0,0,0,0,0,-1,1588,1051,0,0
371,-27,0,0,0,0,0,0,0,0,0,-1,1595,1051,0,0
378,-27,0,0,0,0,0,0,0,0,0,-1,1602,1051,0,0
385,-27,0,0,0,0,0,0,0,0,0,-1,1609,1051,0,0
392,-27,0,0,0,0,0,0,0,0,0,-1,1616,1051,0,0
399,-27,0,0,0,0,0,0,0,0,0,-1,1623,1051,0,0
406,-27,0,0,0,0,0,0,0,0,0,-1,1630,1051,0,0
413,-27,0,0,0,0,0,0,0,0,0,-1,1637,1051,0,0
420,-27,0,0,0,0,0,0,0,0,0,-1,1644,1051,0,0
427,-27,0,0,0,0,0,0,0,0,0,-1,1651,1051,0,0
434,-27,0,0,0,0,0,0,0,0,0,-1,1658,1051,0,0
441,-27,0,0,0,0,0,0,0,0,0,-1,1665,1051,0,0
448,-27,0,0,0,0,0,0,0,0,0,-1,1672,1051,0,0
455,-27,0,0,0,0,0,0,0,0,0,-1,1679,1051,0,0
462,-27,0,0,0,0,0,0,0,0,0,-1,1686,1051,0,0
469,-27,0,0,0,0,0,0,0,0,0,-1,1693,1051,0,0
476,-27,0,0,0,0,0,0,0,0,0,-1,1700,1051,0,0
483,-27,0,0,0,0,0,0,0,0,0,-1,1707,1051,0,0
490,-27,0,0,0,0,0,0,0,0,0,-1,1714,1051,0,0
497,-27,0,0,0,0,0,0,0,0,0,-1,1721,1051,0,0
504,-27,0,0,0,0,0,0,0,0,0,-1,1728,1051,0,0
511,-27,0,0,0,0,0,0,0,0,0,-1,1735,1051,0,0
518,-27,0,0,0,0,0,0,0,0,0,-1,1742,1051,0,0
525,-27,0,0,0,0,0,0,0,0,0,-1,1749,1051,0,0
532,-27,0,0,0,0,0,0,0,0,0,-1,1756,1051,0,0
539,-27,0,0,0,0,0,0,0,0,0,-1,1763,1051,0,0
546,-27,0,0,0,0,0,0,0,0,0,-1,1770,1051,0,0
553,-27,0,0,0,0,0,0,0,0,0,-1,1777,1051,0,0
560,-27,0,0,0,0,0,0,0,0,0,-1,1784,1051,0,0
567,-27,0,0,0,0,0,0,0,0,0,-1,1791,1051,0,0
574,-27,0,0,0,0,0,0,0,0,0,-1,1798,1051,0,0
581,-27,0,0,0,0,0,0,0,0,0,-1,1805,1051,0,0
588,-27,0,0,0,0,0,0,0,0,0,-1,1812,1051,0,0
595,-27,0,0,0,0,0,0,0,0,0,-1,1819,1051,0,0
602,-27,0,0,0,0,0,0,0,0,0,-1,1826,1051,0,0
609,-27,0,0,0,0,0,0,0,0,0,-1,1833,1051,0,0
616,-27,0,0,0,0,0,0,0,0,0,-1,1840,1051,0,0
623,-27,0,0,0,0,0,0,0,0,0,-1,1847,1051,0,0
630,-27,0,0,0,0,0,0,0,0,0,-1,1854,1051,0,0
637,-27,0,0,0,0,0,0,0,0,0,-1,1861,1051,0,0
644,-27,0,0,0,0,0,0,0,0,0,-1,1868,1051,0,0
651,-27,83.3126,2.29041,0.00245781,-0.00145121,0.00331194,0.00434895,-0.00334236,0.518829,0.00445324,0.0391843,1875,1051,83.3127,-2.29043
658,-27,83.2067,2.39014,0.00118898,-0.00105307,0.00236256,0.00268299,-0.00254708,0.56388,0.00301992,0.0402584,1882,1051,83.2067,-2.39008
665,-27,83.1952,2.3623,0.000387474,-0.00068476,0.00168392,0.00161856,-0.00191585,0.631285,0.002043,0.0374308,1889,1051,83.1952,-2.36228
672,-27,83.1556,2.35889,-0.000114385,-0.000249679,0.00129189,0.00111163,-0.00147569,0.759241,0.00149871,0.0278742,1896,1051,83.1556,-2.35893
679,-27,83.1281,2.30115,-0.000416999,0.000200656,0.00102794,0.000965157,-0.0011815,0.931325,0.00124147,0.0271731,1903,1051,83.1281,-2.3011
686,-27,83.17,2.36743,-0.000784021,0.000335125,0.00105723,0.000971738,-0.00142063,1.0288,0.00138932,0.039165,1910,1051,83.17,-2.36748
693,-27,83.1982,2.43848,-0.00118766,0.000312345,0.00125107,0.001021,-0.00189632,1.05542,0.0017094,0.0417646,1917,1051,83.1982,-2.43847
700,-27,83.2025,2.30542,-0.0015864,0.000129951,0.00160425,0.00109114,-0.00254759,1.031,0.00215618,0.036458,1924,1051,83.2025,-2.30543
707,-27,83.1423,2.33545,-0.00242024,0.000407003,0.0019297,0.00138547,-0.0033987,1.10152,0.00284249,0.0270273,1931,1051,83.1423,-2.33541
714,-27,83.189,2.44214,-0.0036377,0.00132262,0.00209955,0.00209197,-0.00440704,1.21956,0.00383074,0.0260177,1938,1051,83.189,-2.4422
721,-27,83.0885,2.59082,0,0,0,0,0,0,0,-1,1945,1051,83.0885,-2.59084
728,-27,83.5858,8.55762,0,0,0,0,0,0,0,-1,1952,1051,83.5858,-8.55761
735,-27,83.1504,8.46741,-0.0085614,0.00655705,0.00210418,0.00684444,-0.00884879,1.43505,0.00908509,0.0295594,1959,1051,83.1504,-8.46737
742,-27,82.9092,8.25891,-0.00995384,0.00847042,0.00188308,0.00866091,-0.0101443,1.46998,0.0108685,0.0244333,1966,1051,82.9091,-8.25894
749,-27,82.9551,7.90955,-0.0098734,0.0119352,-0.000536042,0.0119484,-0.00988657,-1.54624,0.0126251,0.0179541,1973,1051,82.9552,-7.90951
756,-27,82.9089,7.651,-0.00933328,0.0156978,-0.00319722,0.0160998,-0.00973521,-1.44574,0.0150659,0.0173851,1980,1051,82.9089,-7.65104
763,-27,82.7893,7.41406,-0.00736099,0.0204776,-0.0072754,0.0222643,-0.00914769,-1.32998,0.0186553,0.0173969,1987,1051,82.7892,-7.41406
770,-27,82.6753,7.15601,-0.0031895,0.0268867,-0.0134966,0.0320551,-0.00835794,-1.20508,0.0246333,0.0179298,1994,1051,82.6753,-7.15597
777,-27,82.5046,6.96997,0.00592516,0.0357947,-0.023866,0.0490137,-0.00729383,-1.06498,0.0353587,0.0223477,2001,1051,82.5046,-6.96992
784,-27,82.3813,6.80615,0.0174117,0.0450842,-0.0361932,0.0699957,-0.00749979,-0.967971,0.049354,0.0329128,2008,1051,82.3813,-6.8061
791,-27,82.3635,6.57397,0,0,0,0,0,0,0,-1,2015,1051,82.3636,-6.57397
798,-27,82.9888,4.26038,0.0489846,0.0649911,-0.0680478,0.125505,-0.011529,-0.843936,0.0877656,0.045166,2022,1051,82.9888,-4.26041
805,-27,83.2842,3.40344,0.0696106,0.0752077,-0.0875128,0.159967,-0.0151483,-0.801382,0.112036,0.0418457,2029,1051,83.2842,-3.40339
812,-27,83.4241,2.23181,0.0932152,0.0854954,-0.108848,0.198272,-0.0195615,-0.767675,0.139161,0.0444536,2036,1051,83.4241,-2.23185
-700,-34,-65.3334,-5.60303,0,0,0,0,0,0,0,-1,524,1058,-65.3334,5.60298
-693,-34,-65.352,-3.49426,0,0,0,0,0,0,0,-1,531,1058,-65.352,3.49429
-686,-34,-65.4683,-1.38538,0,0,0,0,0,0,0,-1,538,1058,-65.4683,1.3854
-679,-34,-65.6086,0.739868,0,0,0,0,0,0,0,-1,545,1058,-65.6086,-0.7399
-672,-34,-64.8396,5.4884,0,0,0,0,0,0,0,-1,552,1058,-64.8396,-5.48839
-665,-34,-67.4571,5.724,0,0,0,0,0,0,0,-1,559,1058,-67.4571,-5.724
-658,-34,-66.6641,6.08325,0,0,0,0,0,0,0,-1,566,1058,-66.6641,-6.08331
-651,-34,-66.213,5.93274,-0.0260014,0.0297441,0.0201177,0.0362459,-0.0325032,1.2582,0.0397119,0.0320523,573,1058,-66.213,-5.93278
-644,-34,-66.3713,6.33545,-0.0191607,0.0262317,0.0125968,0.0294931,-0.0224221,1.31745,0.0300658,0.0143236,580,1058,-66.3713,-6.33551
-637,-34,-66.4158,6.65918,-0.0135461,0.0213493,0.00704515,0.022718,-0.0149148,1.37891,0.0218825,0.0156846,587,1058,-66.4158,-6.65915
-630,-34,-66.4767,7.10156,-0.00842458,0.0161523,0.002646,0.0164339,-0.00870623,1.46475,0.0147415,0.0192816,594,1058,-66.4767,-7.10155
-623,-34,-66.478,7.42773,-0.00465092,0.0106126,-0.000437194,0.0106251,-0.00466343,-1.54218,0.00904778,0.0168799,601,1058,-66.478,-7.42769
-616,-34,-66.4038,7.82861,-0.00215371,0.00648786,-0.00217533,0.00700456,-0.0026704,-1.33759,0.00576965,0.0238409,608,1058,-66.4038,-7.82863
-609,-34,-66.3715,8.15942,-0.000655024,0.0030063,-0.00265275,0.00439874,-0.00204747,-1.08742,0.00380335,0.0225789,615,1058,-66.3715,-8.15946
-602,-34,-66.4045,8.39734,0.000272797,0.000844669,-0.002766,0.00333947,-0.00222201,-0.836903,0.00323246,0.0171612,622,1058,-66.4045,-8.39733
-595,-34,-66.5081,8.60413,0.000813506,-0.000947537,-0.00276829,0.00283794,-0.00297197,-0.631421,0.00335465,0.0215377,629,1058,-66.5081,-8.60413
-588,-34,-66.8123,8.78894,0,0,0,0,0,0,0,-1,636,1058,-66.8123,-8.78897
-581,-34,-66.1666,0.506226,0.000938502,-0.00289535,-0.00244867,0.00213133,-0.00408818,-0.453302,0.0036496,0.0277986,643,1058,-66.1666,-0.506216
-574,-34,-66.1913,0.54187,0.000675602,-0.00330467,-0.00216331,0.00162495,-0.00425402,-0.413534,0.00350553,0.0389826,650,1058,-66.1913,-0.541858
-567,-34,-66.1809,0.339722,-4.67548e-05,-0.00320183,-0.00172049,0.000709959,-0.00395854,-0.414359,0.00290474,0.0441242,657,1058,-66.1809,-0.339733
-560,-34,-66.106,0.178833,-0.00113284,-0.00266082,-0.00114431,-0.000520924,-0.00327274,-0.49106,0.00203058,0.0418154,664,1058,-66.106,-0.178868
-553,-34,-66.157,0.483154,-0.00259768,-0.00192201,-0.000515067,-0.00164387,-0.00287582,-1.07566,0.00166602,0.0424846,671,1058,-66.157,-0.483207
-546,-34,-66.142,0.682739,-0.00436229,-0.00135893,-1.97315e-05,-0.0013588,-0.00436242,-1.56423,0.00257763,0.044977,678,1058,-66.142,-0.682774
-539,-34,-66.2034,0.654785,-0.00648178,-0.00133145,7.2905e-05,-0.00133042,-0.00648282,1.55664,0.00395373,0.0412828,685,1058,-66.2034,-0.654825
-532,-34,-66.3233,0.502319,-0.00877697,-0.00109286,2.50411e-05,-0.00109278,-0.00877706,1.56754,0.00552326,0.0404249,692,1058,-66.3233,-0.502325
-525,-34,0,0,0,0,0,0,0,0,0,-1,699,1058,0,0
-518,-34,0,0,0,0,0,0,0,0,0,-1,706,1058,0,0
-511,-34,0,0,0,0,0,0,0,0,0,-1,713,1058,0,0
-504,-34,0,0,0,0,0,0,0,0,0,-1,720,1058,0,0
-497,-34,0,0,0,0,0,0,0,0,0,-1,727,1058,0,0
-490,-34,0,0,0,0,0,0,0,0,0,-1,734,1058,0,0
-483,-34,0,0,0,0,0,0,0,0,0,-1,741,1058,0,0
-476,-34,0,0,0,0,0,0,0,0,0,-1,748,1058,0,0
-469,-34,0,0,0,0,0,0,0,0,0,-1,755,1058,0,0
-462,-34,0,0,0,0,0,0,0,0,0,-1,762,1058,0,0
-455,-34,0,0,0,0,0,0,0,0,0,-1,769,1058,0,0
-448,-34,0,0,0,0,0,0,0,0,0,-1,776,1058,0,0
-441,-34,0,0,0,0,0,0,0,0,0,-1,783,1058,0,0
-434,-34,0,0,0,0,0,0,0,0,0,-1,790,1058,0,0
-427,-34,0,0,0,0,0,0,0,0,0,-1,797,1058,0,0
-420,-34,0,0,0,0,0,0,0,0,0,-1,804,1058,0,0
-413,-34,0,0,0,0,0,0,0,0,0,-1,811,1058,0,0
-406,-34,0,0,0,0,0,0,0,0,0,-1,818,1058,0,0
-399,-34,0,0,0,0,0,0,0,0,0,-1,825,1058,0,0
-392,-34,0,0,0,0,0,0,0,0,0,-1,832,1058,0,0
-385,-34,0,0,0,0,0,0,0,0,0,-1,839,1058,0,0
-378,-34,0,0,0,0,0,0,0,0,0,-1,846,1058,0,0
-371,-34,0,0,0,0,0,0,0,0,0,-1,853,1058,0,0
-364,-34,0,0,0,0,0,0,0,0,0,-1,860,1058,0,0
-357,-34,0,0,0,0,0,0,0,0,0,-1,867,1058,0,0
-350,-34,0,0,0,0,0,0,0,0,0,-1,874,1058,0,0
-343,-34,0,0,0,0,0,0,0,0,0,-1,881,1058,0,0
-336,-34,0,0,0,0,0,0,0,0,0,-1,888,1058,0,0
-329,-34,0,0,0,0,0,0,0,0,0,-1,895,1058,0,0
-322,-34,0,0,0,0,0,0,0,0,0,-1,902,1058,0,0
-315,-34,0,0,0,0,0,0,0,0,0,-1,909,1058,0,0
-308,-34,0,0,0,0,0,0,0,0,0,-1,916,1058,0,0
-301,-34,0,0,0,0,0,0,0,0,0,-1,923,1058,0,0
-294,-34,0,0,0,0,0,0,0,0,0,-1,930,1058,0,0
-287,-34,0,0,0,0,0,0,0,0,0,-1,937,1058,0,0
-280,-34,0,0,0,0,0,0,0,0,0,-1,944,1058,0,0
-273,-34,0,0,0,0,0,0,0,0,0,-1,951,1058,0,0
-266,-34,0,0,0,0,0,0,0,0,0,-1,958,1058,0,0
-259,-34,0,0,0,0,0,0,0,0,0,-1,965,1058,0,0
-252,-34,0,0,0,0,0,0,0,0,0,-1,972,1058,0,0
-245,-34,0,0,0,0,0,0,0,0,0,-1,979,1058,0,0
-238,-34,0,0,0,0,0,0,0,0,0,-1,986,1058,0,0
-231,-34,0,0,0,0,0,0,0,0,0,-1,993,1058,0,0
-224,-34,0,0,0,0,0,0,0,0,0,-1,1000,1058,0,0
-217,-34,0,0,0,0,0,0,0,0,0,-1,1007,1058,0,0
-210,-34,0,0,0,0,0,0,0,0,0,-1,1014,1058,0,0
-203,-34,0,0,0,0,0,0,0,0,0,-1,1021,1058,0,0
-196,-34,0,0,0,0,0,0,0,0,0,-1,1028,1058,0,0
-189,-34,0,0,0,0,0,0,0,0,0,-1,1035,1058,0,0
-182,-34,0,0,0,0,0,0,0,0,0,-1,1042,1058,0,0
-175,-34,0,0,0,0,0,0,0,0,0,-1,1049,1058,0,0
-168,-34,0,0,0,0,0,0,0,0,0,-1,1056,1058,0,0
-161,-34,0,0,0,0,0,0,0,0,0,-1,1063,1058,0,0
-154,-34,0,0,0,0,0,0,0,0,0,-1,1070,1058,0,0
-147,-34,0,0,0,0,0,0,0,0,0,-1,1077,1058,0,0
-140,-34,0,0,0,0,0,0,0,0,0,-1,1084,1058,0,0
-133,-34,0,0,0,0,0,0,0,0,0,-1,1091,1058,0,0
-126,-34,0,0,0,0,0,0,0,0,0,-1,1098,1058,0,0
-119,-34,0,0,0,0,0,0,0,0,0,-1,1105,1058,0,0
-112,-34,0,0,0,0,0,0,0,0,0,-1,1112,1058,0,0
-105,-34,0,0,0,0,0,0,0,0,0,-1,1119,1058,0,0
-98,-34,0,0,0,0,0,0,0,0,0,-1,1126,1058,0,0
-91,-34,0,0,0,0,0,0,0,0,0,-1,1133,1058,0,0
-84,-34,0,0,0,0,0,0,0,0,0,-1,1140,1058,0,0
-77,-34,0,0,0,0,0,0,0,0,0,-1,1147,1058,0,0
-70,-34,0,0,0,0,0,0,0,0,0,-1,1154,1058,0,0
-63,-34,0,0,0,0,0,0,0,0,0,-1,1161,1058,0,0
-56,-34,0,0,0,0,0,0,0,0,0,-1,1168,1058,0,0
-49,-34,0,0,0,0,0,0,0,0,0,-1,1175,1058,0,0
-42,-34,0,0,0,0,0,0,0,0,0,-1,1182,1058,0,0
-35,-34,0,0,0,0,0,0,0,0,0,-1,1189,1058,0,0
-28,-34,0,0,0,0,0,0,0,0,0,-1,1196,1058,0,0
-21,-34,0,0,0,0,0,0,0,0,0,-1,1203,1058,0,0
-14,-34,0,0,0,0,0,0,0,0,0,-1,1210,1058,0,0
-7,-34,0,0,0,0,0,0,0,0,0,-1,1217,1058,0,0
0,-34,0,0,0,0,0,0,0,0,0,-1,1224,1058,0,0
7,-34,0,0,0,0,0,0,0,0,0,-1,1231,1058,0,0
14,-34,0,0,0,0,0,0,0,0,0,-1,1238,1058,0,0
21,-34,0,0,0,0,0,0,0,0,0,-1,1245,1058,0,0
28,-34,0,0,0,0,0,0,0,0,0,-1,1252,1058,0,0
35,-34,0,0,0,0,0,0,0,0,0,-1,1259,1058,0,0
42,-34,0,0,0,0,0,0,0,0,0,-1,1266,1058,0,0
49,-34,0,0,0,0,0,0,0,0,0,-1,1273,1058,0,0
56,-34,0,0,0,0,0,0,0,0,0,-1,1280,1058,0,0
63,-34,0,0,0,0,0,0,0,0,0,-1,1287,1058,0,0
70,-34,0,0,0,0,0,0,0,0,0,-1,1294,1058,0,0
77,-34,0,0,0,0,0,0,0,0,0,-1,1301,1058,0,0
84,-34,0,0,0,0,0,0,0,0,0,-1,1308,1058,0,0
91,-34,0,0,0,0,0,0,0,0,0,-1,1315,1058,0,0
98,-34,0,0,0,0,0,0,0,0,0,-1,1322,1058,0,0
105,-34,0,0,0,0,0,0,0,0,0,-1,1329,1058,0,0
112,-34,0,0,0,0,0,0,0,0,0,-1,1336,1058,0,0
119,-34,0,0,0,0,0,0,0,0,0,-1,1343,1058,0,0
126,-34,0,0,0,0,0,0,0,0,0,-1,1350,1058,0,0
133,-34,0,0,0,0,0,0,0,0,0,-1,1357,1058,0,0
140,-34,0,0,0,0,0,0,0,0,0,-1,1364,1058,0,0
147,-34,0,0,0,0,0,0,0,0,0,-1,1371,1058,0,0
154,-34,0,0,0,0,0,0,0,0,0,-1,1378,1058,0,0
161,-34,0,0,0,0,0,0,0,0,0,-1,1385,1058,0,0
168,-34,0,0,0,0,0,0,0,0,0,-1,1392,1058,0,0
175,-34,0,0,0,0,0,0,0,0,0,-1,1399,1058,0,0
182,-34,0,0,0,0,0,0,0,0,0,-1,1406,1058,0,0
189,-34,0,0,0,0,0,0,0,0,0,-1,1413,1058,0,0
196,-34,0,0,0,0,0,0,0,0,0,-1,1420,1058,0,0
203,-34,0,0,0,0,0,0,0,0,0,-1,1427,1058,0,0
210,-34,0,0,0,0,0,0,0,0,0,-1,1434,1058,0,0
217,-34,0,0,0,0,0,0,0,0,0,-1,1441,1058,0,0
224,-34,0,0,0,0,0,0,0,0,0,-1,1448,1058,0,0
231,-34,0,0,0,0,0,0,0,0,0,-1,1455,1058,0,0
238,-34,0,0,0,0,0,0,0,0,0,-1,1462,1058,0,0
245,-34,0,0,0,0,0,0,0,0,0,-1,1469,1058,0,0
252,-34,0,0,0,0,0,0,0,0,0,-1,1476,1058,0,0
259,-34,0,0,0,0,0,0,0,0,0,-1,1483,1058,0,0
266,-34,0,0,0,0,0,0,0,0,0,-1,1490,1058,0,0
273,-34,0,0,0,0,0,0,0,0,0,-1,1497,1058,0,0
280,-34,0,0,0,0,0,0,0,0,0,-1,1504,1058,0,0
287,-34,0,0,0,0,0,0,0,0,0,-1,1511,1058,0,0
294,-34,0,0,0,0,0,0,0,0,0,-1,1518,1058,0,0
301,-34,0,0,0,0,0,0,0,0,0,-1,1525,1058,0,0
308,-34,0,0,0,0,0,0,0,0,0,-1,1532,1058,0,0
315,-34,0,0,0,0,0,0,0,0,0,-1,1539,1058,0,0
322,-34,0,0,0,0,0,0,0,0,0,-1,1546,1058,0,0
329,-34,0,0,0,0,0,0,0,0,0,-1,1553,1058,0,0
336,-34,0,0,0,0,0,0,0,0,0,-1,1560,1058,0,0
343,-34,0,0,0,0,0,0,0,0,0,-1,1567,1058,0,0
350,-34,0,0,0,0,0,0,0,0,0,-1,1574,1058,0,0
357,-34,0,0,0,0,0,0,0,0,0,-1,1581,1058,0,0
364,-34,0,0,0,0,0,0,0,0,0,-1,1588,1058,0,0
371,-34,0,0,0,0,0,0,0,0,0,-1,1595,1058,0,0
378,-34,0,0,0,0,0,0,0,0,0,-1,1602,1058,0,0
385,-34,0,0,0,0,0,0,0,0,0,-1,1609,1058,0,0
392,-34,0,0,0,0,0,0,0,0,0,-1,1616,1058,0,0
399,-34,0,0,0,0,0,0,0,0,0,-1,1623,1058,0,0
406,-34,0,0,0,0,0,0,0,0,0,-1,1630,1058,0,0
413,-34,0,0,0,0,0,0,0,0,0,-1,1637,1058,0,0
420,-34,0,0,0,0,0,0,0,0,0,-1,1644,1058,0,0
427,-34,0,0,0,0,0,0,0,0,0,-1,1651,1058,0,0
434,-34,0,0,0,0,0,0,0,0,0,-1,1658,1058,0,0
441,-34,0,0,0,0,0,0,0,0,0,-1,1665,1058,0,0
448,-34,0,0,0,0,0,0,0,0,0,-1,1672,1058,0,0
455,-34,0,0,0,0,0,0,0,0,0,-1,1679,1058,0,0
462,-34,0,0,0,0,0,0,0,0,0,-1,1686,1058,0,0
469,-34,0,0,0,0,0,0,0,0,0,-1,1693,1058,0,0
476,-34,0,0,0,0,0,0,0,0,0,-1,1700,1058,0,0
483,-34,0,0,0,0,0,0,0,0,0,-1,1707,1058,0,0
490,-34,0,0,0,0,0,0,0,0,0,-1,1714,1058,0,0
497,-34,0,0,0,0,0,0,0,0,0,-1,1721,1058,0,0
504,-34,0,0,0,0,0,0,0,0,0,-1,1728,1058,0,0
511,-34,0,0,0,0,0,0,0,0,0,-1,1735,1058,0,0
518,-34,0,0,0,0,0,0,0,0,0,-1,1742,1058,0,0
525,-34,0,0,0,0,0,0,0,0,0,-1,1749,1058,0,0
532,-34,0,0,0,0,0,0,0,0,0,-1,1756,1058,0,0
539,-34,0,0,0,0,0,0,0,0,0,-1,1763,1058,0,0
546,-34,0,0,0,0,0,0,0,0,0,-1,1770,1058,0,0
553,-34,0,0,0,0,0,0,0,0,0,-1,1777,1058,0,0
560,-34,0,0,0,0,0,0,0,0,0,-1,1784,1058,0,0
567,-34,0,0,0,0,0,0,0,0,0,-1,1791,1058,0,0
574,-34,0,0,0,0,0,0,0,0,0,-1,1798,1058,0,0
581,-34,0,0,0,0,0,0,0,0,0,-1,1805,1058,0,0
588,-34,0,0,0,0,0,0,0,0,0,-1,1812,1058,0,0
595,-34,0,0,0,0,0,0,0,0,0,-1,1819,1058,0,0
602,-34,0,0,0,0,0,0,0,0,0,-1,1826,1058,0,0
609,-34,0,0,0,0,0,0,0,0,0,-1,1833,1058,0,0
616,-34,0,0,0,0,0,0,0,0,0,-1,1840,1058,0,0
623,-34,0,0,0,0,0,0,0,0,0,-1,1847,1058,0,0
630,-34,0,0,0,0,0,0,0,0,0,-1,1854,1058,0,0
637,-34,0,0,0,0,0,0,0,0,0,-1,1861,1058,0,0
644,-34,0,0,0,0,0,0,0,0,0,-1,1868,1058,0,0
651,-34,83.3434,2.20007,0.00149023,-0.00251363,0.00363582,0.00363883,-0.00466223,0.533741,0.00480474,0.0387096,1875,1058,83.3434,-2.20006
658,-34,83.2806,2.31152,0.000462161,-0.00187484,0.00249564,0.00204931,-0.00346199,0.566448,0.0032166,0.0411467,1882,1058,83.2807,-2.31158
665,-34,83.2478,2.44604,-0.000127692,-0.00132198,0.00168537,0.0010632,-0.00251287,0.615144,0.00212044,0.0404347,1889,1058,83.2478,-2.4461
672,-34,83.2169,2.46106,-0.000455155,-0.000708389,0.00118971,0.00061466,-0.0017782,0.732385,0.00143493,0.0359229,1896,1058,83.217,-2.4611
679,-34,83.1688,2.30676,-0.000601122,-9.03491e-05,0.000837905,0.000530225,-0.0012217,0.933322,0.0010374,0.0374332,1903,1058,83.1689,-2.30681
686,-34,83.1985,2.37585,-0.000860027,0.000157498,0.000826193,0.000619011,-0.00132154,1.06137,0.00114459,0.0439932,1910,1058,83.1985,-2.37582
693,-34,83.2263,2.49072,-0.00117755,0.000198541,0.00104372,0.000760598,-0.0017396,1.07681,0.00147992,0.0442382,1917,1058,83.2264,-2.49069
700,-34,83.2251,2.34778,-0.00151362,9.02104e-05,0.00143764,0.000934468,-0.00235788,1.0398,0.00195916,0.0387518,1924,1058,83.2251,-2.34782
707,-34,83.1315,2.36682,-0.00229418,0.000329151,0.00182009,0.00126097,-0.00322599,1.09763,0.00267207,0.0249765,1931,1058,83.1314,-2.36686
714,-34,83.1135,2.46167,-0.00339898,0.00111686,0.00210497,0.00194586,-0.00422798,1.19562,0.00364474,0.0225448,1938,1058,83.1135,-2.46166
721,-34,83.061,2.59851,0,0,0,0,0,0,0,-1,1945,1058,83.0611,-2.59848
728,-34,82.8855,8.77917,0,0,0,0,0,0,0,-1,1952,1058,82.8855,-8.77914
735,-34,82.7289,8.54932,-0.00775316,0.0058672,0.00249504,0.00630987,-0.00819582,1.3952,0.00839843,0.0238027,1959,1058,82.7288,-8.54927
742,-34,82.627,8.22424,-0.00885858,0.00766119,0.00238032,0.00799733,-0.00919472,1.43051,0.00993386,0.0218399,1966,1058,82.6269,-8.22421
749,-34,82.6133,7.9209,-0.00890306,0.0108028,0.000403684,0.010811,-0.00891132,1.55032,0.0114043,0.0183677,1973,1058,82.6133,-7.92087
756,-34,82.5881,7.58044,-0.00842677,0.0143541,-0.001877,0.0145077,-0.00858039,-1.48914,0.0134755,0.0127529,1980,1058,82.5881,-7.58048
763,-34,82.4673,7.29333,-0.00655093,0.0188981,-0.00548982,0.0200319,-0.00768468,-1.36714,0.016523,0.0133168,1987,1058,82.4672,-7.29337
770,-34,82.2939,6.99182,-0.00268481,0.0249639,-0.0109562,0.0287791,-0.00649996,-1.23571,0.02168,0.0193617,1994,1058,82.294,-6.99181
777,-34,82.0745,6.75195,0.00539733,0.0332554,-0.0197996,0.0435347,-0.00488198,-1.09193,0.0307798,0.0235265,2001,1058,82.0745,-6.75191
784,-34,81.8359,6.42749,0.0155819,0.0419163,-0.0303535,0.0618355,-0.00433726,-0.990047,0.0427428,0.0427646,2008,1058,81.8359,-6.42746
791,-34,81.6072,6.05859,0,0,0,0,0,0,0,-1,2015,1058,81.6071,-6.05861
798,-34,83.0632,3.64978,0,0,0,0,0,0,0,-1,2022,1058,83.0631,-3.64978
805,-34,81.6233,5.5116,0,0,0,0,0,0,0,-1,2029,1058,81.6232,-5.51158
812,-34,83.7393,1.52002,0,0,0,0,0,0,0,-1,2036,1058,83.7392,-1.52002
-700,-41,-65.4989,-6.96155,0,0,0,0,0,0,0,-1,524,1065,-65.4989,6.96156
-693,-41,-65.499,-4.64771,0,0,0,0,0,0,0,-1,531,1065,-65.499,4.6477
-686,-41,-65.6744,-2.41052,0,0,0,0,0,0,0,-1,538,1065,-65.6744,2.41047
-679,-41,-65.9793,-1.03442,0,0,0,0,0,0,0,-1,545,1065,-65.9793,1.03444
-672,-41,-65.5931,0.412354,0,0,0,0,0,0,0,-1,552,1065,-65.5931,-0.412394
-665,-41,-65.7186,2.68835,0,0,0,0,0,0,0,-1,559,1065,-65.7186,-2.68831
-658,-41,-65.6835,4.14087,0,0,0,0,0,0,0,-1,566,1065,-65.6835,-4.14087
-651,-41,-65.7123,5.70044,-0.0276491,0.0228089,0.0230082,0.0317249,-0.0365651,1.2011,0.0394602,0.0346467,573,1065,-65.7123,-5.70045
-644,-41,-65.9552,6.19556,-0.0202896,0.0211518,0.0147596,0.0258711,-0.0250089,1.26133,0.029377,0.0167332,580,1065,-65.9552,-6.19561
-637,-41,-66.0563,6.5509,-0.0140569,0.0181088,0.00846461,0.0202004,-0.0161484,1.32856,0.0210294,0.0179278,587,1065,-66.0564,-6.55086
-630,-41,-66.0807,6.9668,-0.00849999,0.0144061,0.00344265,0.0149124,-0.00900622,1.4248,0.013949,0.0177017,594,1065,-66.0807,-6.96675
-623,-41,-66.0568,7.37427,-0.00438808,0.00961974,-0.000173431,0.00962188,-0.00439023,-1.55842,0.00827572,0.0150888,601,1065,-66.0567,-7.37431
-616,-41,-66.0399,7.83167,-0.00167372,0.00581025,-0.00222298,0.00642074,-0.00228421,-1.30277,0.00521152,0.0192715,608,1065,-66.0399,-7.83161
-609,-41,-65.9921,8.22742,-0.000147496,0.00242651,-0.00265766,0.00409239,-0.00181338,-1.01089,0.0034933,0.0240684,615,1065,-65.9921,-8.22739
-602,-41,-66.0356,8.50867,0.00078182,0.00031853,-0.00272011,0.00328013,-0.00217978,-0.742921,0.00317354,0.015211,622,1065,-66.0357,-8.50866
-595,-41,-66.1676,8.74402,0.0012878,-0.00141859,-0.00269732,0.00295233,-0.00308312,-0.552903,0.00348484,0.0262357,629,1065,-66.1676,-8.74397
-588,-41,-66.586,8.83215,0,0,0,0,0,0,0,-1,636,1065,-66.586,-8.8322
-581,-41,-66.1774,0.496094,0.00138653,-0.00321668,-0.00230783,0.00234429,-0.00417444,-0.393374,0.00381271,0.0405762,643,1065,-66.1774,-0.496146
-574,-41,-66.2547,0.363159,0.0011006,-0.00356026,-0.00197198,0.00182297,-0.00428263,-0.351138,0.00361917,0.0391343,650,1065,-66.2547,-0.363194
-567,-41,-66.1935,0.434448,0.000364584,-0.00339733,-0.00149827,0.000888378,-0.00392112,-0.336317,0.00295506,0.0415889,657,1065,-66.1935,-0.434416
-560,-41,-66.1516,0.380615,-0.00075081,-0.00277231,-0.000907989,-0.000402863,-0.00312026,-0.365946,0.00195974,0.0402102,664,1065,-66.1516,-0.380649
-553,-41,-66.2631,0.631592,-0.00221909,-0.00188503,-0.000283747,-0.0017228,-0.00238132,-1.05142,0.00141989,0.0417199,671,1065,-66.2631,-0.631639
-546,-41,-66.28,0.963257,-0.00394526,-0.00107462,0.000178386,-0.00106358,-0.0039563,1.50897,0.00236415,0.0435849,678,1065,-66.2801,-0.963265
-539,-41,-66.2916,0.986084,-0.00598314,-0.000762694,0.00020826,-0.000754399,-0.00599144,1.53099,0.00376808,0.0424202,685,1065,-66.2916,-0.986066
-532,-41,-66.3284,0.762817,-0.0081592,-0.000236992,9.91889e-05,-0.000235751,-0.00816044,1.55828,0.00536344,0.0387776,692,1065,-66.3284,-0.762779
-525,-41,0,0,0,0,0,0,0,0,0,-1,699,1065,0,0
-518,-41,0,0,0,0,0,0,0,0,0,-1,706,1065,0,0
-511,-41,0,0,0,0,0,0,0,0,0,-1,713,1065,0,0
-504,-41,0,0,0,0,0,0,0,0,0,-1,720,1065,0,0
-497,-41,0,0,0,0,0,0,0,0,0,-1,727,1065,0,0
-490,-41,0,0,0,0,0,0,0,0,0,-1,734,1065,0,0
-483,-41,0,0,0,0,0,0,0,0,0,-1,741,1065,0,0
-476,-41,0,0,0,0,0,0,0,0,0,-1,748,1065,0,0
-469,-41,0,0,0,0,0,0,0,0,0,-1,755,1065,0,0
-462,-41,0,0,0,0,0,0,0,0,0,-1,762,1065,0,0
-455,-41,0,0,0,0,0,0,0,0,0,-1,769,1065,0,0
-448,-41,0,0,0,0,0,0,0,0,0,-1,776,1065,0,0
-441,-41,0,0,0,0,0,0,0,0,0,-1,783,1065,0,0
-434,-41,0,0,0,0,0,0,0,0,0,-1,790,1065,0,0
-427,-41,0,0,0,0,0,0,0,0,0,-1,797,1065,0,0
-420,-41,0,0,0,0,0,0,0,0,0,-1,804,1065,0,0
-413,-41,0,0,0,0,0,0,0,0,0,-1,811,1065,0,0
-406,-41,0,0,0,0,0,0,0,0,0,-1,818,1065,0,0
-399,-41,0,0,0,0,0,0,0,0,0,-1,825,1065,0,0
-392,-41,0,0,0,0,0,0,0,0,0,-1,832,1065,0,0
-385,-41,0,0,0,0,0,0,0,0,0,-1,839,1065,0,0
-378,-41,0,0,0,0,0,0,0,0,0,-1,846,1065,0,0
-371,-41,0,0,0,0,0,0,0,0,0,-1,853,1065,0,0
-364,-41,0,0,0,0,0,0,0,0,0,-1,860,1065,0,0
-357,-41,0,0,0,0,0,0,0,0,0,-1,867,1065,0,0
-350,-41,0,0,0,0,0,0,0,0,0,-1,874,1065,0,0
-343,-41,0,0,0,0,0,0,0,0,0,-1,881,1065,0,0
-336,-41,0,0,0,0,0,0,0,0,0,-1,888,1065,0,0
-329,-41,0,0,0,0,0,0,0,0,0,-1,895,1065,0,0
-322,-41,0,0,0,0,0,0,0,0,0,-1,902,1065,0,0
-315,-41,0,0,0,0,0,0,0,0,0,-1,909,1065,0,0
-308,-41,0,0,0,0,0,0,0,0,0,-1,916,1065,0,0
-301,-41,0,0,0,0,0,0,0,0,0,-1,923,1065,0,0
-294,-41,0,0,0,0,0,0,0,0,0,-1,930,1065,0,0
-287,-41,0,0,0,0,0,0,0,0,0,-1,937,1065,0,0
-280,-41,0,0,0,0,0,0,0,0,0,-1,944,1065,0,0
-273,-41,0,0,0,0,0,0,0,0,0,-1,951,1065,0,0
-266,-41,0,0,0,0,0,0,0,0,0,-1,958,1065,0,0
-259,-41,0,0,0,0,0,0,0,0,0,-1,965,1065,0,0
-252,-41,0,0,0,0,0,0,0,0,0,-1,972,1065,0,0
-245,-41,0,0,0,0,0,0,0,0,0,-1,979,1065,0,0
-238,-41,0,0,0,0,0,0,0,0,0,-1,986,1065,0,0
-231,-41,0,0,0,0,0,0,0,0,0,-1,993,1065,0,0
-224,-41,0,0,0,0,0,0,0,0,0,-1,1000,1065,0,0
-217,-41,0,0,0,0,0,0,0,0,0,-1,1007,1065,0,0
-210,-41,0,0,0,0,0,0,0,0,0,-1,1014,1065,0,0
-203,-41,0,0,0,0,0,0,0,0,0,-1,1021,1065,0,0
-196,-41,0,0,0,0,0,0,0,0,0,-1,1028,1065,0,0
-189,-41,0,0,0,0,0,0,0,0,0,-1,1035,1065,0,0
-182,-41,0,0,0,0,0,0,0,0,0,-1,1042,1065,0,0
-175,-41,0,0,0,0,0,0,0,0,0,-1,1049,1065,0,0
-168,-41,0,0,0,0,0,0,0,0,0,-1,1056,1065,0,0
-161,-41,0,0,0,0,0,0,0,0,0,-1,1063,1065,0,0
-154,-41,0,0,0,0,0,0,0,0,0,-1,1070,1065,0,0
-147,-41,0,0,0,0,0,0,0,0,0,-1,1077,1065,0,0
-140,-41,0,0,0,0,0,0,0,0,0,-1,1084,1065,0,0
-133,-41,0,0,0,0,0,0,0,0,0,-1,1091,1065,0,0
-126,-41,0,0,0,0,0,0,0,0,0,-1,1098,1065,0,0
-119,-41,0,0,0,0,0,0,0,0,0,-1,1105,1065,0,0
-112,-41,0,0,0,0,0,0,0,0,0,-1,1112,1065,0,0
-105,-41,0,0,0,0,0,0,0,0,0,-1,1119,1065,0,0
-98,-41,0,0,0,0,0,0,0,0,0,-1,1126,1065,0,0
-91,-41,0,0,0,0,0,0,0,0,0,-1,1133,1065,0,0
-84,-41,0,0,0,0,0,0,0,0,0,-1,1140,1065,0,0
-77,-41,0,0,0,0,0,0,0,0,0,-1,1147,1065,0,0
-70,-41,0,0,0,0,0,0,0,0,0,-1,1154,1065,0,0
-63,-41,0,0,0,0,0,0,0,0,0,-1,1161,1065,0,0
-56,-41,0,0,0,0,0,0,0,0,0,-1,1168,1065,0,0
-49,-41,0,0,0,0,0,0,0,0,0,-1,1175,1065,0,0
-42,-41,0,0,0,0,0,0,0,0,0,-1,1182,1065,0,0
-35,-41,0,0,0,0,0,0,0,0,0,-1,1189,1065,0,0
-28,-41,0,0,0,0,0,0,0,0,0,-1,1196,1065,0,0
-21,-41,0,0,0,0,0,0,0,0,0,-1,1203,1065,0,0
-14,-41,0,0,0,0,0,0,0,0,0,-1,1210,1065,0,0
-7,-41,0,0,0,0,0,0,0,0,0,-1,1217,1065,0,0
0,-41,0,0,0,0,0,0,0,0,0,-1,1224,1065,0,0
7,-41,0,0,0,0,0,0,0,0,0,-1,1231,1065,0,0
14,-41,0,0,0,0,0,0,0,0,0,-1,1238,1065,0,0
21,-41,0,0,0,0,0,0,0,0,0,-1,1245,1065,0,0
28,-41,0,0,0,0,0,0,0,0,0,-1,1252,1065,0,0
35,-41,0,0,0,0,0,0,0,0,0,-1,1259,1065,0,0
42,-41,0,0,0,0,0,0,0,0,0,-1,1266,1065,0,0
49,-41,0,0,0,0,0,0,0,0,0,-1,1273,1065,0,0
56,-41,0,0,0,0,0,0,0,0,0,-1,1280,1065,0,0
63,-41,0,0,0,0,0,0,0,0,0,-1,1287,1065,0,0
70,-41,0,0,0,0,0,0,0,0,0,-1,1294,1065,0,0
77,-41,0,0,0,0,0,0,0,0,0,-1,1301,1065,0,0
84,-41,0,0,0,0,0,0,0,0,0,-1,1308,1065,0,0
91,-41,0,0,0,0,0,0,0,0,0,-1,1315,1065,0,0
98,-41,0,0,0,0,0,0,0,0,0,-1,1322,1065,0,0
105,-41,0,0,0,0,0,0,0,0,0,-1,1329,1065,0,0
112,-41,0,0,0,0,0,0,0,0,0,-1,1336,1065,0,0
119,-41,0,0,0,0,0,0,0,0,0,-1,1343,1065,0,0
126,-41,0,0,0,0,0,0,0,0,0,-1,1350,1065,0,0
133,-41,0,0,0,0,0,0,0,0,0,-1,1357,1065,0,0
140,-41,0,0,0,0,0,0,0,0,0,-1,1364,1065,0,0
147,-41,0,0,0,0,0,0,0,0,0,-1,1371,1065,0,0
154,-41,0,0,0,0,0,0,0,0,0,-1,1378,1065,0,0
161,-41,0,0,0,0,0,0,0,0,0,-1,1385,1065,0,0
168,-41,0,0,0,0,0,0,0,0,0,-1,1392,1065,0,0
175,-41,0,0,0,0,0,0,0,0,0,-1,1399,1065,0,0
182,-41,0,0,0,0,0,0,0,0,0,-1,1406,1065,0,0
189,-41,0,0,0,0,0,0,0,0,0,-1,1413,1065,0,0
196,-41,0,0,0,0,0,0,0,0,0,-1,1420,1065,0,0
203,-41,0,0,0,0,0,0,0,0,0,-1,1427,1065,0,0
210,-41,0,0,0,0,0,0,0,0,0,-1,1434,1065,0,0
217,-41,0,0,0,0,0,0,0,0,0,-1,1441,1065,0,0
224,-41,0,0,0,0,0,0,0,0,0,-1,1448,1065,0,0
231,-41,0,0,0,0,0,0,0,0,0,-1,1455,1065,0,0
238,-41,0,0,0,0,0,0,0,0,0,-1,1462,1065,0,0
245,-41,0,0,0,0,0,0,0,0,0,-1,1469,1065,0,0
252,-41,0,0,0,0,0,0,0,0,0,-1,1476,1065,0,0
259,-41,0,0,0,0,0,0,0,0,0,-1,1483,1065,0,0
266,-41,0,0,0,0,0,0,0,0,0,-1,1490,1065,0,0
273,-41,0,0,0,0,0,0,0,0,0,-1,1497,1065,0,0
280,-41,0,0,0,0,0,0,0,0,0,-1,1504,1065,0,0
287,-41,0,0,0,0,0,0,0,0,0,-1,1511,1065,0,0
294,-41,0,0,0,0,0,0,0,0,0,-1,1518,1065,0,0
301,-41,0,0,0,0,0,0,0,0,0,-1,1525,1065,0,0
308,-41,0,0,0,0,0,0,0,0,0,-1,1532,1065,0,0
315,-41,0,0,0,0,0,0,0,0,0,-1,1539,1065,0,0
322,-41,0,0,0,0,0,0,0,0,0,-1,1546,1065,0,0
329,-41,0,0,0,0,0,0,0,0,0,-1,1553,1065,0,0
336,-41,0,0,0,0,0,0,0,0,0,-1,1560,1065,0,0
343,-41,0,0,0,0,0,0,0,0,0,-1,1567,1065,0,0
350,-41,0,0,0,0,0,0,0,0,0,-1,1574,1065,0,0
357,-41,0,0,0,0,0,0,0,0,0,-1,1581,1065,0,0
364,-41,0,0,0,0,0,0,0,0,0,-1,1588,1065,0,0
371,-41,0,0,0,0,0,0,0,0,0,-1,1595,1065,0,0
378,-41,0,0,0,0,0,0,0,0,0,-1,1602,1065,0,0
385,-41,0,0,0,0,0,0,0,0,0,-1,1609,1065,0,0
392,-41,0,0,0,0,0,0,0,0,0,-1,1616,1065,0,0
399,-41,0,0,0,0,0,0,0,0,0,-1,1623,1065,0,0
406,-41,0,0,0,0,0,0,0,0,0,-1,1630,1065,0,0
413,-41,0,0,0,0,0,0,0,0,0,-1,1637,1065,0,0
420,-41,0,0,0,0,0,0,0,0,0,-1,1644,1065,0,0
427,-41,0,0,0,0,0,0,0,0,0,-1,1651,1065,0,0
434,-41,0,0,0,0,0,0,0,0,0,-1,1658,1065,0,0
441,-41,0,0,0,0,0,0,0,0,0,-1,1665,1065,0,0
448,-41,0,0,0,0,0,0,0,0,0,-1,1672,1065,0,0
455,-41,0,0,0,0,0,0,0,0,0,-1,1679,1065,0,0
462,-41,0,0,0,0,0,0,0,0,0,-1,1686,1065,0,0
469,-41,0,0,0,0,0,0,0,0,0,-1,1693,1065,0,0
476,-41,0,0,0,0,0,0,0,0,0,-1,1700,1065,0,0
483,-41,0,0,0,0,0,0,0,0,0,-1,1707,1065,0,0
490,-41,0,0,0,0,0,0,0,0,0,-1,1714,1065,0,0
497,-41,0,0,0,0,0,0,0,0,0,-1,1721,1065,0,0
504,-41,0,0,0,0,0,0,0,0,0,-1,1728,1065,0,0
511,-41,0,0,0,0,0,0,0,0,0,-1,1735,1065,0,0
518,-41,0,0,0,0,0,0,0,0,0,-1,1742,1065,0,0
525,-41,0,0,0,0,0,0,0,0,0,-1,1749,1065,0,0
532,-41,0,0,0,0,0,0,0,0,0,-1,1756,1065,0,0
539,-41,0,0,0,0,0,0,0,0,0,-1,1763,1065,0,0
546,-41,0,0,0,0,0,0,0,0,0,-1,1770,1065,0,0
553,-41,0,0,0,0,0,0,0,0,0,-1,1777,1065,0,0
560,-41,0,0,0,0,0,0,0,0,0,-1,1784,1065,0,0
567,-41,0,0,0,0,0,0,0,0,0,-1,1791,1065,0,0
574,-41,0,0,0,0,0,0,0,0,0,-1,1798,1065,0,0
581,-41,0,0,0,0,0,0,0,0,0,-1,1805,1065,0,0
588,-41,0,0,0,0,0,0,0,0,0,-1,1812,1065,0,0
595,-41,0,0,0,0,0,0,0,0,0,-1,1819,1065,0,0
602,-41,0,0,0,0,0,0,0,0,0,-1,1826,1065,0,0
609,-41,0,0,0,0,0,0,0,0,0,-1,1833,1065,0,0
616,-41,0,0,0,0,0,0,0,0,0,-1,1840,1065,0,0
623,-41,0,0,0,0,0,0,0,0,0,-1,1847,1065,0,0
630,-41,0,0,0,0,0,0,0,0,0,-1,1854,1065,0,0
637,-41,0,0,0,0,0,0,0,0,0,-1,1861,1065,0,0
644,-41,0,0,0,0,0,0,0,0,0,-1,1868,1065,0,0
651,-41,83.175,2.20605,0.00130442,-0.00328149,0.00337163,0.00308891,-0.00506598,0.486785,0.00475413,0.03578,1875,1065,83.1751,-2.20602
658,-41,83.2308,2.4624,0.000334765,-0.00249959,0.00223646,0.00156525,-0.00373008,0.502993,0.00314127,0.0397996,1882,1065,83.2308,-2.46237
665,-41,83.1576,2.62488,-0.000205189,-0.00183959,0.00142411,0.000619527,-0.00266431,0.524919,0.00201472,0.0412832,1889,1065,83.1576,-2.62486
672,-41,83.1909,2.49109,-0.000490634,-0.00112196,0.000898735,0.000146263,-0.00175885,0.616514,0.00122424,0.0415181,1896,1065,83.1909,-2.49103
679,-41,83.2517,2.26343,-0.00060012,-0.000405675,0.000508034,1.43557e-05,-0.00102015,0.87994,0.000684936,0.0418896,1903,1065,83.2517,-2.26348
686,-41,83.2408,2.42334,-0.000807151,-8.65189e-05,0.000444832,0.000125619,-0.00101929,1.1258,0.000725035,0.0420355,1910,1065,83.2408,-2.42339
693,-41,83.0879,2.43604,-0.0010369,-1.89892e-05,0.000640987,0.00029053,-0.00134642,1.12094,0.0010085,0.0460615,1917,1065,83.0879,-2.43608
700,-41,83.1208,2.47546,-0.00128359,-6.4744e-05,0.00104872,0.00053877,-0.0018871,1.04861,0.00147093,0.041173,1924,1065,83.1208,-2.47541
707,-41,83.1522,2.40161,-0.00198727,0.000135773,0.00146594,0.000884172,-0.00273567,1.09876,0.00217914,0.0288521,1931,1065,83.1522,-2.40156
714,-41,83.1458,2.37915,-0.00295602,0.000790644,0.00184003,0.00154316,-0.00370854,1.18258,0.00311679,0.0292897,1938,1065,83.1458,-2.37911
721,-41,83.1504,2.46606,0,0,0,0,0,0,0,-1,1945,1065,83.1503,-2.46612
728,-41,82.4235,8.87671,0,0,0,0,0,0,0,-1,1952,1065,82.4234,-8.87674
735,-41,82.3127,8.51611,-0.00669948,0.00494053,0.00265985,0.00551953,-0.00727847,1.35646,0.00741216,0.0247284,1959,1065,82.3127,-8.51614
742,-41,82.2549,8.13953,-0.00747572,0.00660531,0.00269109,0.00710209,-0.0079725,1.38825,0.00870816,0.0216659,1966,1065,82.2549,-8.1395
749,-41,82.2126,7.8678,-0.00766014,0.00936996,0.00130509,0.0094694,-0.00775957,1.49475,0.00996346,0.0187928,1973,1065,82.2126,-7.86781
756,-41,82.1963,7.55615,-0.00727912,0.0127079,-0.000468726,0.0127189,-0.00729011,-1.54736,0.0116931,0.0155028,1980,1065,82.1963,-7.55613
763,-41,82.0684,7.18042,-0.00555826,0.0170639,-0.00352269,0.0175998,-0.00609411,-1.41984,0.0142071,0.0130008,1987,1065,82.0683,-7.18045
770,-41,81.9087,6.85754,-0.0019769,0.022907,-0.00825801,0.0253981,-0.00446803,-1.27782,0.0186012,0.0150063,1994,1065,81.9086,-6.85751
777,-41,81.6694,6.51245,0.00501853,0.0306359,-0.0156569,0.0380559,-0.00240151,-1.12823,0.0262078,0.019365,2001,1065,81.6695,-6.51247
784,-41,81.4556,6.07825,0.0139295,0.0387294,-0.0245551,0.0538379,-0.00117895,-1.01921,0.0362913,0.0316432,2008,1065,81.4555,-6.07826
791,-41,81.2954,5.62061,0.0253621,0.0473136,-0.0354865,0.073483,-0.000807263,-0.935378,0.0492599,0.0468485,2015,1065,81.2955,-5.62062
798,-41,81.0088,5.35217,0.0399089,0.0565487,-0.0488992,0.0978307,-0.00137315,-0.869663,0.065683,0.0486067,2022,1065,81.0088,-5.35211
805,-41,80.7991,5.20984,0,0,0,0,0,0,0,-1,2029,1065,80.7991,-5.20985
812,-41,80.5613,5.01831,0,0,0,0,0,0,0,-1,2036,1065,80.5612,-5.01835
-700,-48,-65.9241,-7.32068,0,0,0,0,0,0,0,-1,524,1072,-65.9241,7.32066
-693,-48,-65.7946,-5.35681,0,0,0,0,0,0,0,-1,531,1072,-65.7945,5.35685
-686,-48,-65.8603,-3.42004,0,0,0,0,0,0,0,-1,538,1072,-65.8603,3.42001
-679,-48,-65.9149,-1.67249,0,0,0,0,0,0,0,-1,545,1072,-65.9149,1.67246
-672,-48,-65.6738,-0.31665,0,0,0,0,0,0,0,-1,552,1072,-65.6738,0.316685
-665,-48,-65.282,1.25745,0,0,0,0,0,0,0,-1,559,1072,-65.282,-1.25742
-658,-48,-65.1096,3.90088,0,0,0,0,0,0,0,-1,566,1072,-65.1096,-3.90084
-651,-48,-65.2538,5.09119,-0.0290768,0.0169015,0.024741,0.0276854,-0.0398607,1.15975,0.0392083,0.0451555,573,1072,-65.2538,-5.0912
-644,-48,-65.4026,6.15308,-0.02134,0.0165518,0.0161819,0.0225218,-0.02731,1.21736,0.0288146,0.0254398,580,1072,-65.4026,-6.15303
-637,-48,-65.5023,6.41528,-0.0146047,0.014995,0.00945524,0.0177575,-0.0173672,1.28654,0.0202797,0.0278446,587,1072,-65.5023,-6.41523
-630,-48,-65.558,6.8573,-0.00868292,0.0125649,0.00402196,0.0133007,-0.00941875,1.38984,0.0131808,0.0336922,594,1072,-65.558,-6.85732
-623,-48,-65.6799,7.29761,-0.00430072,0.00848034,7.17972e-06,0.00848035,-0.00430072,1.57023,0.00750952,0.0149629,601,1072,-65.6799,-7.29759
-616,-48,-65.6714,7.73425,-0.00141911,0.00505663,-0.00229413,0.00578698,-0.00214947,-1.26258,0.00473983,0.0125428,608,1072,-65.6715,-7.7342
-609,-48,-65.6176,8.21338,8.63786e-05,0.0018402,-0.0026439,0.00374882,-0.00182224,-0.945526,0.00327993,0.0137781,615,1072,-65.6175,-8.21337
-602,-48,-65.5865,8.61108,0.00103165,-0.000139329,-0.00264036,0.00315066,-0.00225833,-0.67629,0.00313702,0.0147522,622,1072,-65.5865,-8.6111
-595,-48,-65.5698,8.99438,0.00153326,-0.00173521,-0.00259064,0.00296205,-0.003164,-0.50401,0.00353752,0.0356163,629,1072,-65.5698,-8.99437
-588,-48,-65.7383,9.41968,0,0,0,0,0,0,0,-1,636,1072,-65.7383,-9.41962
-581,-48,-66.207,0.39624,0,0,0,0,0,0,0,-1,643,1072,-66.207,-0.396245
-574,-48,-66.2646,0.446045,0.00134787,-0.00356983,-0.00177581,0.00192208,-0.00414404,-0.312739,0.00357973,0.0404395,650,1072,-66.2646,-0.446077
-567,-48,-66.2635,0.503296,0.000654952,-0.00333491,-0.00130657,0.00104474,-0.0037247,-0.289923,0.00289491,0.0390891,657,1072,-66.2636,-0.503254
-560,-48,-66.2477,0.473999,-0.000433027,-0.00261634,-0.000746696,-0.000202084,-0.00284728,-0.299954,0.00183454,0.0383028,664,1072,-66.2477,-0.474028
-553,-48,-66.2116,0.497803,-0.00187518,-0.00160101,-0.000155436,-0.00153085,-0.00194534,-1.14677,0.00118318,0.0408242,671,1072,-66.2116,-0.497825
-546,-48,-66.0701,0.663696,-0.00359331,-0.00058595,0.000274185,-0.000561156,-0.0036181,1.48062,0.00224848,0.0417358,678,1072,-66.0701,-0.663721
-539,-48,-66.1182,0.799194,-0.00565227,-5.9219e-05,0.00024355,-4.86337e-05,-0.00566286,1.52736,0.00375913,0.0424149,685,1072,-66.1182,-0.799158
-532,-48,-66.2447,0.782227,-0.00782877,0.000672684,8.85491e-05,0.000673607,-0.0078297,1.56038,0.00545821,0.0389976,692,1072,-66.2447,-0.782277
-525,-48,0,0,0,0,0,0,0,0,0,-1,699,1072,0,0
-518,-48,0,0,0,0,0,0,0,0,0,-1,706,1072,0,0
-511,-48,0,0,0,0,0,0,0,0,0,-1,713,1072,0,0
-504,-48,0,0,0,0,0,0,0,0,0,-1,720,1072,0,0
-497,-48,0,0,0,0,0,0,0,0,0,-1,727,1072,0,0
-490,-48,0,0,0,0,0,0,0,0,0,-1,734,1072,0,0
-483,-48,0,0,0,0,0,0,0,0,0,-1,741,1072,0,0
-476,-48,0,0,0,0,0,0,0,0,0,-1,748,1072,0,0
-469,-48,0,0,0,0,0,0,0,0,0,-1,755,1072,0,0
-462,-48,0,0,0,0,0,0,0,0,0,-1,762,1072,0,0
-455,-48,0,0,0,0,0,0,0,0,0,-1,769,1072,0,0
-448,-48,0,0,0,0,0,0,0,0,0,-1,776,1072,0,0
-441,-48,0,0,0,0,0,0,0,0,0,-1,783,1072,0,0
-434,-48,0,0,0,0,0,0,0,0,0,-1,790,1072,0,0
-427,-48,0,0,0,0,0,0,0,0,0,-1,797,1072,0,0
-420,-48,0,0,0,0,0,0,0,0,0,-1,804,1072,0,0
-413,-48,0,0,0,0,0,0,0,0,0,-1,811,1072,0,0
-406,-48,0,0,0,0,0,0,0,0,0,-1,818,1072,0,0
-399,-48,0,0,0,0,0,0,0,0,0,-1,825,1072,0,0
-392,-48,0,0,0,0,0,0,0,0,0,-1,832,1072,0,0
-385,-48,0,0,0,0,0,0,0,0,0,-1,839,1072,0,0
-378,-48,0,0,0,0,0,0,0,0,0,-1,846,1072,0,0
-371,-48,0,0,0,0,0,0,0,0,0,-1,853,1072,0,0
-364,-48,0,0,0,0,0,0,0,0,0,-1,860,1072,0,0
-357,-48,0,0,0,0,0,0,0,0,0,-1,867,1072,0,0
-350,-48,0,0,0,0,0,0,0,0,0,-1,874,1072,0,0
-343,-48,0,0,0,0,0,0,0,0,0,-1,881,1072,0,0
-336,-48,0,0,0,0,0,0,0,0,0,-1,888,1072,0,0
-329,-48,0,0,0,0,0,0,0,0,0,-1,895,1072,0,0
-322,-48,0,0,0,0,0,0,0,0,0,-1,902,1072,0,0
-315,-48,0,0,0,0,0,0,0,0,0,-1,909,1072,0,0
-308,-48,0,0,0,0,0,0,0,0,0,-1,916,1072,0,0
-301,-48,0,0,0,0,0,0,0,0,0,-1,923,1072,0,0
-294,-48,0,0,0,0,0,0,0,0,0,-1,930,1072,0,0
-287,-48,0,0,0,0,0,0,0,0,0,-1,937,1072,0,0
-280,-48,0,0,0,0,0,0,0,0,0,-1,944,1072,0,0
-273,-48,0,0,0,0,0,0,0,0,0,-1,951,1072,0,0
-266,-48,0,0,0,0,0,0,0,0,0,-1,958,1072,0,0
-259,-48,0,0,0,0,0,0,0,0,0,-1,965,1072,0,0
-252,-48,0,0,0,0,0,0,0,0,0,-1,972,1072,0,0
-245,-48,0,0,0,0,0,0,0,0,0,-1,979,1072,0,0
-238,-48,0,0,0,0,0,0,0,0,0,-1,986,1072,0,0
-231,-48,0,0,0,0,0,0,0,0,0,-1,993,1072,0,0
-224,-48,0,0,0,0,0,0,0,0,0,-1,1000,1072,0,0
-217,-48,0,0,0,0,0,0,0,0,0,-1,1007,1072,0,0
-210,-48,0,0,0,0,0,0,0,0,0,-1,1014,1072,0,0
-203,-48,0,0,0,0,0,0,0,0,0,-1,1021,1072,0,0
-196,-48,0,0,0,0,0,0,0,0,0,-1,1028,1072,0,0
-189,-48,0,0,0,0,0,0,0,0,0,-1,1035,1072,0,0
-182,-48,0,0,0,0,0,0,0,0,0,-1,1042,1072,0,0
-175,-48,0,0,0,0,0,0,0,0,0,-1,1049,1072,0,0
-168,-48,0,0,0,0,0,0,0,0,0,-1,1056,1072,0,0
-161,-48,0,0,0,0,0,0,0,0,0,-1,1063,1072,0,0
-154,-48,0,0,0,0,0,0,0,0,0,-1,1070,1072,0,0
-147,-48,0,0,0,0,0,0,0,0,0,-1,1077,1072,0,0
-140,-48,0,0,0,0,0,0,0,0,0,-1,1084,1072,0,0
-133,-48,0,0,0,0,0,0,0,0,0,-1,1091,1072,0,0
-126,-48,0,0,0,0,0,0,0,0,0,-1,1098,1072,0,0
-119,-48,0,0,0,0,0,0,0,0,0,-1,1105,1072,0,0
-112,-48,0,0,0,0,0,0,0,0,0,-1,1112,1072,0,0
-105,-48,0,0,0,0,0,0,0,0,0,-1,1119,1072,0,0
-98,-48,0,0,0,0,0,0,0,0,0,-1,1126,1072,0,0
-91,-48,0,0,0,0,0,0,0,0,0,-1,1133,1072,0,0
-84,-48,0,0,0,0,0,0,0,0,0,-1,1140,1072,0,0
-77,-48,0,0,0,0,0,0,0,0,0,-1,1147,1072,0,0
-70,-48,0,0,0,0,0,0,0,0,0,-1,1154,1072,0,0
-63,-48,0,0,0,0,0,0,0,0,0,-1,1161,1072,0,0
-56,-48,0,0,0,0,0,0,0,0,0,-1,1168,1072,0,0
-49,-48,0,0,0,0,0,0,0,0,0,-1,1175,1072,0,0
-42,-48,0,0,0,0,0,0,0,0,0,-1,1182,1072,0,0
-35,-48,0,0,0,0,0,0,0,0,0,-1,1189,1072,0,0
-28,-48,0,0,0,0,0,0,0,0,0,-1,1196,1072,0,0
-21,-48,0,0,0,0,0,0,0,0,0,-1,1203,1072,0,0
-14,-48,0,0,0,0,0,0,0,0,0,-1,1210,1072,0,0
-7,-48,0,0,0,0,0,0,0,0,0,-1,1217,1072,0,0
0,-48,0,0,0,0,0,0,0,0,0,-1,1224,1072,0,0
7,-48,0,0,0,0,0,0,0,0,0,-1,1231,1072,0,0
14,-48,0,0,0,0,0,0,0,0,0,-1,1238,1072,0,0
21,-48,0,0,0,0,0,0,0,0,0,-1,1245,1072,0,0
28,-48,0,0,0,0,0,0,0,0,0,-1,1252,1072,0,0
35,-48,0,0,0,0,0,0,0,0,0,-1,1259,1072,0,0
42,-48,0,0,0,0,0,0,0,0,0,-1,1266,1072,0,0
49,-48,0,0,0,0,0,0,0,0,0,-1,1273,1072,0,0
56,-48,0,0,0,0,0,0,0,0,0,-1,1280,1072,0,0
63,-48,0,0,0,0,0,0,0,0,0,-1,1287,1072,0,0
70,-48,0,0,0,0,0,0,0,0,0,-1,1294,1072,0,0
77,-48,0,0,0,0,0,0,0,0,0,-1,1301,1072,0,0
84,-48,0,0,0,0,0,0,0,0,0,-1,1308,1072,0,0
91,-48,0,0,0,0,0,0,0,0,0,-1,1315,1072,0,0
98,-48,0,0,0,0,0,0,0,0,0,-1,1322,1072,0,0
105,-48,0,0,0,0,0,0,0,0,0,-1,1329,1072,0,0
112,-48,0,0,0,0,0,0,0,0,0,-1,1336,1072,0,0
119,-48,0,0,0,0,0,0,0,0,0,-1,1343,1072,0,0
126,-48,0,0,0,0,0,0,0,0,0,-1,1350,1072,0,0
133,-48,0,0,0,0,0,0,0,0,0,-1,1357,1072,0,0
140,-48,0,0,0,0,0,0,0,0,0,-1,1364,1072,0,0
147,-48,0,0,0,0,0,0,0,0,0,-1,1371,1072,0,0
154,-48,0,0,0,0,0,0,0,0,0,-1,1378,1072,0,0
161,-48,0,0,0,0,0,0,0,0,0,-1,1385,1072,0,0
168,-48,0,0,0,0,0,0,0,0,0,-1,1392,1072,0,0
175,-48,0,0,0,0,0,0,0,0,0,-1,1399,1072,0,0
182,-48,0,0,0,0,0,0,0,0,0,-1,1406,1072,0,0
189,-48,0,0,0,0,0,0,0,0,0,-1,1413,1072,0,0
196,-48,0,0,0,0,0,0,0,0,0,-1,1420,1072,0,0
203,-48,0,0,0,0,0,0,0,0,0,-1,1427,1072,0,0
210,-48,0,0,0,0,0,0,0,0,0,-1,1434,1072,0,0
217,-48,0,0,0,0,0,0,0,0,0,-1,1441,1072,0,0
224,-48,0,0,0,0,0,0,0,0,0,-1,1448,1072,0,0
231,-48,0,0,0,0,0,0,0,0,0,-1,1455,1072,0,0
238,-48,0,0,0,0,0,0,0,0,0,-1,1462,1072,0,0
245,-48,0,0,0,0,0,0,0,0,0,-1,1469,1072,0,0
252,-48,0,0,0,0,0,0,0,0,0,-1,1476,1072,0,0
259,-48,0,0,0,0,0,0,0,0,0,-1,1483,1072,0,0
266,-48,0,0,0,0,0,0,0,0,0,-1,1490,1072,0,0
273,-48,0,0,0,0,0,0,0,0,0,-1,1497,1072,0,0
280,-48,0,0,0,0,0,0,0,0,0,-1,1504,1072,0,0
287,-48,0,0,0,0,0,0,0,0,0,-1,1511,1072,0,0
294,-48,0,0,0,0,0,0,0,0,0,-1,1518,1072,0,0
301,-48,0,0,0,0,0,0,0,0,0,-1,1525,1072,0,0
308,-48,0,0,0,0,0,0,0,0,0,-1,1532,1072,0,0
315,-48,0,0,0,0,0,0,0,0,0,-1,1539,1072,0,0
322,-48,0,0,0,0,0,0,0,0,0,-1,1546,1072,0,0
329,-48,0,0,0,0,0,0,0,0,0,-1,1553,1072,0,0
336,-48,0,0,0,0,0,0,0,0,0,-1,1560,1072,0,0
343,-48,0,0,0,0,0,0,0,0,0,-1,1567,1072,0,0
350,-48,0,0,0,0,0,0,0,0,0,-1,1574,1072,0,0
357,-48,0,0,0,0,0,0,0,0,0,-1,1581,1072,0,0
364,-48,0,0,0,0,0,0,0,0,0,-1,1588,1072,0,0
371,-48,0,0,0,0,0,0,0,0,0,-1,1595,1072,0,0
378,-48,0,0,0,0,0,0,0,0,0,-1,1602,1072,0,0
385,-48,0,0,0,0,0,0,0,0,0,-1,1609,1072,0,0
392,-48,0,0,0,0,0,0,0,0,0,-1,1616,1072,0,0
399,-48,0,0,0,0,0,0,0,0,0,-1,1623,1072,0,0
406,-48,0,0,0,0,0,0,0,0,0,-1,1630,1072,0,0
413,-48,0,0,0,0,0,0,0,0,0,-1,1637,1072,0,0
420,-48,0,0,0,0,0,0,0,0,0,-1,1644,1072,0,0
427,-48,0,0,0,0,0,0,0,0,0,-1,1651,1072,0,0
434,-48,0,0,0,0,0,0,0,0,0,-1,1658,1072,0,0
441,-48,0,0,0,0,0,0,0,0,0,-1,1665,1072,0,0
448,-48,0,0,0,0,0,0,0,0,0,-1,1672,1072,0,0
455,-48,0,0,0,0,0,0,0,0,0,-1,1679,1072,0,0
462,-48,0,0,0,0,0,0,0,0,0,-1,1686,1072,0,0
469,-48,0,0,0,0,0,0,0,0,0,-1,1693,1072,0,0
476,-48,0,0,0,0,0,0,0,0,0,-1,1700,1072,0,0
483,-48,0,0,0,0,0,0,0,0,0,-1,1707,1072,0,0
490,-48,0,0,0,0,0,0,0,0,0,-1,1714,1072,0,0
497,-48,0,0,0,0,0,0,0,0,0,-1,1721,1072,0,0
504,-48,0,0,0,0,0,0,0,0,0,-1,1728,1072,0,0
511,-48,0,0,0,0,0,0,0,0,0,-1,1735,1072,0,0
518,-48,0,0,0,0,0,0,0,0,0,-1,1742,1072,0,0
525,-48,0,0,0,0,0,0,0,0,0,-1,1749,1072,0,0
532,-48,0,0,0,0,0,0,0,0,0,-1,1756,1072,0,0
539,-48,0,0,0,0,0,0,0,0,0,-1,1763,1072,0,0
546,-48,0,0,0,0,0,0,0,0,0,-1,1770,1072,0,0
553,-48,0,0,0,0,0,0,0,0,0,-1,1777,1072,0,0
560,-48,0,0,0,0,0,0,0,0,0,-1,1784,1072,0,0
567,-48,0,0,0,0,0,0,0,0,0,-1,1791,1072,0,0
574,-48,0,0,0,0,0,0,0,0,0,-1,1798,1072,0,0
581,-48,0,0,0,0,0,0,0,0,0,-1,1805,1072,0,0
588,-48,0,0,0,0,0,0,0,0,0,-1,1812,1072,0,0
595,-48,0,0,0,0,0,0,0,0,0,-1,1819,1072,0,0
602,-48,0,0,0,0,0,0,0,0,0,-1,1826,1072,0,0
609,-48,0,0,0,0,0,0,0,0,0,-1,1833,1072,0,0
616,-48,0,0,0,0,0,0,0,0,0,-1,1840,1072,0,0
623,-48,0,0,0,0,0,0,0,0,0,-1,1847,1072,0,0
630,-48,0,0,0,0,0,0,0,0,0,-1,1854,1072,0,0
637,-48,0,0,0,0,0,0,0,0,0,-1,1861,1072,0,0
644,-48,0,0,0,0,0,0,0,0,0,-1,1868,1072,0,0
651,-48,83.1466,2.30225,0.00108058,-0.00388575,0.00262338,0.00220965,-0.00501482,0.406425,0.00427457,0.0329998,1875,1072,83.1466,-2.30229
658,-48,83.2083,2.32361,0.000257901,-0.00298855,0.00169846,0.000984068,-0.00371471,0.404023,0.00286147,0.0379765,1882,1072,83.2082,-2.32361
665,-48,83.0004,2.48059,-0.000205653,-0.00221281,0.00102879,0.000227979,-0.00264644,0.3989,0.00184499,0.0412831,1889,1072,83.0004,-2.48058
672,-48,82.873,2.35425,-0.000452743,-0.00136724,0.000565064,-0.000183098,-0.00163689,0.445236,0.00103563,0.0418521,1896,1072,82.8731,-2.35424
679,-48,83,2.22302,-0.000549043,-0.000518933,0.000198943,-0.000334476,-0.0007335,0.823163,0.000424033,0.0418899,1903,1072,83,-2.22297
686,-48,83.0375,2.30859,-0.000747549,-9.67223e-05,0.000109413,-7.8821e-05,-0.000765451,1.40862,0.000486161,0.0404499,1910,1072,83.0375,-2.30854
693,-48,82.9739,2.28833,-0.000939915,2.47296e-05,0.000282209,0.000101225,-0.00101641,1.3061,0.000713745,0.0419789,1917,1072,82.9738,-2.28838
700,-48,83.115,2.38135,-0.00111764,3.05244e-05,0.000660053,0.000331221,-0.00141834,1.14332,0.00107314,0.03661,1924,1072,83.1149,-2.38139
707,-48,83.1797,2.36682,-0.00175363,0.000231326,0.00106227,0.00069261,-0.00221492,1.16112,0.00175368,0.0280062,1931,1072,83.1797,-2.36679
714,-48,83.1691,2.29541,-0.00259891,0.000788108,0.00147756,0.00134207,-0.00315288,1.2121,0.00266443,0.0449214,1938,1072,83.169,-2.29542
721,-48,83.2402,2.28064,0,0,0,0,0,0,0,-1,1945,1072,83.2402,-2.28065
728,-48,81.9813,9.08472,0,0,0,0,0,0,0,-1,1952,1072,81.9813,-9.08467
735,-48,81.8698,8.70947,-0.00574842,0.00429361,0.00254532,0.00490192,-0.00635672,1.33621,0.00651824,0.0259896,1959,1072,81.8697,-8.70943
742,-48,81.7476,8.29138,-0.00617895,0.00577172,0.00269641,0.00635194,-0.00675917,1.35885,0.00757092,0.0192754,1966,1072,81.7475,-8.29138
749,-48,81.7446,7.8833,-0.00647165,0.00807302,0.00192688,0.00832397,-0.0067226,1.44129,0.00870352,0.0171785,1973,1072,81.7446,-7.88324
756,-48,81.7024,7.50183,-0.00620072,0.0111028,0.000733923,0.0111338,-0.0062318,1.52848,0.0101583,0.0151736,1980,1072,81.7025,-7.50186
763,-48,81.5986,7.12073,-0.00467816,0.0151816,-0.00165858,0.0153192,-0.00481572,-1.48805,0.0121407,0.0136037,1987,1072,81.5986,-7.12073
770,-48,81.5234,6.72485,-0.00136115,0.0207387,-0.00560206,0.0220776,-0.00270009,-1.33619,0.015696,0.0154829,1994,1072,81.5236,-6.72489
777,-48,81.3123,6.29175,0.0047358,0.0278711,-0.0116283,0.0327055,-9.85973e-05,-1.17679,0.0218366,0.0155867,2001,1072,81.3123,-6.29176
784,-48,81.1433,5.87476,0.0125972,0.0353649,-0.0189762,0.04611,0.00185211,-1.05557,0.0301416,0.0274946,2008,1072,81.1433,-5.87473
791,-48,81.0193,5.55701,0.0229492,0.0433771,-0.0282434,0.0631967,0.00312959,-0.958902,0.0411276,0.0407231,2015,1072,81.0193,-5.55706
798,-48,80.9016,5.29138,0.0365529,0.0521447,-0.0399771,0.0850789,0.00361872,-0.881694,0.0555523,0.0461351,2022,1072,80.9016,-5.29133
805,-48,80.7346,4.90356,0,0,0,0,0,0,0,-1,2029,1072,80.7346,-4.9036
812,-48,81.3833,-1.22717,0,0,0,0,0,0,0,-1,2036,1072,81.3833,1.22717
-700,-55,-65.9867,-8.03796,0,0,0,0,0,0,0,-1,524,1079,-65.9867,8.038
-693,-55,-65.8375,-6.34204,0,0,0,0,0,0,0,-1,531,1079,-65.8375,6.34202
-686,-55,-65.9096,0.26001,0,0,0,0,0,0,0,-1,538,1079,-65.9096,-0.260043
-679,-55,-57.3812,1.38611,0,0,0,0,0,0,0,-1,545,1079,-57.3812,-1.38616
-672,-55,-57.6082,2.26489,0,0,0,0,0,0,0,-1,552,1079,-57.6082,-2.26487
-665,-55,-65.2776,0.550171,0,0,0,0,0,0,0,-1,559,1079,-65.2776,-0.55017
-658,-55,-64.5989,2.16565,0,0,0,0,0,0,0,-1,566,1079,-64.5989,-2.16568
-651,-55,-64.8037,4.75256,0,0,0,0,0,0,0,-1,573,1079,-64.8037,-4.75256
-644,-55,-64.9759,5.97681,-0.0216548,0.0131316,0.017525,0.0204295,-0.0289527,1.17621,0.028652,0.0333627,580,1079,-64.9759,-5.97683
-637,-55,-65.0479,6.29395,-0.0147732,0.0124848,0.0103771,0.0159857,-0.0182741,1.24542,0.0197946,0.0265001,587,1079,-65.0479,-6.29389
-630,-55,-65.1194,6.79614,-0.0087698,0.0109226,0.00456157,0.0119279,-0.00977512,1.35387,0.0125508,0.0289199,594,1079,-65.1194,-6.79609
-623,-55,-65.2774,7.34619,-0.00430464,0.00744719,0.000176471,0.00744984,-0.00430729,1.55578,0.00686833,0.0206354,601,1079,-65.2774,-7.34618
-616,-55,-65.2819,7.77539,-0.00137766,0.00443981,-0.00234003,0.00526423,-0.00220209,-1.23206,0.00442988,0.0185409,608,1079,-65.2818,-7.77542
-609,-55,-65.22,8.28564,3.20441e-05,0.00145671,-0.00259082,0.00343134,-0.00194258,-0.919556,0.00314207,0.0197433,615,1079,-65.22,-8.28563
-602,-55,-65.1077,8.7301,0.000897589,-0.000354302,-0.00254008,0.00288771,-0.00234442,-0.664591,0.0030262,0.0163486,622,1079,-65.1077,-8.73008
-595,-55,-64.8812,9.2085,0.0013691,-0.00179371,-0.00244881,0.00270274,-0.00312736,-0.498694,0.00336898,0.0333211,629,1079,-64.8812,-9.20849
-588,-55,-64.7636,9.7865,0,0,0,0,0,0,0,-1,636,1079,-64.7636,-9.78652
-581,-55,-66.1552,0.306274,0,0,0,0,0,0,0,-1,643,1079,-66.1552,-0.306256
-574,-55,-66.1725,0.427002,0.00124514,-0.00340579,-0.00153846,0.00170798,-0.00386863,-0.292232,0.00329923,0.0398813,650,1079,-66.1725,-0.427033
-567,-55,-66.2182,0.386963,0.000627922,-0.00314712,-0.00107673,0.000913437,-0.00343263,-0.259203,0.00264599,0.038789,657,1079,-66.2182,-0.387023
-560,-55,-66.3243,0.468018,-0.000404791,-0.00241826,-0.000547233,-0.000265673,-0.00255738,-0.248947,0.00162362,0.039962,664,1079,-66.3243,-0.468047
-553,-55,-66.169,0.481567,-0.00180545,-0.00139373,2.8227e-05,-0.0013918,-0.00180737,1.50266,0.00109305,0.0429152,671,1079,-66.169,-0.481602
-546,-55,-66.0536,0.488892,-0.00348261,-0.000336205,0.000466132,-0.000268601,-0.00355021,1.42677,0.00228255,0.0422792,678,1079,-66.0537,-0.488919
-539,-55,-66.0964,0.568604,-0.00542189,0.000217762,0.000467644,0.000256276,-0.00546041,1.48862,0.00372863,0.0405831,685,1079,-66.0965,-0.568642
-532,-55,-66.2515,0.655884,-0.00745047,0.000931934,0.000388179,0.000949871,-0.00746841,1.52462,0.00532389,0.0389481,692,1079,-66.2515,-0.655923
-525,-55,0,0,0,0,0,0,0,0,0,-1,699,1079,0,0
-518,-55,0,0,0,0,0,0,0,0,0,-1,706,1079,0,0
-511,-55,0,0,0,0,0,0,0,0,0,-1,713,1079,0,0
-504,-55,0,0,0,0,0,0,0,0,0,-1,720,1079,0,0
-497,-55,0,0,0,0,0,0,0,0,0,-1,727,1079,0,0
-490,-55,0,0,0,0,0,0,0,0,0,-1,734,1079,0,0
-483,-55,0,0,0,0,0,0,0,0,0,-1,741,1079,0,0
-476,-55,0,0,0,0,0,0,0,0,0,-1,748,1079,0,0
-469,-55,0,0,0,0,0,0,0,0,0,-1,755,1079,0,0
-462,-55,0,0,0,0,0,0,0,0,0,-1,762,1079,0,0
-455,-55,0,0,0,0,0,0,0,0,0,-1,769,1079,0,0
-448,-55,0,0,0,0,0,0,0,0,0,-1,776,1079,0,0
-441,-55,0,0,0,0,0,0,0,0,0,-1,783,1079,0,0
-434,-55,0,0,0,0,0,0,0,0,0,-1,790,1079,0,0
-427,-55,0,0,0,0,0,0,0,0,0,-1,797,1079,0,0
-420,-55,0,0,0,0,0,0,0,0,0,-1,804,1079,0,0
-413,-55,0,0,0,0,0,0,0,0,0,-1,811,1079,0,0
-406,-55,0,0,0,0,0,0,0,0,0,-1,818,1079,0,0
-399,-55,0,0,0,0,0,0,0,0,0,-1,825,1079,0,0
-392,-55,0,0,0,0,0,0,0,0,0,-1,832,1079,0,0
-385,-55,0,0,0,0,0,0,0,0,0,-1,839,1079,0,0
-378,-55,0,0,0,0,0,0,0,0,0,-1,846,1079,0,0
-371,-55,0,0,0,0,0,0,0,0,0,-1,853,1079,0,0
-364,-55,0,0,0,0,0,0,0,0,0,-1,860,1079,0,0
-357,-55,0,0,0,0,0,0,0,0,0,-1,867,1079,0,0
-350,-55,0,0,0,0,0,0,0,0,0,-1,874,1079,0,0
-343,-55,0,0,0,0,0,0,0,0,0,-1,881,1079,0,0
-336,-55,0,0,0,0,0,0,0,0,0,-1,888,1079,0,0
-329,-55,0,0,0,0,0,0,0,0,0,-1,895,1079,0,0
-322,-55,0,0,0,0,0,0,0,0,0,-1,902,1079,0,0
-315,-55,0,0,0,0,0,0,0,0,0,-1,909,1079,0,0
-308,-55,0,0,0,0,0,0,0,0,0,-1,916,1079,0,0
-301,-55,0,0,0,0,0,0,0,0,0,-1,923,1079,0,0
-294,-55,0,0,0,0,0,0,0,0,0,-1,930,1079,0,0
-287,-55,0,0,0,0,0,0,0,0,0,-1,937,1079,0,0
-280,-55,0,0,0,0,0,0,0,0,0,-1,944,1079,0,0
-273,-55,0,0,0,0,0,0,0,0,0,-1,951,1079,0,0
-266,-55,0,0,0,0,0,0,0,0,0,-1,958,1079,0,0
-259,-55,0,0,0,0,0,0,0,0,0,-1,965,1079,0,0
-252,-55,0,0,0,0,0,0,0,0,0,-1,972,1079,0,0
-245,-55,0,0,0,0,0,0,0,0,0,-1,979,1079,0,0
-238,-55,0,0,0,0,0,0,0,0,0,-1,986,1079,0,0
-231,-55,0,0,0,0,0,0,0,0,0,-1,993,1079,0,0
-224,-55,0,0,0,0,0,0,0,0,0,-1,1000,1079,0,0
-217,-55,0,0,0,0,0,0,0,0,0,-1,1007,1079,0,0
-210,-55,0,0,0,0,0,0,0,0,0,-1,1014,1079,0,0
-203,-55,0,0,0,0,0,0,0,0,0,-1,1021,1079,0,0
-196,-55,0,0,0,0,0,0,0,0,0,-1,1028,1079,0,0
-189,-55,0,0,0,0,0,0,0,0,0,-1,1035,1079,0,0
-182,-55,0,0,0,0,0,0,0,0,0,-1,1042,1079,0,0
-175,-55,0,0,0,0,0,0,0,0,0,-1,1049,1079,0,0
-168,-55,0,0,0,0,0,0,0,0,0,-1,1056,1079,0,0
-161,-55,0,0,0,0,0,0,0,0,0,-1,1063,1079,0,0
-154,-55,0,0,0,0,0,0,0,0,0,-1,1070,1079,0,0
-147,-55,0,0,0,0,0,0,0,0,0,-1,1077,1079,0,0
-140,-55,0,0,0,0,0,0,0,0,0,-1,1084,1079,0,0
-133,-55,0,0,0,0,0,0,0,0,0,-1,1091,1079,0,0
-126,-55,0,0,0,0,0,0,0,0,0,-1,1098,1079,0,0
-119,-55,0,0,0,0,0,0,0,0,0,-1,1105,1079,0,0
-112,-55,0,0,0,0,0,0,0,0,0,-1,1112,1079,0,0
-105,-55,0,0,0,0,0,0,0,0,0,-1,1119,1079,0,0
-98,-55,0,0,0,0,0,0,0,0,0,-1,1126,1079,0,0
-91,-55,0,0,0,0,0,0,0,0,0,-1,1133,1079,0,0
-84,-55,0,0,0,0,0,0,0,0,0,-1,1140,1079,0,0
-77,-55,0,0,0,0,0,0,0,0,0,-1,1147,1079,0,0
-70,-55,0,0,0,0,0,0,0,0,0,-1,1154,1079,0,0
-63,-55,0,0,0,0,0,0,0,0,0,-1,1161,1079,0,0
-56,-55,0,0,0,0,0,0,0,0,0,-1,1168,1079,0,0
-49,-55,0,0,0,0,0,0,0,0,0,-1,1175,1079,0,0
-42,-55,0,0,0,0,0,0,0,0,0,-1,1182,1079,0,0
-35,-55,0,0,0,0,0,0,0,0,0,-1,1189,1079,0,0
-28,-55,0,0,0,0,0,0,0,0,0,-1,1196,1079,0,0
-21,-55,0,0,0,0,0,0,0,0,0,-1,1203,1079,0,0
-14,-55,0,0,0,0,0,0,0,0,0,-1,1210,1079,0,0
-7,-55,0,0,0,0,0,0,0,0,0,-1,1217,1079,0,0
0,-55,0,0,0,0,0,0,0,0,0,-1,1224,1079,0,0
7,-55,0,0,0,0,0,0,0,0,0,-1,1231,1079,0,0
14,-55,0,0,0,0,0,0,0,0,0,-1,1238,1079,0,0
21,-55,0,0,0,0,0,0,0,0,0,-1,1245,1079,0,0
28,-55,0,0,0,0,0,0,0,0,0,-1,1252,1079,0,0
35,-55,0,0,0,0,0,0,0,0,0,-1,1259,1079,0,0
42,-55,0,0,0,0,0,0,0,0,0,-1,1266,1079,0,0
49,-55,0,0,0,0,0,0,0,0,0,-1,1273,1079,0,0
56,-55,0,0,0,0,0,0,0,0,0,-1,1280,1079,0,0
63,-55,0,0,0,0,0,0,0,0,0,-1,1287,1079,0,0
70,-55,0,0,0,0,0,0,0,0,0,-1,1294,1079,0,0
77,-55,0,0,0,0,0,0,0,0,0,-1,1301,1079,0,0
84,-55,0,0,0,0,0,0,0,0,0,-1,1308,1079,0,0
91,-55,0,0,0,0,0,0,0,0,0,-1,1315,1079,0,0
98,-55,0,0,0,0,0,0,0,0,0,-1,1322,1079,0,0
105,-55,0,0,0,0,0,0,0,0,0,-1,1329,1079,0,0
112,-55,0,0,0,0,0,0,0,0,0,-1,1336,1079,0,0
119,-55,0,0,0,0,0,0,0,0,0,-1,1343,1079,0,0
126,-55,0,0,0,0,0,0,0,0,0,-1,1350,1079,0,0
133,-55,0,0,0,0,0,0,0,0,0,-1,1357,1079,0,0
140,-55,0,0,0,0,0,0,0,0,0,-1,1364,1079,0,0
147,-55,0,0,0,0,0,0,0,0,0,-1,1371,1079,0,0
154,-55,0,0,0,0,0,0,0,0,0,-1,1378,1079,0,0
161,-55,0,0,0,0,0,0,0,0,0,-1,1385,1079,0,0
168,-55,0,0,0,0,0,0,0,0,0,-1,1392,1079,0,0
175,-55,0,0,0,0,0,0,0,0,0,-1,1399,1079,0,0
182,-55,0,0,0,0,0,0,0,0,0,-1,1406,1079,0,0
189,-55,0,0,0,0,0,0,0,0,0,-1,1413,1079,0,0
196,-55,0,0,0,0,0,0,0,0,0,-1,1420,1079,0,0
203,-55,0,0,0,0,0,0,0,0,0,-1,1427,1079,0,0
210,-55,0,0,0,0,0,0,0,0,0,-1,1434,1079,0,0
217,-55,0,0,0,0,0,0,0,0,0,-1,1441,1079,0,0
224,-55,0,0,0,0,0,0,0,0,0,-1,1448,1079,0,0
231,-55,0,0,0,0,0,0,0,0,0,-1,1455,1079,0,0
238,-55,0,0,0,0,0,0,0,0,0,-1,1462,1079,0,0
245,-55,0,0,0,0,0,0,0,0,0,-1,1469,1079,0,0
252,-55,0,0,0,0,0,0,0,0,0,-1,1476,1079,0,0
259,-55,0,0,0,0,0,0,0,0,0,-1,1483,1079,0,0
266,-55,0,0,0,0,0,0,0,0,0,-1,1490,1079,0,0
273,-55,0,0,0,0,0,0,0,0,0,-1,1497,1079,0,0
280,-55,0,0,0,0,0,0,0,0,0,-1,1504,1079,0,0
287,-55,0,0,0,0,0,0,0,0,0,-1,1511,1079,0,0
294,-55,0,0,0,0,0,0,0,0,0,-1,1518,1079,0,0
301,-55,0,0,0,0,0,0,0,0,0,-1,1525,1079,0,0
308,-55,0,0,0,0,0,0,0,0,0,-1,1532,1079,0,0
315,-55,0,0,0,0,0,0,0,0,0,-1,1539,1079,0,0
322,-55,0,0,0,0,0,0,0,0,0,-1,1546,1079,0,0
329,-55,0,0,0,0,0,0,0,0,0,-1,1553,1079,0,0
336,-55,0,0,0,0,0,0,0,0,0,-1,1560,1079,0,0
343,-55,0,0,0,0,0,0,0,0,0,-1,1567,1079,0,0
350,-55,0,0,0,0,0,0,0,0,0,-1,1574,1079,0,0
357,-55,0,0,0,0,0,0,0,0,0,-1,1581,1079,0,0
364,-55,0,0,0,0,0,0,0,0,0,-1,1588,1079,0,0
371,-55,0,0,0,0,0,0,0,0,0,-1,1595,1079,0,0
378,-55,0,0,0,0,0,0,0,0,0,-1,1602,1079,0,0
385,-55,0,0,0,0,0,0,0,0,0,-1,1609,1079,0,0
392,-55,0,0,0,0,0,0,0,0,0,-1,1616,1079,0,0
399,-55,0,0,0,0,0,0,0,0,0,-1,1623,1079,0,0
406,-55,0,0,0,0,0,0,0,0,0,-1,1630,1079,0,0
413,-55,0,0,0,0,0,0,0,0,0,-1,1637,1079,0,0
420,-55,0,0,0,0,0,0,0,0,0,-1,1644,1079,0,0
427,-55,0,0,0,0,0,0,0,0,0,-1,1651,1079,0,0
434,-55,0,0,0,0,0,0,0,0,0,-1,1658,1079,0,0
441,-55,0,0,0,0,0,0,0,0,0,-1,1665,1079,0,0
448,-55,0,0,0,0,0,0,0,0,0,-1,1672,1079,0,0
455,-55,0,0,0,0,0,0,0,0,0,-1,1679,1079,0,0
462,-55,0,0,0,0,0,0,0,0,0,-1,1686,1079,0,0
469,-55,0,0,0,0,0,0,0,0,0,-1,1693,1079,0,0
476,-55,0,0,0,0,0,0,0,0,0,-1,1700,1079,0,0
483,-55,0,0,0,0,0,0,0,0,0,-1,1707,1079,0,0
490,-55,0,0,0,0,0,0,0,0,0,-1,1714,1079,0,0
497,-55,0,0,0,0,0,0,0,0,0,-1,1721,1079,0,0
504,-55,0,0,0,0,0,0,0,0,0,-1,1728,1079,0,0
511,-55,0,0,0,0,0,0,0,0,0,-1,1735,1079,0,0
518,-55,0,0,0,0,0,0,0,0,0,-1,1742,1079,0,0
525,-55,0,0,0,0,0,0,0,0,0,-1,1749,1079,0,0
532,-55,0,0,0,0,0,0,0,0,0,-1,1756,1079,0,0
539,-55,0,0,0,0,0,0,0,0,0,-1,1763,1079,0,0
546,-55,0,0,0,0,0,0,0,0,0,-1,1770,1079,0,0
553,-55,0,0,0,0,0,0,0,0,0,-1,1777,1079,0,0
560,-55,0,0,0,0,0,0,0,0,0,-1,1784,1079,0,0
567,-55,0,0,0,0,0,0,0,0,0,-1,1791,1079,0,0
574,-55,0,0,0,0,0,0,0,0,0,-1,1798,1079,0,0
581,-55,0,0,0,0,0,0,0,0,0,-1,1805,1079,0,0
588,-55,0,0,0,0,0,0,0,0,0,-1,1812,1079,0,0
595,-55,0,0,0,0,0,0,0,0,0,-1,1819,1079,0,0
602,-55,0,0,0,0,0,0,0,0,0,-1,1826,1079,0,0
609,-55,0,0,0,0,0,0,0,0,0,-1,1833,1079,0,0
616,-55,0,0,0,0,0,0,0,0,0,-1,1840,1079,0,0
623,-55,0,0,0,0,0,0,0,0,0,-1,1847,1079,0,0
630,-55,0,0,0,0,0,0,0,0,0,-1,1854,1079,0,0
637,-55,0,0,0,0,0,0,0,0,0,-1,1861,1079,0,0
644,-55,0,0,0,0,0,0,0,0,0,-1,1868,1079,0,0
651,-55,83.2107,2.37451,0.00119508,-0.00465042,0.00146388,0.00154119,-0.00499652,0.232167,0.00394637,0.0345469,1875,1079,83.2107,-2.37456
658,-55,83.335,2.41638,0.00042349,-0.00356213,0.000896938,0.000616038,-0.00375467,0.211463,0.00273171,0.0353024,1882,1079,83.3349,-2.41641
665,-55,83.0493,2.48938,-2.81818e-05,-0.00262183,0.000465301,5.27666e-05,-0.00270278,0.172246,0.0018197,0.0396041,1889,1079,83.0493,-2.48944
672,-55,82.9698,2.41382,-0.00028317,-0.00162086,0.000131615,-0.000270344,-0.00163369,0.0971482,0.00101113,0.0394406,1896,1079,82.9698,-2.41379
679,-55,83.1787,2.35962,-0.000401216,-0.00062512,-0.000157517,-0.00031992,-0.000706416,-0.476454,0.000408453,0.0382465,1903,1079,83.1787,-2.35968
686,-55,83.0765,2.34106,-0.000633674,-0.000110355,-0.00023871,-1.78277e-05,-0.000726201,-1.20101,0.000478302,0.0393046,1910,1079,83.0766,-2.34109
693,-55,83.0344,2.46313,-0.000834892,4.88198e-05,-6.71344e-05,5.38908e-05,-0.000839963,-1.4954,0.000578776,0.0384154,1917,1079,83.0344,-2.46312
700,-55,83.1871,2.26868,-0.000990247,0.000105505,0.000294626,0.000179701,-0.00106444,1.3241,0.000776491,0.0343552,1924,1079,83.1871,-2.26868
707,-55,83.2042,2.31042,-0.00158065,0.000315063,0.000698963,0.000544907,-0.0018105,1.2531,0.00142382,0.0255048,1931,1079,83.2042,-2.31046
714,-55,83.188,2.30286,-0.00234733,0.000820773,0.00113695,0.00118656,-0.00271312,1.25953,0.00230827,0.0454416,1938,1079,83.188,-2.30283
721,-55,83.1959,2.26428,0,0,0,0,0,0,0,-1,1945,1079,83.1959,-2.26422
728,-55,81.4073,9.34546,0,0,0,0,0,0,0,-1,1952,1079,81.4074,-9.34542
735,-55,81.3182,8.86792,-0.00503282,0.00382141,0.00237451,0.00441801,-0.00562941,1.32464,0.00581492,0.0250594,1959,1079,81.3182,-8.86797
742,-55,81.3386,8.41272,-0.00520028,0.00512453,0.00264414,0.00576229,-0.00583804,1.33412,0.0066975,0.0237413,1966,1079,81.3387,-8.41267
749,-55,81.3564,7.95386,-0.00568057,0.00699622,0.00250294,0.00747251,-0.00615686,1.38275,0.00788113,0.0168665,1973,1079,81.3565,-7.95386
756,-55,81.2112,7.50574,-0.00566038,0.00967986,0.0019778,0.00993076,-0.00591127,1.44462,0.00924401,0.014447,1980,1079,81.2113,-7.5058
763,-55,81.1128,7.08264,-0.00453638,0.0134233,0.000436691,0.0134339,-0.004547,1.5465,0.0107957,0.01549,1987,1079,81.1128,-7.08262
770,-55,81.0037,6.61755,-0.00180857,0.0185856,-0.00237099,0.0188576,-0.00208059,-1.45657,0.0133196,0.0179792,1994,1079,81.0037,-6.6176
777,-55,80.8589,6.18286,0.00309121,0.025023,-0.00667687,0.0268958,0.00121844,-1.29734,0.0175385,0.0159548,2001,1079,80.8589,-6.18287
784,-55,80.7629,5.73254,0.0095481,0.0317978,-0.0120886,0.0371014,0.00424442,-1.15735,0.0234479,0.0312053,2008,1079,80.7629,-5.73258
791,-55,80.6177,5.32556,0.0183853,0.039091,-0.0192402,0.0505868,0.00688948,-1.03222,0.0316788,0.0423828,2015,1079,80.6177,-5.32552
798,-55,80.5029,5.00415,0,0,0,0,0,0,0,-1,2022,1079,80.503,-5.00414
805,-55,82.3337,5.56873,0,0,0,0,0,0,0,-1,2029,1079,82.3337,-5.56874
812,-55,82.7639,5.16211,0,0,0,0,0,0,0,-1,2036,1079,82.764,-5.1621
-700,-62,-63.6259,-4.21094,0,0,0,0,0,0,0,-1,524,1086,-63.6259,4.21096
-693,-62,-67.1958,-1.54614,0,0,0,0,0,0,0,-1,531,1086,-67.1958,1.54609
-686,-62,-56.9984,1.19446,0,0,0,0,0,0,0,-1,538,1086,-56.9984,-1.19445
-679,-62,-57.5735,1.70691,-0.0725934,-0.0131829,0.076433,0.0391144,-0.124891,0.970738,0.098911,0.0470703,545,1086,-57.5735,-1.70692
-672,-62,-57.9174,2.30151,-0.0611489,-0.00444394,0.0631124,0.036392,-0.101985,0.996508,0.0828297,0.0469595,552,1086,-57.9174,-2.30148
-665,-62,-58.0887,3.30518,0,0,0,0,0,0,0,-1,559,1086,-58.0887,-3.30523
-658,-62,-64.456,1.55566,0,0,0,0,0,0,0,-1,566,1086,-64.456,-1.55565
-651,-62,-64.3506,4.94238,0,0,0,0,0,0,0,-1,573,1086,-64.3506,-4.94242
-644,-62,-64.5242,5.73706,-0.0234426,0.0102241,0.0188773,0.0186833,-0.0319018,1.14951,0.0295359,0.0410976,580,1086,-64.5242,-5.73709
-637,-62,-64.6084,6.30078,-0.0162357,0.010366,0.0113475,0.0145488,-0.0204185,1.21764,0.020283,0.0182583,587,1086,-64.6084,-6.30074
-630,-62,-64.7126,6.78931,-0.00991163,0.00951758,0.0051256,0.0107868,-0.0111809,1.32805,0.0126838,0.0179489,594,1086,-64.7127,-6.78936
-623,-62,-64.769,7.37134,-0.00519416,0.00654897,0.000421097,0.00656405,-0.00520924,1.535,0.0068123,0.020015,601,1086,-64.769,-7.37132
-616,-62,-64.7534,7.91321,-0.0020037,0.00392493,-0.0023203,0.00472505,-0.00280382,-1.23873,0.00439372,0.0202474,608,1086,-64.7534,-7.91319
-609,-62,-64.7206,8.3667,-0.00049112,0.00121263,-0.00252706,0.00302754,-0.00230603,-0.947967,0.00308872,0.0203012,615,1086,-64.7206,-8.36672
-602,-62,-64.5529,8.79614,0.000352236,-0.000382841,-0.0024125,0.00242503,-0.00245564,-0.709806,0.00281787,0.0175392,622,1086,-64.5528,-8.79613
-595,-62,-64.4188,9.33508,0.000854069,-0.0016186,-0.00230978,0.00223758,-0.00300211,-0.53967,0.00303586,0.0393566,629,1086,-64.4188,-9.33508
-588,-62,-64.3068,9.88257,0,0,0,0,0,0,0,-1,636,1086,-64.3067,-9.88262
-581,-62,-66.1253,0.447754,0,0,0,0,0,0,0,-1,643,1086,-66.1253,-0.447763
-574,-62,-66.1127,0.43335,0.0010228,-0.00307005,-0.00134633,0.00142596,-0.00347321,-0.290953,0.00290969,0.0353635,650,1086,-66.1127,-0.433359
-567,-62,-66.1234,0.322021,0.000553549,-0.00281813,-0.000915954,0.00078631,-0.00305089,-0.248851,0.00234048,0.0390354,657,1086,-66.1234,-0.322052
-560,-62,-66.2484,0.45752,-0.000341672,-0.00213213,-0.000442697,-0.000238194,-0.00223561,-0.229622,0.00141769,0.0405949,664,1086,-66.2484,-0.457493
-553,-62,-66.1241,0.516602,-0.00165987,-0.00114877,6.97625e-05,-0.00113942,-0.00166922,1.43755,0.000984914,0.0386711,671,1086,-66.1242,-0.516639
-546,-62,-66.0703,0.386841,-0.00327603,-0.000122236,0.000475048,-5.22349e-05,-0.00334603,1.42449,0.00221348,0.0341211,678,1086,-66.0703,-0.386898
-539,-62,-66.1448,0.430542,-0.0050845,0.00035727,0.000500595,0.000402937,-0.00513017,1.47982,0.00356203,0.0376045,685,1086,-66.1448,-0.430554
-532,-62,-66.2358,0.589478,-0.0069717,0.000940351,0.000516269,0.000973896,-0.00700524,1.50591,0.00502634,0.0397,692,1086,-66.2358,-0.589528
-525,-62,0,0,0,0,0,0,0,0,0,-1,699,1086,0,0
-518,-62,0,0,0,0,0,0,0,0,0,-1,706,1086,0,0
-511,-62,0,0,0,0,0,0,0,0,0,-1,713,1086,0,0
-504,-62,0,0,0,0,0,0,0,0,0,-1,720,1086,0,0
-497,-62,0,0,0,0,0,0,0,0,0,-1,727,1086,0,0
-490,-62,0,0,0,0,0,0,0,0,0,-1,734,1086,0,0
-483,-62,0,0,0,0,0,0,0,0,0,-1,741,1086,0,0
-476,-62,0,0,0,0,0,0,0,0,0,-1,748,1086,0,0
-469,-62,0,0,0,0,0,0,0,0,0,-1,755,1086,0,0
-462,-62,0,0,0,0,0,0,0,0,0,-1,762,1086,0,0
-455,-62,0,0,0,0,0,0,0,0,0,-1,769,1086,0,0
-448,-62,0,0,0,0,0,0,0,0,0,-1,776,1086,0,0
-441,-62,0,0,0,0,0,0,0,0,0,-1,783,1086,0,0
-434,-62,0,0,0,0,0,0,0,0,0,-1,790,1086,0,0
-427,-62,0,0,0,0,0,0,0,0,0,-1,797,1086,0,0
-420,-62,0,0,0,0,0,0,0,0,0,-1,804,1086,0,0
-413,-62,0,0,0,0,0,0,0,0,0,-1,811,1086,0,0
-406,-62,0,0,0,0,0,0,0,0,0,-1,818,1086,0,0
-399,-62,0,0,0,0,0,0,0,0,0,-1,825,1086,0,0
-392,-62,0,0,0,0,0,0,0,0,0,-1,832,1086,0,0
-385,-62,0,0,0,0,0,0,0,0,0,-1,839,1086,0,0
-378,-62,0,0,0,0,0,0,0,0,0,-1,846,1086,0,0
-371,-62,0,0,0,0,0,0,0,0,0,-1,853,1086,0,0
-364,-62,0,0,0,0,0,0,0,0,0,-1,860,1086,0,0
-357,-62,0,0,0,0,0,0,0,0,0,-1,867,1086,0,0
-350,-62,0,0,0,0,0,0,0,0,0,-1,874,1086,0,0
-343,-62,0,0,0,0,0,0,0,0,0,-1,881,1086,0,0
-336,-62,0,0,0,0,0,0,0,0,0,-1,888,1086,0,0
-329,-62,0,0,0,0,0,0,0,0,0,-1,895,1086,0,0
-322,-62,0,0,0,0,0,0,0,0,0,-1,902,1086,0,0
-315,-62,0,0,0,0,0,0,0,0,0,-1,909,1086,0,0
-308,-62,0,0,0,0,0,0,0,0,0,-1,916,1086,0,0
-301,-62,0,0,0,0,0,0,0,0,0,-1,923,1086,0,0
-294,-62,0,0,0,0,0,0,0,0,0,-1,930,1086,0,0
-287,-62,0,0,0,0,0,0,0,0,0,-1,937,1086,0,0
-280,-62,0,0,0,0,0,0,0,0,0,-1,944,1086,0,0
-273,-62,0,0,0,0,0,0,0,0,0,-1,951,1086,0,0
-266,-62,0,0,0,0,0,0,0,0,0,-1,958,1086,0,0
-259,-62,0,0,0,0,0,0,0,0,0,-1,965,1086,0,0
-252,-62,0,0,0,0,0,0,0,0,0,-1,972,1086,0,0
-245,-62,0,0,0,0,0,0,0,0,0,-1,979,1086,0,0
-238,-62,0,0,0,0,0,0,0,0,0,-1,986,1086,0,0
-231,-62,0,0,0,0,0,0,0,0,0,-1,993,1086,0,0
-224,-62,0,0,0,0,0,0,0,0,0,-1,1000,1086,0,0
-217,-62,0,0,0,0,0,0,0,0,0,-1,1007,1086,0,0
-210,-62,0,0,0,0,0,0,0,0,0,-1,1014,1086,0,0
-203,-62,0,0,0,0,0,0,0,0,0,-1,1021,1086,0,0
-196,-62,0,0,0,0,0,0,0,0,0,-1,1028,1086,0,0
-189,-62,0,0,0,0,0,0,0,0,0,-1,1035,1086,0,0
-182,-62,0,0,0,0,0,0,0,0,0,-1,1042,1086,0,0
-175,-62,0,0,0,0,0,0,0,0,0,-1,1049,1086,0,0
-168,-62,0,0,0,0,0,0,0,0,0,-1,1056,1086,0,0
-161,-62,0,0,0,0,0,0,0,0,0,-1,1063,1086,0,0
-154,-62,0,0,0,0,0,0,0,0,0,-1,1070,1086,0,0
-147,-62,0,0,0,0,0,0,0,0,0,-1,1077,1086,0,0
-140,-62,0,0,0,0,0,0,0,0,0,-1,1084,1086,0,0
-133,-62,0,0,0,0,0,0,0,0,0,-1,1091,1086,0,0
-126,-62,0,0,0,0,0,0,0,0,0,-1,1098,1086,0,0
-119,-62,0,0,0,0,0,0,0,0,0,-1,1105,1086,0,0
-112,-62,0,0,0,0,0,0,0,0,0,-1,1112,1086,0,0
-105,-62,0,0,0,0,0,0,0,0,0,-1,1119,1086,0,0
-98,-62,0,0,0,0,0,0,0,0,0,-1,1126,1086,0,0
-91,-62,0,0,0,0,0,0,0,0,0,-1,1133,1086,0,0
-84,-62,0,0,0,0,0,0,0,0,0,-1,1140,1086,0,0
-77,-62,0,0,0,0,0,0,0,0,0,-1,1147,1086,0,0
-70,-62,0,0,0,0,0,0,0,0,0,-1,1154,1086,0,0
-63,-62,0,0,0,0,0,0,0,0,0,-1,1161,1086,0,0
-56,-62,0,0,0,0,0,0,0,0,0,-1,1168,1086,0,0
-49,-62,0,0,0,0,0,0,0,0,0,-1,1175,1086,0,0
-42,-62,0,0,0,0,0,0,0,0,0,-1,1182,1086,0,0
-35,-62,0,0,0,0,0,0,0,0,0,-1,1189,1086,0,0
-28,-62,0,0,0,0,0,0,0,0,0,-1,1196,1086,0,0
-21,-62,0,0,0,0,0,0,0,0,0,-1,1203,1086,0,0
-14,-62,0,0,0,0,0,0,0,0,0,-1,1210,1086,0,0
-7,-62,0,0,0,0,0,0,0,0,0,-1,1217,1086,0,0
0,-62,0,0,0,0,0,0,0,0,0,-1,1224,1086,0,0
7,-62,0,0,0,0,0,0,0,0,0,-1,1231,1086,0,0
14,-62,0,0,0,0,0,0,0,0,0,-1,1238,1086,0,0
21,-62,0,0,0,0,0,0,0,0,0,-1,1245,1086,0,0
28,-62,0,0,0,0,0,0,0,0,0,-1,1252,1086,0,0
35,-62,0,0,0,0,0,0,0,0,0,-1,1259,1086,0,0
42,-62,0,0,0,0,0,0,0,0,0,-1,1266,1086,0,0
49,-62,0,0,0,0,0,0,0,0,0,-1,1273,1086,0,0
56,-62,0,0,0,0,0,0,0,0,0,-1,1280,1086,0,0
63,-62,0,0,0,0,0,0,0,0,0,-1,1287,1086,0,0
70,-62,0,0,0,0,0,0,0,0,0,-1,1294,1086,0,0
77,-62,0,0,0,0,0,0,0,0,0,-1,1301,1086,0,0
84,-62,0,0,0,0,0,0,0,0,0,-1,1308,1086,0,0
91,-62,0,0,0,0,0,0,0,0,0,-1,1315,1086,0,0
98,-62,0,0,0,0,0,0,0,0,0,-1,1322,1086,0,0
105,-62,0,0,0,0,0,0,0,0,0,-1,1329,1086,0,0
112,-62,0,0,0,0,0,0,0,0,0,-1,1336,1086,0,0
119,-62,0,0,0,0,0,0,0,0,0,-1,1343,1086,0,0
126,-62,0,0,0,0,0,0,0,0,0,-1,1350,1086,0,0
133,-62,0,0,0,0,0,0,0,0,0,-1,1357,1086,0,0
140,-62,0,0,0,0,0,0,0,0,0,-1,1364,1086,0,0
147,-62,0,0,0,0,0,0,0,0,0,-1,1371,1086,0,0
154,-62,0,0,0,0,0,0,0,0,0,-1,1378,1086,0,0
161,-62,0,0,0,0,0,0,0,0,0,-1,1385,1086,0,0
168,-62,0,0,0,0,0,0,0,0,0,-1,1392,1086,0,0
175,-62,0,0,0,0,0,0,0,0,0,-1,1399,1086,0,0
182,-62,0,0,0,0,0,0,0,0,0,-1,1406,1086,0,0
189,-62,0,0,0,0,0,0,0,0,0,-1,1413,1086,0,0
196,-62,0,0,0,0,0,0,0,0,0,-1,1420,1086,0,0
203,-62,0,0,0,0,0,0,0,0,0,-1,1427,1086,0,0
210,-62,0,0,0,0,0,0,0,0,0,-1,1434,1086,0,0
217,-62,0,0,0,0,0,0,0,0,0,-1,1441,1086,0,0
224,-62,0,0,0,0,0,0,0,0,0,-1,1448,1086,0,0
231,-62,0,0,0,0,0,0,0,0,0,-1,1455,1086,0,0
238,-62,0,0,0,0,0,0,0,0,0,-1,1462,1086,0,0
245,-62,0,0,0,0,0,0,0,0,0,-1,1469,1086,0,0
252,-62,0,0,0,0,0,0,0,0,0,-1,1476,1086,0,0
259,-62,0,0,0,0,0,0,0,0,0,-1,1483,1086,0,0
266,-62,0,0,0,0,0,0,0,0,0,-1,1490,1086,0,0
273,-62,0,0,0,0,0,0,0,0,0,-1,1497,1086,0,0
280,-62,0,0,0,0,0,0,0,0,0,-1,1504,1086,0,0
287,-62,0,0,0,0,0,0,0,0,0,-1,1511,1086,0,0
294,-62,0,0,0,0,0,0,0,0,0,-1,1518,1086,0,0
301,-62,0,0,0,0,0,0,0,0,0,-1,1525,1086,0,0
308,-62,0,0,0,0,0,0,0,0,0,-1,1532,1086,0,0
315,-62,0,0,0,0,0,0,0,0,0,-1,1539,1086,0,0
322,-62,0,0,0,0,0,0,0,0,0,-1,1546,1086,0,0
329,-62,0,0,0,0,0,0,0,0,0,-1,1553,1086,0,0
336,-62,0,0,0,0,0,0,0,0,0,-1,1560,1086,0,0
343,-62,0,0,0,0,0,0,0,0,0,-1,1567,1086,0,0
350,-62,0,0,0,0,0,0,0,0,0,-1,1574,1086,0,0
357,-62,0,0,0,0,0,0,0,0,0,-1,1581,1086,0,0
364,-62,0,0,0,0,0,0,0,0,0,-1,1588,1086,0,0
371,-62,0,0,0,0,0,0,0,0,0,-1,1595,1086,0,0
378,-62,0,0,0,0,0,0,0,0,0,-1,1602,1086,0,0
385,-62,0,0,0,0,0,0,0,0,0,-1,1609,1086,0,0
392,-62,0,0,0,0,0,0,0,0,0,-1,1616,1086,0,0
399,-62,0,0,0,0,0,0,0,0,0,-1,1623,1086,0,0
406,-62,0,0,0,0,0,0,0,0,0,-1,1630,1086,0,0
413,-62,0,0,0,0,0,0,0,0,0,-1,1637,1086,0,0
420,-62,0,0,0,0,0,0,0,0,0,-1,1644,1086,0,0
427,-62,0,0,0,0,0,0,0,0,0,-1,1651,1086,0,0
434,-62,0,0,0,0,0,0,0,0,0,-1,1658,1086,0,0
441,-62,0,0,0,0,0,0,0,0,0,-1,1665,1086,0,0
448,-62,0,0,0,0,0,0,0,0,0,-1,1672,1086,0,0
455,-62,0,0,0,0,0,0,0,0,0,-1,1679,1086,0,0
462,-62,0,0,0,0,0,0,0,0,0,-1,1686,1086,0,0
469,-62,0,0,0,0,0,0,0,0,0,-1,1693,1086,0,0
476,-62,0,0,0,0,0,0,0,0,0,-1,1700,1086,0,0
483,-62,0,0,0,0,0,0,0,0,0,-1,1707,1086,0,0
490,-62,0,0,0,0,0,0,0,0,0,-1,1714,1086,0,0
497,-62,0,0,0,0,0,0,0,0,0,-1,1721,1086,0,0
504,-62,0,0,0,0,0,0,0,0,0,-1,1728,1086,0,0
511,-62,0,0,0,0,0,0,0,0,0,-1,1735,1086,0,0
518,-62,0,0,0,0,0,0,0,0,0,-1,1742,1086,0,0
525,-62,0,0,0,0,0,0,0,0,0,-1,1749,1086,0,0
532,-62,0,0,0,0,0,0,0,0,0,-1,1756,1086,0,0
539,-62,0,0,0,0,0,0,0,0,0,-1,1763,1086,0,0
546,-62,0,0,0,0,0,0,0,0,0,-1,1770,1086,0,0
553,-62,0,0,0,0,0,0,0,0,0,-1,1777,1086,0,0
560,-62,0,0,0,0,0,0,0,0,0,-1,1784,1086,0,0
567,-62,0,0,0,0,0,0,0,0,0,-1,1791,1086,0,0
574,-62,0,0,0,0,0,0,0,0,0,-1,1798,1086,0,0
581,-62,0,0,0,0,0,0,0,0,0,-1,1805,1086,0,0
588,-62,0,0,0,0,0,0,0,0,0,-1,1812,1086,0,0
595,-62,0,0,0,0,0,0,0,0,0,-1,1819,1086,0,0
602,-62,0,0,0,0,0,0,0,0,0,-1,1826,1086,0,0
609,-62,0,0,0,0,0,0,0,0,0,-1,1833,1086,0,0
616,-62,0,0,0,0,0,0,0,0,0,-1,1840,1086,0,0
623,-62,0,0,0,0,0,0,0,0,0,-1,1847,1086,0,0
630,-62,0,0,0,0,0,0,0,0,0,-1,1854,1086,0,0
637,-62,0,0,0,0,0,0,0,0,0,-1,1861,1086,0,0
644,-62,0,0,0,0,0,0,0,0,0,-1,1868,1086,0,0
651,-62,83.1021,2.33752,0.00140679,-0.0052744,0.000188828,0.00141212,-0.00527973,0.0282326,0.00407296,0.0402141,1875,1086,83.1021,-2.33749
658,-62,83.3197,2.38098,0.000697089,-0.00409937,-2.53197e-05,0.000697223,-0.0040995,-0.00527863,0.0029926,0.0427179,1882,1086,83.3197,-2.38098
665,-62,83.1681,2.58716,0.000257237,-0.00307273,-0.000211178,0.000270576,-0.00308607,-0.0630808,0.00215324,0.041037,1889,1086,83.1681,-2.58715
672,-62,83.0354,2.5614,-1.38548e-05,-0.00197928,-0.000386356,5.93661e-05,-0.0020525,-0.187295,0.00138854,0.0384792,1896,1086,83.0355,-2.56143
679,-62,83.1796,2.43848,-0.000158168,-0.000901288,-0.000558798,0.000141324,-0.00120078,-0.491999,0.000851547,0.0371544,1903,1086,83.1796,-2.43844
686,-62,83.1678,2.3761,-0.000406912,-0.000335282,-0.000594369,0.00022435,-0.000966544,-0.81549,0.000730718,0.0394582,1910,1086,83.1678,-2.37614
693,-62,83.0945,2.58167,-0.00059913,-0.000155731,-0.000398287,7.84026e-05,-0.000833263,-1.03936,0.000583402,0.0377461,1917,1086,83.0945,-2.58172
700,-62,83.2057,2.33862,-0.00071709,-5.39591e-05,-3.58919e-05,-5.20221e-05,-0.000719027,-1.51688,0.000462986,0.0310603,1924,1086,83.2057,-2.33856
707,-62,83.162,2.28711,-0.00123713,0.000176142,0.000387266,0.000275303,-0.00133629,1.32013,0.0009954,0.0209659,1931,1086,83.162,-2.28707
714,-62,83.1418,2.21704,-0.00193411,0.000673731,0.000852868,0.000927883,-0.00218826,1.28118,0.00184751,0.0362335,1938,1086,83.1418,-2.21699
721,-62,83.1156,2.0929,0,0,0,0,0,0,0,-1,1945,1086,83.1155,-2.09288
728,-62,80.9575,9.53577,0,0,0,0,0,0,0,-1,1952,1086,80.9575,-9.5358
735,-62,80.8673,8.92871,-0.00428313,0.00335643,0.00216527,0.00392745,-0.00485415,1.31295,0.00507946,0.0329225,1959,1086,80.8673,-8.92873
742,-62,80.7933,8.51172,-0.00429168,0.00456631,0.00254212,0.00524402,-0.00496939,1.31027,0.00589742,0.033748,1966,1086,80.7934,-8.51176
749,-62,80.7739,8.01038,-0.0047993,0.00614491,0.00280855,0.00682357,-0.00547796,1.3337,0.00711644,0.0256693,1973,1086,80.7739,-8.01037
756,-62,80.6255,7.57275,-0.00489427,0.00857995,0.00278039,0.00913113,-0.00544546,1.37509,0.008505,0.0169533,1980,1086,80.6255,-7.57275
763,-62,80.5452,7.04663,-0.00404153,0.0120666,0.00195913,0.0123014,-0.00427639,1.45149,0.009938,0.0214257,1987,1086,80.5451,-7.04663
770,-62,80.4629,6.50269,-0.0017661,0.0168773,0.000216387,0.0168798,-0.00176861,1.55919,0.0118867,0.0206348,1994,1086,80.4628,-6.50273
777,-62,80.2664,6.00037,0.00221535,0.0227331,-0.0025066,0.0230349,0.00191357,-1.45098,0.0147601,0.0200731,2001,1086,80.2663,-6.00036
784,-62,80.2644,5.48096,0.00754919,0.0289207,-0.00605965,0.0305193,0.00595062,-1.31287,0.0186813,0.0306697,2008,1086,80.2644,-5.48092
791,-62,80.8291,4.90784,0.0150559,0.0356452,-0.0110007,0.0404169,0.0102841,-1.16153,0.0242545,0.0458036,2015,1086,80.829,-4.90788
798,-62,81.2991,4.27954,0,0,0,0,0,0,0,-1,2022,1086,81.299,-4.27955
805,-62,82.085,4.94019,0.0410481,0.052,-0.0272523,0.074321,0.018727,-0.884545,0.0446343,0.0460856,2029,1086,82.0851,-4.94025
812,-62,82.5305,4.5835,0,0,0,0,0,0,0,-1,2036,1086,82.5304,-4.58354
-700,-69,-68.38,-3.27625,0,0,0,0,0,0,0,-1,524,1093,-68.38,3.27631
-693,-69,-56.2511,-1.19788,0,0,0,0,0,0,0,-1,531,1093,-56.2511,1.1979
-686,-69,-57.0297,0.438599,0,0,0,0,0,0,0,-1,538,1093,-57.0297,-0.438646
-679,-69,-57.7169,1.3551,-0.0747516,-0.0185833,0.0763849,0.0347166,-0.128052,0.961561,0.0989904,0.0496626,545,1093,-57.7169,-1.35511
-672,-69,-58.2984,2.3291,-0.063466,-0.00894807,0.063725,0.0331033,-0.105517,0.987501,0.0835935,0.0481226,552,1093,-58.2984,-2.32908
-665,-69,-58.6425,3.45068,0,0,0,0,0,0,0,-1,559,1093,-58.6425,-3.45063
-658,-69,-63.5455,1.05615,0,0,0,0,0,0,0,-1,566,1093,-63.5455,-1.05613
-651,-69,-61.4142,4.71887,0,0,0,0,0,0,0,-1,573,1093,-61.4142,-4.71888
-644,-69,-63.9832,5.66553,0,0,0,0,0,0,0,-1,580,1093,-63.9832,-5.66548
-637,-69,-63.9656,6.24316,-0.0176684,0.00835123,0.0123081,0.0132507,-0.0225679,1.19195,0.0209118,0.0210004,587,1093,-63.9656,-6.24321
-630,-69,-64.0424,6.75,-0.0109739,0.00810247,0.00567403,0.00966255,-0.012534,1.30247,0.0128509,0.0181698,594,1093,-64.0424,-6.74995
-623,-69,-64.0248,7.30127,-0.00600219,0.00558732,0.000669159,0.00562583,-0.0060407,1.51331,0.00673709,0.0225169,601,1093,-64.0249,-7.30123
-616,-69,-64.0421,7.84839,-0.0026396,0.00329667,-0.00222365,0.00403724,-0.00338017,-1.24931,0.00428804,0.0275327,608,1093,-64.042,-7.84843
-609,-69,-64.0969,8.32715,-0.00104061,0.000893123,-0.00239295,0.00250716,-0.00265464,-0.977393,0.00298057,0.0228838,615,1093,-64.0969,-8.32712
-602,-69,-64.0352,8.86401,-0.000241855,-0.000453076,-0.00220017,0.00185524,-0.00255017,-0.761416,0.00255399,0.0220972,622,1093,-64.0352,-8.86402
-595,-69,-63.9332,9.25977,0.000266629,-0.0014601,-0.00206066,0.00163748,-0.00283095,-0.58702,0.00261034,0.0462205,629,1093,-63.9332,-9.25981
-588,-69,-64.0298,9.53003,0,0,0,0,0,0,0,-1,636,1093,-64.0298,-9.53007
-581,-69,-66.1153,0.55542,0,0,0,0,0,0,0,-1,643,1093,-66.1153,-0.555366
-574,-69,-66.1423,0.459106,0.000693225,-0.00274664,-0.00104416,0.000985363,-0.00303878,-0.272809,0.00242207,0.0308527,650,1093,-66.1423,-0.459086
-567,-69,-66.0501,0.431763,0.000384044,-0.00251024,-0.000633942,0.000516808,-0.002643,-0.206442,0.00195715,0.0383257,657,1093,-66.0501,-0.431823
-560,-69,-66.089,0.613037,-0.000349913,-0.00185283,-0.000207452,-0.000321803,-0.00188094,-0.134678,0.00116165,0.0403058,664,1093,-66.089,-0.61303
-553,-69,-66.0948,0.658813,-0.00159478,-0.000861537,0.000221367,-0.000799889,-0.00165643,1.29919,0.000956527,0.0388053,671,1093,-66.0948,-0.658831
-546,-69,-66.1423,0.487427,-0.00315302,0.000220961,0.000542299,0.000305982,-0.00323804,1.41528,0.00226758,0.0364147,678,1093,-66.1423,-0.487469
-539,-69,-66.1908,0.493042,-0.00484644,0.000787201,0.000485687,0.000828766,-0.004888,1.48542,0.00356716,0.0386404,685,1093,-66.1908,-0.493028
-532,-69,-66.0236,0.600464,-0.0065943,0.00141702,0.000444889,0.00144165,-0.00661893,1.51549,0.00496346,0.0419762,692,1093,-66.0236,-0.600522
-525,-69,0,0,0,0,0,0,0,0,0,-1,699,1093,0,0
-518,-69,0,0,0,0,0,0,0,0,0,-1,706,1093,0,0
-511,-69,0,0,0,0,0,0,0,0,0,-1,713,1093,0,0
-504,-69,0,0,0,0,0,0,0,0,0,-1,720,1093,0,0
-497,-69,0,0,0,0,0,0,0,0,0,-1,727,1093,0,0
-490,-69,0,0,0,0,0,0,0,0,0,-1,734,1093,0,0
-483,-69,0,0,0,0,0,0,0,0,0,-1,741,1093,0,0
-476,-69,0,0,0,0,0,0,0,0,0,-1,748,1093,0,0
-469,-69,0,0,0,0,0,0,0,0,0,-1,755,1093,0,0
-462,-69,0,0,0,0,0,0,0,0,0,-1,762,1093,0,0
-455,-69,0,0,0,0,0,0,0,0,0,-1,769,1093,0,0
-448,-69,0,0,0,0,0,0,0,0,0,-1,776,1093,0,0
-441,-69,0,0,0,0,0,0,0,0,0,-1,783,1093,0,0
-434,-69,0,0,0,0,0,0,0,0,0,-1,790,1093,0,0
-427,-69,0,0,0,0,0,0,0,0,0,-1,797,1093,0,0
-420,-69,0,0,0,0,0,0,0,0,0,-1,804,1093,0,0
-413,-69,0,0,0,0,0,0,0,0,0,-1,811,1093,0,0
-406,-69,0,0,0,0,0,0,0,0,0,-1,818,1093,0,0
-399,-69,0,0,0,0,0,0,0,0,0,-1,825,1093,0,0
-392,-69,0,0,0,0,0,0,0,0,0,-1,832,1093,0,0
-385,-69,0,0,0,0,0,0,0,0,0,-1,839,1093,0,0
-378,-69,0,0,0,0,0,0,0,0,0,-1,846,1093,0,0
-371,-69,0,0,0,0,0,0,0,0,0,-1,853,1093,0,0
-364,-69,0,0,0,0,0,0,0,0,0,-1,860,1093,0,0
-357,-69,0,0,0,0,0,0,0,0,0,-1,867,1093,0,0
-350,-69,0,0,0,0,0,0,0,0,0,-1,874,1093,0,0
-343,-69,0,0,0,0,0,0,0,0,0,-1,881,1093,0,0
-336,-69,0,0,0,0,0,0,0,0,0,-1,888,1093,0,0
-329,-69,0,0,0,0,0,0,0,0,0,-1,895,1093,0,0
-322,-69,0,0,0,0,0,0,0,0,0,-1,902,1093,0,0
-315,-69,0,0,0,0,0,0,0,0,0,-1,909,1093,0,0
-308,-69,0,0,0,0,0,0,0,0,0,-1,916,1093,0,0
-301,-69,0,0,0,0,0,0,0,0,0,-1,923,1093,0,0
-294,-69,0,0,0,0,0,0,0,0,0,-1,930,1093,0,0
-287,-69,0,0,0,0,0,0,0,0,0,-1,937,1093,0,0
-280,-69,0,0,0,0,0,0,0,0,0,-1,944,1093,0,0
-273,-69,0,0,0,0,0,0,0,0,0,-1,951,1093,0,0
-266,-69,0,0,0,0,0,0,0,0,0,-1,958,1093,0,0
-259,-69,0,0,0,0,0,0,0,0,0,-1,965,1093,0,0
-252,-69,0,0,0,0,0,0,0,0,0,-1,972,1093,0,0
-245,-69,0,0,0,0,0,0,0,0,0,-1,979,1093,0,0
-238,-69,0,0,0,0,0,0,0,0,0,-1,986,1093,0,0
-231,-69,0,0,0,0,0,0,0,0,0,-1,993,1093,0,0
-224,-69,0,0,0,0,0,0,0,0,0,-1,1000,1093,0,0
-217,-69,0,0,0,0,0,0,0,0,0,-1,1007,1093,0,0
-210,-69,0,0,0,0,0,0,0,0,0,-1,1014,1093,0,0
-203,-69,0,0,0,0,0,0,0,0,0,-1,1021,1093,0,0
-196,-69,0,0,0,0,0,0,0,0,0,-1,1028,1093,0,0
-189,-69,0,0,0,0,0,0,0,0,0,-1,1035,1093,0,0
-182,-69,0,0,0,0,0,0,0,0,0,-1,1042,1093,0,0
-175,-69,0,0,0,0,0,0,0,0,0,-1,1049,1093,0,0
-168,-69,0,0,0,0,0,0,0,0,0,-1,1056,1093,0,0
-161,-69,0,0,0,0,0,0,0,0,0,-1,1063,1093,0,0
-154,-69,0,0,0,0,0,0,0,0,0,-1,1070,1093,0,0
-147,-69,0,0,0,0,0,0,0,0,0,-1,1077,1093,0,0
-140,-69,0,0,0,0,0,0,0,0,0,-1,1084,1093,0,0
-133,-69,0,0,0,0,0,0,0,0,0,-1,1091,1093,0,0
-126,-69,0,0,0,0,0,0,0,0,0,-1,1098,1093,0,0
-119,-69,0,0,0,0,0,0,0,0,0,-1,1105,1093,0,0
-112,-69,0,0,0,0,0,0,0,0,0,-1,1112,1093,0,0
-105,-69,0,0,0,0,0,0,0,0,0,-1,1119,1093,0,0
-98,-69,0,0,0,0,0,0,0,0,0,-1,1126,1093,0,0
-91,-69,0,0,0,0,0,0,0,0,0,-1,1133,1093,0,0
-84,-69,0,0,0,0,0,0,0,0,0,-1,1140,1093,0,0
-77,-69,0,0,0,0,0,0,0,0,0,-1,1147,1093,0,0
-70,-69,0,0,0,0,0,0,0,0,0,-1,1154,1093,0,0
-63,-69,0,0,0,0,0,0,0,0,0,-1,1161,1093,0,0
-56,-69,0,0,0,0,0,0,0,0,0,-1,1168,1093,0,0
-49,-69,0,0,0,0,0,0,0,0,0,-1,1175,1093,0,0
-42,-69,0,0,0,0,0,0,0,0,0,-1,1182,1093,0,0
-35,-69,0,0,0,0,0,0,0,0,0,-1,1189,1093,0,0
-28,-69,0,0,0,0,0,0,0,0,0,-1,1196,1093,0,0
-21,-69,0,0,0,0,0,0,0,0,0,-1,1203,1093,0,0
-14,-69,0,0,0,0,0,0,0,0,0,-1,1210,1093,0,0
-7,-69,0,0,0,0,0,0,0,0,0,-1,1217,1093,0,0
0,-69,0,0,0,0,0,0,0,0,0,-1,1224,1093,0,0
7,-69,0,0,0,0,0,0,0,0,0,-1,1231,1093,0,0
14,-69,0,0,0,0,0,0,0,0,0,-1,1238,1093,0,0
21,-69,0,0,0,0,0,0,0,0,0,-1,1245,1093,0,0
28,-69,0,0,0,0,0,0,0,0,0,-1,1252,1093,0,0
35,-69,0,0,0,0,0,0,0,0,0,-1,1259,1093,0,0
42,-69,0,0,0,0,0,0,0,0,0,-1,1266,1093,0,0
49,-69,0,0,0,0,0,0,0,0,0,-1,1273,1093,0,0
56,-69,0,0,0,0,0,0,0,0,0,-1,1280,1093,0,0
63,-69,0,0,0,0,0,0,0,0,0,-1,1287,1093,0,0
70,-69,0,0,0,0,0,0,0,0,0,-1,1294,1093,0,0
77,-69,0,0,0,0,0,0,0,0,0,-1,1301,1093,0,0
84,-69,0,0,0,0,0,0,0,0,0,-1,1308,1093,0,0
91,-69,0,0,0,0,0,0,0,0,0,-1,1315,1093,0,0
98,-69,0,0,0,0,0,0,0,0,0,-1,1322,1093,0,0
105,-69,0,0,0,0,0,0,0,0,0,-1,1329,1093,0,0
112,-69,0,0,0,0,0,0,0,0,0,-1,1336,1093,0,0
119,-69,0,0,0,0,0,0,0,0,0,-1,1343,1093,0,0
126,-69,0,0,0,0,0,0,0,0,0,-1,1350,1093,0,0
133,-69,0,0,0,0,0,0,0,0,0,-1,1357,1093,0,0
140,-69,0,0,0,0,0,0,0,0,0,-1,1364,1093,0,0
147,-69,0,0,0,0,0,0,0,0,0,-1,1371,1093,0,0
154,-69,0,0,0,0,0,0,0,0,0,-1,1378,1093,0,0
161,-69,0,0,0,0,0,0,0,0,0,-1,1385,1093,0,0
168,-69,0,0,0,0,0,0,0,0,0,-1,1392,1093,0,0
175,-69,0,0,0,0,0,0,0,0,0,-1,1399,1093,0,0
182,-69,0,0,0,0,0,0,0,0,0,-1,1406,1093,0,0
189,-69,0,0,0,0,0,0,0,0,0,-1,1413,1093,0,0
196,-69,0,0,0,0,0,0,0,0,0,-1,1420,1093,0,0
203,-69,0,0,0,0,0,0,0,0,0,-1,1427,1093,0,0
210,-69,0,0,0,0,0,0,0,0,0,-1,1434,1093,0,0
217,-69,0,0,0,0,0,0,0,0,0,-1,1441,1093,0,0
224,-69,0,0,0,0,0,0,0,0,0,-1,1448,1093,0,0
231,-69,0,0,0,0,0,0,0,0,0,-1,1455,1093,0,0
238,-69,0,0,0,0,0,0,0,0,0,-1,1462,1093,0,0
245,-69,0,0,0,0,0,0,0,0,0,-1,1469,1093,0,0
252,-69,0,0,0,0,0,0,0,0,0,-1,1476,1093,0,0
259,-69,0,0,0,0,0,0,0,0,0,-1,1483,1093,0,0
266,-69,0,0,0,0,0,0,0,0,0,-1,1490,1093,0,0
273,-69,0,0,0,0,0,0,0,0,0,-1,1497,1093,0,0
280,-69,0,0,0,0,0,0,0,0,0,-1,1504,1093,0,0
287,-69,0,0,0,0,0,0,0,0,0,-1,1511,1093,0,0
294,-69,0,0,0,0,0,0,0,0,0,-1,1518,1093,0,0
301,-69,0,0,0,0,0,0,0,0,0,-1,1525,1093,0,0
308,-69,0,0,0,0,0,0,0,0,0,-1,1532,1093,0,0
315,-69,0,0,0,0,0,0,0,0,0,-1,1539,1093,0,0
322,-69,0,0,0,0,0,0,0,0,0,-1,1546,1093,0,0
329,-69,0,0,0,0,0,0,0,0,0,-1,1553,1093,0,0
336,-69,0,0,0,0,0,0,0,0,0,-1,1560,1093,0,0
343,-69,0,0,0,0,0,0,0,0,0,-1,1567,1093,0,0
350,-69,0,0,0,0,0,0,0,0,0,-1,1574,1093,0,0
357,-69,0,0,0,0,0,0,0,0,0,-1,1581,1093,0,0
364,-69,0,0,0,0,0,0,0,0,0,-1,1588,1093,0,0
371,-69,0,0,0,0,0,0,0,0,0,-1,1595,1093,0,0
378,-69,0,0,0,0,0,0,0,0,0,-1,1602,1093,0,0
385,-69,0,0,0,0,0,0,0,0,0,-1,1609,1093,0,0
392,-69,0,0,0,0,0,0,0,0,0,-1,1616,1093,0,0
399,-69,0,0,0,0,0,0,0,0,0,-1,1623,1093,0,0
406,-69,0,0,0,0,0,0,0,0,0,-1,1630,1093,0,0
413,-69,0,0,0,0,0,0,0,0,0,-1,1637,1093,0,0
420,-69,0,0,0,0,0,0,0,0,0,-1,1644,1093,0,0
427,-69,0,0,0,0,0,0,0,0,0,-1,1651,1093,0,0
434,-69,0,0,0,0,0,0,0,0,0,-1,1658,1093,0,0
441,-69,0,0,0,0,0,0,0,0,0,-1,1665,1093,0,0
448,-69,0,0,0,0,0,0,0,0,0,-1,1672,1093,0,0
455,-69,0,0,0,0,0,0,0,0,0,-1,1679,1093,0,0
462,-69,0,0,0,0,0,0,0,0,0,-1,1686,1093,0,0
469,-69,0,0,0,0,0,0,0,0,0,-1,1693,1093,0,0
476,-69,0,0,0,0,0,0,0,0,0,-1,1700,1093,0,0
483,-69,0,0,0,0,0,0,0,0,0,-1,1707,1093,0,0
490,-69,0,0,0,0,0,0,0,0,0,-1,1714,1093,0,0
497,-69,0,0,0,0,0,0,0,0,0,-1,1721,1093,0,0
504,-69,0,0,0,0,0,0,0,0,0,-1,1728,1093,0,0
511,-69,0,0,0,0,0,0,0,0,0,-1,1735,1093,0,0
518,-69,0,0,0,0,0,0,0,0,0,-1,1742,1093,0,0
525,-69,0,0,0,0,0,0,0,0,0,-1,1749,1093,0,0
532,-69,0,0,0,0,0,0,0,0,0,-1,1756,1093,0,0
539,-69,0,0,0,0,0,0,0,0,0,-1,1763,1093,0,0
546,-69,0,0,0,0,0,0,0,0,0,-1,1770,1093,0,0
553,-69,0,0,0,0,0,0,0,0,0,-1,1777,1093,0,0
560,-69,0,0,0,0,0,0,0,0,0,-1,1784,1093,0,0
567,-69,0,0,0,0,0,0,0,0,0,-1,1791,1093,0,0
574,-69,0,0,0,0,0,0,0,0,0,-1,1798,1093,0,0
581,-69,0,0,0,0,0,0,0,0,0,-1,1805,1093,0,0
588,-69,0,0,0,0,0,0,0,0,0,-1,1812,1093,0,0
595,-69,0,0,0,0,0,0,0,0,0,-1,1819,1093,0,0
602,-69,0,0,0,0,0,0,0,0,0,-1,1826,1093,0,0
609,-69,0,0,0,0,0,0,0,0,0,-1,1833,1093,0,0
616,-69,0,0,0,0,0,0,0,0,0,-1,1840,1093,0,0
623,-69,0,0,0,0,0,0,0,0,0,-1,1847,1093,0,0
630,-69,0,0,0,0,0,0,0,0,0,-1,1854,1093,0,0
637,-69,0,0,0,0,0,0,0,0,0,-1,1861,1093,0,0
644,-69,0,0,0,0,0,0,0,0,0,-1,1868,1093,0,0
651,-69,82.9762,2.25671,0,0,0,0,0,0,0,-1,1875,1093,82.9762,-2.25676
658,-69,83.0121,1.76038,0,0,0,0,0,0,0,-1,1882,1093,83.0121,-1.76037
665,-69,83.2542,2.74646,0.000623044,-0.00342575,-0.00103444,0.000872028,-0.00367473,-0.2362,0.00278636,0.0435103,1889,1093,83.2541,-2.74648
672,-69,83.0028,2.52576,0.000293858,-0.00226355,-0.000998436,0.000637485,-0.00260718,-0.331467,0.00198503,0.0395686,1896,1093,83.0027,-2.52577
679,-69,83.1448,2.49988,8.12228e-05,-0.00113154,-0.00100888,0.000651931,-0.00170225,-0.514805,0.00140355,0.0385996,1903,1093,83.1447,-2.49992
686,-69,83.181,2.58337,-0.000216129,-0.000535514,-0.000971946,0.000609157,-0.0013608,-0.703975,0.00116462,0.0390187,1910,1093,83.181,-2.58342
693,-69,83.1096,2.5061,-0.000421203,-0.000351548,-0.00073511,0.000349559,-0.00112231,-0.809069,0.000887965,0.0370814,1917,1093,83.1096,-2.50605
700,-69,83.1296,2.26294,-0.000515082,-0.000233567,-0.000354343,6.95125e-06,-0.000755601,-0.974458,0.000506067,0.0304936,1924,1093,83.1297,-2.26297
707,-69,83.1241,2.22485,-0.000991524,1.18881e-05,9.80761e-05,2.13844e-05,-0.00100102,1.47427,0.000674588,0.0223289,1931,1093,83.1241,-2.2248
714,-69,83.1051,2.09229,-0.00164916,0.00051662,0.000590781,0.000667291,-0.00179983,1.32108,0.00147357,0.0370123,1938,1093,83.1051,-2.09234
721,-69,83.0684,1.88123,0,0,0,0,0,0,0,-1,1945,1093,83.0684,-1.88117
728,-69,79.9426,9.70557,0,0,0,0,0,0,0,-1,1952,1093,79.9426,-9.70557
735,-69,80.2001,9.13525,-0.00372882,0.0029606,0.0019086,0.00346684,-0.00423506,1.31152,0.00445406,0.0473212,1959,1093,80.2001,-9.1353
742,-69,80.158,8.69592,-0.00365704,0.00406846,0.00238644,0.00474618,-0.00433476,1.29409,0.00524468,0.0353445,1966,1093,80.1579,-8.69587
749,-69,79.9512,8.09851,-0.00411539,0.00542466,0.00292439,0.00624974,-0.00494047,1.29581,0.0064754,0.0377055,1973,1093,79.9513,-8.09857
756,-69,80.0266,7.54993,-0.00423645,0.0076648,0.00324734,0.0084932,-0.00506485,1.32102,0.00791072,0.0188387,1980,1093,80.0267,-7.54989
763,-69,79.981,6.98804,-0.0035218,0.0109438,0.00299102,0.0115378,-0.00411585,1.37474,0.00937017,0.022582,1987,1093,79.9808,-6.988
770,-69,79.8425,6.48413,-0.00151155,0.0154304,0.00210801,0.0156888,-0.0017699,1.44885,0.0110963,0.0258577,1994,1093,79.8425,-6.48416
777,-69,79.645,6.06335,0.00187258,0.0207456,0.00061554,0.0207656,0.00185252,1.53823,0.0132694,0.0308708,2001,1093,79.645,-6.06341
784,-69,79.7041,5.51978,0.0064335,0.0263871,-0.00144639,0.0264914,0.0063292,-1.49881,0.0159748,0.0345452,2008,1093,79.704,-5.5198
791,-69,80.3164,4.89478,0.0129459,0.0325814,-0.00453575,0.0335785,0.0119488,-1.3544,0.0196533,0.043996,2015,1093,80.3165,-4.8948
798,-69,81.1206,4.51599,0,0,0,0,0,0,0,-1,2022,1093,81.1206,-4.51597
805,-69,81.9954,4.16528,0,0,0,0,0,0,0,-1,2029,1093,81.9953,-4.16523
812,-69,82.8193,3.79761,0,0,0,0,0,0,0,-1,2036,1093,82.8192,-3.79761
-700,-76,0,0,0,0,0,0,0,0,0,-1,524,1100,0,0
-693,-76,-56.7829,-1.59424,0,0,0,0,0,0,0,-1,531,1100,-56.7829,1.59428
-686,-76,-57.3276,-0.277832,-0.0887369,-0.0361551,0.0878382,0.0292424,-0.154134,0.93081,0.113763,0.0482491,538,1100,-57.3276,0.277878
-679,-76,-58.068,1.13123,-0.0773945,-0.0220644,0.0762919,0.0314235,-0.130882,0.959335,0.0993992,0.0491562,545,1100,-58.068,-1.13122
-672,-76,-58.6408,2.38684,-0.0659311,-0.0120267,0.0640199,0.0304831,-0.108441,0.984636,0.0843123,0.0477777,552,1100,-58.6408,-2.3869
-665,-76,-59.0994,3.59668,0,0,0,0,0,0,0,-1,559,1100,-59.0994,-3.59666
-658,-76,-63.4695,0.890137,0,0,0,0,0,0,0,-1,566,1100,-63.4695,-0.890184
-651,-76,-60.5158,4.98511,0,0,0,0,0,0,0,-1,573,1100,-60.5158,-4.98512
-644,-76,-63.2104,5.56519,0,0,0,0,0,0,0,-1,580,1100,-63.2104,-5.56518
-637,-76,-63.2928,6.14465,-0.019096,0.00677773,0.0129729,0.0121619,-0.0244801,1.1774,0.0215501,0.0253235,587,1100,-63.2928,-6.14461
-630,-76,-63.3636,6.68774,-0.0120768,0.00695854,0.00602083,0.00870304,-0.0138213,1.28877,0.0131158,0.0177696,594,1100,-63.3636,-6.68769
-623,-76,-63.4023,7.24219,-0.00690058,0.00478936,0.000841311,0.0048496,-0.00696082,1.49932,0.00685497,0.0243068,601,1100,-63.4023,-7.24214
-616,-76,-63.457,7.86694,-0.00347655,0.00275527,-0.00206481,0.00337732,-0.00409859,-1.27818,0.00432291,0.0252012,608,1100,-63.457,-7.86694
-609,-76,-63.4888,8.39697,-0.00184148,0.00067514,-0.00221694,0.00196598,-0.00313231,-1.04352,0.00296906,0.0225059,615,1100,-63.4888,-8.39695
-602,-76,-63.4128,8.98865,-0.00112204,-0.000432277,-0.00194043,0.00119368,-0.002748,-0.873347,0.00233396,0.022117,622,1100,-63.4128,-8.98871
-595,-76,-63.428,9.44653,-0.000610228,-0.00122126,-0.00176724,0.000877714,-0.0027092,-0.699806,0.00215902,0.0409873,629,1100,-63.428,-9.44648
-588,-76,-63.5827,9.78259,0,0,0,0,0,0,0,-1,636,1100,-63.5827,-9.78254
-581,-76,-66.1363,0.513306,0,0,0,0,0,0,0,-1,643,1100,-66.1363,-0.513254
-574,-76,-66.1332,0.447754,0.000160596,-0.00240696,-0.000759404,0.000368387,-0.00261475,-0.267087,0.00187805,0.0347913,650,1100,-66.1332,-0.44774
-567,-76,-65.8667,0.526733,7.44702e-05,-0.00221919,-0.000386553,0.000137864,-0.00228258,-0.162551,0.0015697,0.0410499,657,1100,-65.8667,-0.526698
-560,-76,-65.8911,0.666748,-0.000405532,-0.00162191,-1.99085e-05,-0.000405206,-0.00162224,-0.0163612,0.000974907,0.0457502,664,1100,-65.8911,-0.666735
-553,-76,-65.9056,0.526978,-0.00146123,-0.000644002,0.000294262,-0.000549073,-0.00155616,1.25874,0.000911326,0.0452354,671,1100,-65.9056,-0.527028
-546,-76,-66.0631,0.416504,-0.00280996,0.000483846,0.00048673,0.000554266,-0.00288038,1.42712,0.00212919,0.0416903,678,1100,-66.0631,-0.416553
-539,-76,-66.2773,0.529175,-0.00418419,0.00116204,0.000281765,0.00117685,-0.004199,1.51829,0.00326314,0.0418426,685,1100,-66.2774,-0.529154
-532,-76,-66.1642,0.723022,-0.00557298,0.00188394,0.000100794,0.0018853,-0.00557434,1.55728,0.00447893,0.0446404,692,1100,-66.1642,-0.72297
-525,-76,0,0,0,0,0,0,0,0,0,-1,699,1100,0,0
-518,-76,0,0,0,0,0,0,0,0,0,-1,706,1100,0,0
-511,-76,0,0,0,0,0,0,0,0,0,-1,713,1100,0,0
-504,-76,0,0,0,0,0,0,0,0,0,-1,720,1100,0,0
-497,-76,0,0,0,0,0,0,0,0,0,-1,727,1100,0,0
-490,-76,0,0,0,0,0,0,0,0,0,-1,734,1100,0,0
-483,-76,0,0,0,0,0,0,0,0,0,-1,741,1100,0,0
-476,-76,0,0,0,0,0,0,0,0,0,-1,748,1100,0,0
-469,-76,0,0,0,0,0,0,0,0,0,-1,755,1100,0,0
-462,-76,0,0,0,0,0,0,0,0,0,-1,762,1100,0,0
-455,-76,0,0,0,0,0,0,0,0,0,-1,769,1100,0,0
-448,-76,0,0,0,0,0,0,0,0,0,-1,776,1100,0,0
-441,-76,0,0,0,0,0,0,0,0,0,-1,783,1100,0,0
-434,-76,0,0,0,0,0,0,0,0,0,-1,790,1100,0,0
-427,-76,0,0,0,0,0,0,0,0,0,-1,797,1100,0,0
-420,-76,0,0,0,0,0,0,0,0,0,-1,804,1100,0,0
-413,-76,0,0,0,0,0,0,0,0,0,-1,811,1100,0,0
-406,-76,0,0,0,0,0,0,0,0,0,-1,818,1100,0,0
-399,-76,0,0,0,0,0,0,0,0,0,-1,825,1100,0,0
-392,-76,0,0,0,0,0,0,0,0,0,-1,832,1100,0,0
-385,-76,0,0,0,0,0,0,0,0,0,-1,839,1100,0,0
-378,-76,0,0,0,0,0,0,0,0,0,-1,846,1100,0,0
-371,-76,0,0,0,0,0,0,0,0,0,-1,853,1100,0,0
-364,-76,0,0,0,0,0,0,0,0,0,-1,860,1100,0,0
-357,-76,0,0,0,0,0,0,0,0,0,-1,867,1100,0,0
-350,-76,0,0,0,0,0,0,0,0,0,-1,874,1100,0,0
-343,-76,0,0,0,0,0,0,0,0,0,-1,881,1100,0,0
-336,-76,0,0,0,0,0,0,0,0,0,-1,888,1100,0,0
-329,-76,0,0,0,0,0,0,0,0,0,-1,895,1100,0,0
-322,-76,0,0,0,0,0,0,0,0,0,-1,902,1100,0,0
-315,-76,0,0,0,0,0,0,0,0,0,-1,909,1100,0,0
-308,-76,0,0,0,0,0,0,0,0,0,-1,916,1100,0,0
-301,-76,0,0,0,0,0,0,0,0,0,-1,923,1100,0,0
-294,-76,0,0,0,0,0,0,0,0,0,-1,930,1100,0,0
-287,-76,0,0,0,0,0,0,0,0,0,-1,937,1100,0,0
-280,-76,0,0,0,0,0,0,0,0,0,-1,944,1100,0,0
-273,-76,0,0,0,0,0,0,0,0,0,-1,951,1100,0,0
-266,-76,0,0,0,0,0,0,0,0,0,-1,958,1100,0,0
-259,-76,0,0,0,0,0,0,0,0,0,-1,965,1100,0,0
-252,-76,0,0,0,0,0,0,0,0,0,-1,972,1100,0,0
-245,-76,0,0,0,0,0,0,0,0,0,-1,979,1100,0,0
-238,-76,0,0,0,0,0,0,0,0,0,-1,986,1100,0,0
-231,-76,0,0,0,0,0,0,0,0,0,-1,993,1100,0,0
-224,-76,0,0,0,0,0,0,0,0,0,-1,1000,1100,0,0
-217,-76,0,0,0,0,0,0,0,0,0,-1,1007,1100,0,0
-210,-76,0,0,0,0,0,0,0,0,0,-1,1014,1100,0,0
-203,-76,0,0,0,0,0,0,0,0,0,-1,1021,1100,0,0
-196,-76,0,0,0,0,0,0,0,0,0,-1,1028,1100,0,0
-189,-76,0,0,0,0,0,0,0,0,0,-1,1035,1100,0,0
-182,-76,0,0,0,0,0,0,0,0,0,-1,1042,1100,0,0
-175,-76,0,0,0,0,0,0,0,0,0,-1,1049,1100,0,0
-168,-76,0,0,0,0,0,0,0,0,0,-1,1056,1100,0,0
-161,-76,0,0,0,0,0,0,0,0,0,-1,1063,1100,0,0
-154,-76,0,0,0,0,0,0,0,0,0,-1,1070,1100,0,0
-147,-76,0,0,0,0,0,0,0,0,0,-1,1077,1100,0,0
-140,-76,0,0,0,0,0,0,0,0,0,-1,1084,1100,0,0
-133,-76,0,0,0,0,0,0,0,0,0,-1,1091,1100,0,0
-126,-76,0,0,0,0,0,0,0,0,0,-1,1098,1100,0,0
-119,-76,0,0,0,0,0,0,0,0,0,-1,1105,1100,0,0
-112,-76,0,0,0,0,0,0,0,0,0,-1,1112,1100,0,0
-105,-76,0,0,0,0,0,0,0,0,0,-1,1119,1100,0,0
-98,-76,0,0,0,0,0,0,0,0,0,-1,1126,1100,0,0
-91,-76,0,0,0,0,0,0,0,0,0,-1,1133,1100,0,0
-84,-76,0,0,0,0,0,0,0,0,0,-1,1140,1100,0,0
-77,-76,0,0,0,0,0,0,0,0,0,-1,1147,1100,0,0
-70,-76,0,0,0,0,0,0,0,0,0,-1,1154,1100,0,0
-63,-76,0,0,0,0,0,0,0,0,0,-1,1161,1100,0,0
-56,-76,0,0,0,0,0,0,0,0,0,-1,1168,1100,0,0
-49,-76,0,0,0,0,0,0,0,0,0,-1,1175,1100,0,0
-42,-76,0,0,0,0,0,0,0,0,0,-1,1182,1100,0,0
-35,-76,0,0,0,0,0,0,0,0,0,-1,1189,1100,0,0
-28,-76,0,0,0,0,0,0,0,0,0,-1,1196,1100,0,0
-21,-76,0,0,0,0,0,0,0,0,0,-1,1203,1100,0,0
-14,-76,0,0,0,0,0,0,0,0,0,-1,1210,1100,0,0
-7,-76,0,0,0,0,0,0,0,0,0,-1,1217,1100,0,0
0,-76,0,0,0,0,0,0,0,0,0,-1,1224,1100,0,0
7,-76,0,0,0,0,0,0,0,0,0,-1,1231,1100,0,0
14,-76,0,0,0,0,0,0,0,0,0,-1,1238,1100,0,0
21,-76,0,0,0,0,0,0,0,0,0,-1,1245,1100,0,0
28,-76,0,0,0,0,0,0,0,0,0,-1,1252,1100,0,0
35,-76,0,0,0,0,0,0,0,0,0,-1,1259,1100,0,0
42,-76,0,0,0,0,0,0,0,0,0,-1,1266,1100,0,0
49,-76,0,0,0,0,0,0,0,0,0,-1,1273,1100,0,0
56,-76,0,0,0,0,0,0,0,0,0,-1,1280,1100,0,0
63,-76,0,0,0,0,0,0,0,0,0,-1,1287,1100,0,0
70,-76,0,0,0,0,0,0,0,0,0,-1,1294,1100,0,0
77,-76,0,0,0,0,0,0,0,0,0,-1,1301,1100,0,0
84,-76,0,0,0,0,0,0,0,0,0,-1,1308,1100,0,0
91,-76,0,0,0,0,0,0,0,0,0,-1,1315,1100,0,0
98,-76,0,0,0,0,0,0,0,0,0,-1,1322,1100,0,0
105,-76,0,0,0,0,0,0,0,0,0,-1,1329,1100,0,0
112,-76,0,0,0,0,0,0,0,0,0,-1,1336,1100,0,0
119,-76,0,0,0,0,0,0,0,0,0,-1,1343,1100,0,0
126,-76,0,0,0,0,0,0,0,0,0,-1,1350,1100,0,0
133,-76,0,0,0,0,0,0,0,0,0,-1,1357,1100,0,0
140,-76,0,0,0,0,0,0,0,0,0,-1,1364,1100,0,0
147,-76,0,0,0,0,0,0,0,0,0,-1,1371,1100,0,0
154,-76,0,0,0,0,0,0,0,0,0,-1,1378,1100,0,0
161,-76,0,0,0,0,0,0,0,0,0,-1,1385,1100,0,0
168,-76,0,0,0,0,0,0,0,0,0,-1,1392,1100,0,0
175,-76,0,0,0,0,0,0,0,0,0,-1,1399,1100,0,0
182,-76,0,0,0,0,0,0,0,0,0,-1,1406,1100,0,0
189,-76,0,0,0,0,0,0,0,0,0,-1,1413,1100,0,0
196,-76,0,0,0,0,0,0,0,0,0,-1,1420,1100,0,0
203,-76,0,0,0,0,0,0,0,0,0,-1,1427,1100,0,0
210,-76,0,0,0,0,0,0,0,0,0,-1,1434,1100,0,0
217,-76,0,0,0,0,0,0,0,0,0,-1,1441,1100,0,0
224,-76,0,0,0,0,0,0,0,0,0,-1,1448,1100,0,0
231,-76,0,0,0,0,0,0,0,0,0,-1,1455,1100,0,0
238,-76,0,0,0,0,0,0,0,0,0,-1,1462,1100,0,0
245,-76,0,0,0,0,0,0,0,0,0,-1,1469,1100,0,0
252,-76,0,0,0,0,0,0,0,0,0,-1,1476,1100,0,0
259,-76,0,0,0,0,0,0,0,0,0,-1,1483,1100,0,0
266,-76,0,0,0,0,0,0,0,0,0,-1,1490,1100,0,0
273,-76,0,0,0,0,0,0,0,0,0,-1,1497,1100,0,0
280,-76,0,0,0,0,0,0,0,0,0,-1,1504,1100,0,0
287,-76,0,0,0,0,0,0,0,0,0,-1,1511,1100,0,0
294,-76,0,0,0,0,0,0,0,0,0,-1,1518,1100,0,0
301,-76,0,0,0,0,0,0,0,0,0,-1,1525,1100,0,0
308,-76,0,0,0,0,0,0,0,0,0,-1,1532,1100,0,0
315,-76,0,0,0,0,0,0,0,0,0,-1,1539,1100,0,0
322,-76,0,0,0,0,0,0,0,0,0,-1,1546,1100,0,0
329,-76,0,0,0,0,0,0,0,0,0,-1,1553,1100,0,0
336,-76,0,0,0,0,0,0,0,0,0,-1,1560,1100,0,0
343,-76,0,0,0,0,0,0,0,0,0,-1,1567,1100,0,0
350,-76,0,0,0,0,0,0,0,0,0,-1,1574,1100,0,0
357,-76,0,0,0,0,0,0,0,0,0,-1,1581,1100,0,0
364,-76,0,0,0,0,0,0,0,0,0,-1,1588,1100,0,0
371,-76,0,0,0,0,0,0,0,0,0,-1,1595,1100,0,0
378,-76,0,0,0,0,0,0,0,0,0,-1,1602,1100,0,0
385,-76,0,0,0,0,0,0,0,0,0,-1,1609,1100,0,0
392,-76,0,0,0,0,0,0,0,0,0,-1,1616,1100,0,0
399,-76,0,0,0,0,0,0,0,0,0,-1,1623,1100,0,0
406,-76,0,0,0,0,0,0,0,0,0,-1,1630,1100,0,0
413,-76,0,0,0,0,0,0,0,0,0,-1,1637,1100,0,0
420,-76,0,0,0,0,0,0,0,0,0,-1,1644,1100,0,0
427,-76,0,0,0,0,0,0,0,0,0,-1,1651,1100,0,0
434,-76,0,0,0,0,0,0,0,0,0,-1,1658,1100,0,0
441,-76,0,0,0,0,0,0,0,0,0,-1,1665,1100,0,0
448,-76,0,0,0,0,0,0,0,0,0,-1,1672,1100,0,0
455,-76,0,0,0,0,0,0,0,0,0,-1,1679,1100,0,0
462,-76,0,0,0,0,0,0,0,0,0,-1,1686,1100,0,0
469,-76,0,0,0,0,0,0,0,0,0,-1,1693,1100,0,0
476,-76,0,0,0,0,0,0,0,0,0,-1,1700,1100,0,0
483,-76,0,0,0,0,0,0,0,0,0,-1,1707,1100,0,0
490,-76,0,0,0,0,0,0,0,0,0,-1,1714,1100,0,0
497,-76,0,0,0,0,0,0,0,0,0,-1,1721,1100,0,0
504,-76,0,0,0,0,0,0,0,0,0,-1,1728,1100,0,0
511,-76,0,0,0,0,0,0,0,0,0,-1,1735,1100,0,0
518,-76,0,0,0,0,0,0,0,0,0,-1,1742,1100,0,0
525,-76,0,0,0,0,0,0,0,0,0,-1,1749,1100,0,0
532,-76,0,0,0,0,0,0,0,0,0,-1,1756,1100,0,0
539,-76,0,0,0,0,0,0,0,0,0,-1,1763,1100,0,0
546,-76,0,0,0,0,0,0,0,0,0,-1,1770,1100,0,0
553,-76,0,0,0,0,0,0,0,0,0,-1,1777,1100,0,0
560,-76,0,0,0,0,0,0,0,0,0,-1,1784,1100,0,0
567,-76,0,0,0,0,0,0,0,0,0,-1,1791,1100,0,0
574,-76,0,0,0,0,0,0,0,0,0,-1,1798,1100,0,0
581,-76,0,0,0,0,0,0,0,0,0,-1,1805,1100,0,0
588,-76,0,0,0,0,0,0,0,0,0,-1,1812,1100,0,0
595,-76,0,0,0,0,0,0,0,0,0,-1,1819,1100,0,0
602,-76,0,0,0,0,0,0,0,0,0,-1,1826,1100,0,0
609,-76,0,0,0,0,0,0,0,0,0,-1,1833,1100,0,0
616,-76,0,0,0,0,0,0,0,0,0,-1,1840,1100,0,0
623,-76,0,0,0,0,0,0,0,0,0,-1,1847,1100,0,0
630,-76,0,0,0,0,0,0,0,0,0,-1,1854,1100,0,0
637,-76,0,0,0,0,0,0,0,0,0,-1,1861,1100,0,0
644,-76,0,0,0,0,0,0,0,0,0,-1,1868,1100,0,0
651,-76,83.0823,2.25854,0.00206851,-0.00609212,-0.00282371,0.00295028,-0.00697389,-0.30268,0.0058846,0.0401599,1875,1100,83.0823,-2.25858
658,-76,83.1069,1.98279,0.00139322,-0.00481441,-0.00218006,0.00208234,-0.00550353,-0.306161,0.00452574,0.0429693,1882,1100,83.107,-1.98284
665,-76,83.2627,1.72778,0,0,0,0,0,0,0,-1,1889,1100,83.2627,-1.72779
672,-76,83.1035,2.23804,0.000522771,-0.00242109,-0.00148818,0.00114398,-0.0030423,-0.395443,0.00249841,0.0391245,1896,1100,83.1035,-2.23805
679,-76,83.1533,2.33911,0.000264197,-0.001282,-0.00130172,0.00100509,-0.00202289,-0.517435,0.00178082,0.0379307,1903,1100,83.1534,-2.33915
686,-76,83.2014,2.4353,-5.50692e-05,-0.000704899,-0.00116644,0.000830865,-0.00159083,-0.649565,0.00142093,0.0362572,1910,1100,83.2014,-2.43532
693,-76,83.1893,2.38647,-0.00026017,-0.000552358,-0.000876964,0.000482786,-0.00129531,-0.702861,0.00106171,0.0384676,1917,1100,83.1893,-2.38649
700,-76,83.1375,2.25134,-0.000317814,-0.000446159,-0.000483861,0.000106111,-0.000870085,-0.71947,0.000618469,0.0346006,1924,1100,83.1374,-2.25137
707,-76,83.1096,2.27026,-0.000735065,-0.000206146,-1.8318e-05,-0.000205512,-0.000735699,-1.53622,0.000438327,0.0255799,1931,1100,83.1096,-2.2703
714,-76,83.1483,2.23291,0,0,0,0,0,0,0,-1,1938,1100,83.1483,-2.23295
721,-76,45.1713,3.04919,0,0,0,0,0,0,0,-1,1945,1100,45.1713,-3.04915
728,-76,60.937,8.08447,0,0,0,0,0,0,0,-1,1952,1100,60.937,-8.08446
735,-76,79.35,9.41772,0,0,0,0,0,0,0,-1,1959,1100,79.35,-9.41774
742,-76,79.4957,8.76868,-0.00317449,0.00354956,0.00226389,0.00424073,-0.00386567,1.27448,0.0046819,0.0378563,1966,1100,79.4957,-8.76867
749,-76,79.3491,8.12732,-0.00360217,0.004788,0.00293465,0.00571257,-0.00452674,1.26559,0.00592487,0.0346215,1973,1100,79.3491,-8.1273
756,-76,79.4238,7.5564,-0.00376202,0.0068858,0.00348068,0.00792264,-0.00479886,1.28128,0.00741821,0.0185469,1980,1100,79.4238,-7.55639
763,-76,79.3381,6.94714,-0.00312209,0.00999171,0.00363838,0.0109335,-0.0040639,1.3175,0.00895645,0.0199089,1987,1100,79.3382,-6.9472
770,-76,79.2004,6.40967,-0.00129907,0.0141726,0.00341476,0.0148928,-0.00201923,1.36295,0.0106655,0.0224026,1994,1100,79.2005,-6.40962
777,-76,79.0349,6.02014,0.00170239,0.0189692,0.00286209,0.0194313,0.00124035,1.41074,0.0125612,0.0246361,2001,1100,79.035,-6.02017
784,-76,79.0647,5.30457,0.00584899,0.0240518,0.00198411,0.0242656,0.00563523,1.46348,0.0146641,0.0333785,2008,1100,79.0646,-5.30458
791,-76,79.7834,4.68726,0.0119012,0.0296433,0.000426374,0.0296535,0.011891,1.54678,0.017232,0.0431146,2015,1100,79.7834,-4.6873
798,-76,80.4294,4.16211,0,0,0,0,0,0,0,-1,2022,1100,80.4295,-4.16215
805,-76,81.7275,3.53027,0,0,0,0,0,0,0,-1,2029,1100,81.7274,-3.53027
812,-76,82.7937,3.36694,0,0,0,0,0,0,0,-1,2036,1100,82.7936,-3.3669
-700,-83,0,0,0,0,0,0,0,0,0,-1,524,1107,0,0
-693,-83,-57.3147,-1.99072,0,0,0,0,0,0,0,-1,531,1107,-57.3147,1.99067
-686,-83,-57.4254,0.578735,-0.092676,-0.0379677,0.0879501,0.0267839,-0.157428,0.936166,0.114925,0.0484534,538,1107,-57.4254,-0.578779
-679,-83,-58.2647,1.03967,-0.0807656,-0.0238627,0.0766698,0.0294645,-0.134093,0.963068,0.100664,0.0474882,545,1107,-58.2647,-1.03964
-672,-83,-58.8701,2.4967,-0.0689107,-0.0137922,0.0646186,0.0288986,-0.111602,0.986965,0.0856742,0.0449285,552,1107,-58.8701,-2.4967
-665,-83,-59.3965,3.56665,0,0,0,0,0,0,0,-1,559,1107,-59.3965,-3.56665
-658,-83,-62.2767,4.01892,0,0,0,0,0,0,0,-1,566,1107,-62.2767,-4.01895
-651,-83,-62.2176,4.62537,0,0,0,0,0,0,0,-1,573,1107,-62.2176,-4.62538
-644,-83,-62.3535,5.55505,-0.0288136,0.00408192,0.021967,0.0150764,-0.0398081,1.10675,0.0327424,0.0339792,580,1107,-62.3535,-5.55506
-637,-83,-62.6268,6.07373,-0.0205854,0.00568253,0.0135433,0.0114145,-0.0263174,1.17042,0.0223437,0.0163155,587,1107,-62.6268,-6.07374
-630,-83,-62.676,6.67383,-0.013268,0.00605833,0.00630361,0.0079326,-0.0151422,1.28179,0.0135373,0.0187329,594,1107,-62.676,-6.67388
-623,-83,-62.7403,7.23657,-0.00793313,0.00411949,0.00100546,0.0042028,-0.00801643,1.48814,0.00716839,0.0236974,601,1107,-62.7403,-7.23658
-616,-83,-62.8864,7.87231,-0.00455505,0.00231456,-0.00172433,0.00272309,-0.00496358,-1.33817,0.0045003,0.0190206,608,1107,-62.8864,-7.87232
-609,-83,-62.8486,8.4303,-0.00288463,0.000599052,-0.00190387,0.00143766,-0.00372324,-1.15589,0.0030755,0.0231702,615,1107,-62.8486,-8.43026
-602,-83,-62.8189,9.10205,-0.00224212,-0.0002298,-0.00159741,0.000651917,-0.00312384,-1.06644,0.00233046,0.0204006,622,1107,-62.8189,-9.10203
-595,-83,-62.7545,9.66077,-0.00170084,-0.000775889,-0.0014595,0.000292655,-0.00276938,-0.93883,0.00195114,0.0293072,629,1107,-62.7544,-9.66071
-588,-83,-62.853,9.92346,0,0,0,0,0,0,0,-1,636,1107,-62.853,-9.92343
-581,-83,-66.1277,0.505005,0,0,0,0,0,0,0,-1,643,1107,-66.1277,-0.505025
-574,-83,-66.1165,0.361206,-0.000544088,-0.00190825,-0.000602076,-0.000316372,-0.00213597,-0.361588,0.00133111,0.0382227,650,1107,-66.1164,-0.361239
-567,-83,-66.1532,0.267578,-0.000344785,-0.00177613,-0.000310025,-0.00028052,-0.00184039,-0.204396,0.00114494,0.0434876,657,1107,-66.1532,-0.267537
-560,-83,-65.8849,0.518433,-0.000483934,-0.00125695,-4.94961e-05,-0.000480777,-0.00126011,-0.063683,0.0007343,0.0459072,664,1107,-65.8849,-0.518404
-553,-83,-65.9227,0.466675,-0.00126436,-0.000337939,8.60579e-05,-0.000330013,-0.00127228,1.47895,0.000762377,0.0448996,671,1107,-65.9228,-0.466648
-546,-83,-66.0533,0.55957,-0.00234597,0.000745666,7.90258e-05,0.000747685,-0.00234799,1.54526,0.00186519,0.0403331,678,1107,-66.0533,-0.559572
-539,-83,-66.0992,0.51416,-0.00340768,0.0013913,-0.000319446,0.00141247,-0.00342885,-1.50462,0.00287481,0.0420709,685,1107,-66.0992,-0.514152
-532,-83,-66.0093,0.439453,-0.0044759,0.00204589,-0.000648884,0.00210983,-0.00453984,-1.47258,0.0039237,0.0448346,692,1107,-66.0093,-0.439398
-525,-83,0,0,0,0,0,0,0,0,0,-1,699,1107,0,0
-518,-83,0,0,0,0,0,0,0,0,0,-1,706,1107,0,0
-511,-83,0,0,0,0,0,0,0,0,0,-1,713,1107,0,0
-504,-83,0,0,0,0,0,0,0,0,0,-1,720,1107,0,0
-497,-83,0,0,0,0,0,0,0,0,0,-1,727,1107,0,0
-490,-83,0,0,0,0,0,0,0,0,0,-1,734,1107,0,0
-483,-83,0,0,0,0,0,0,0,0,0,-1,741,1107,0,0
-476,-83,0,0,0,0,0,0,0,0,0,-1,748,1107,0,0
-469,-83,0,0,0,0,0,0,0,0,0,-1,755,1107,0,0
-462,-83,0,0,0,0,0,0,0,0,0,-1,762,1107,0,0
-455,-83,0,0,0,0,0,0,0,0,0,-1,769,1107,0,0
-448,-83,0,0,0,0,0,0,0,0,0,-1,776,1107,0,0
-441,-83,0,0,0,0,0,0,0,0,0,-1,783,1107,0,0
-434,-83,0,0,0,0,0,0,0,0,0,-1,790,1107,0,0
-427,-83,0,0,0,0,0,0,0,0,0,-1,797,1107,0,0
-420,-83,0,0,0,0,0,0,0,0,0,-1,804,1107,0,0
-413,-83,0,0,0,0,0,0,0,0,0,-1,811,1107,0,0
-406,-83,0,0,0,0,0,0,0,0,0,-1,818,1107,0,0
-399,-83,0,0,0,0,0,0,0,0,0,-1,825,1107,0,0
-392,-83,0,0,0,0,0,0,0,0,0,-1,832,1107,0,0
-385,-83,0,0,0,0,0,0,0,0,0,-1,839,1107,0,0
-378,-83,0,0,0,0,0,0,0,0,0,-1,846,1107,0,0
-371,-83,0,0,0,0,0,0,0,0,0,-1,853,1107,0,0
-364,-83,0,0,0,0,0,0,0,0,0,-1,860,1107,0,0
-357,-83,0,0,0,0,0,0,0,0,0,-1,867,1107,0,0
-350,-83,0,0,0,0,0,0,0,0,0,-1,874,1107,0,0
-343,-83,0,0,0,0,0,0,0,0,0,-1,881,1107,0,0
-336,-83,0,0,0,0,0,0,0,0,0,-1,888,1107,0,0
-329,-83,0,0,0,0,0,0,0,0,0,-1,895,1107,0,0
-322,-83,0,0,0,0,0,0,0,0,0,-1,902,1107,0,0
-315,-83,0,0,0,0,0,0,0,0,0,-1,909,1107,0,0
-308,-83,0,0,0,0,0,0,0,0,0,-1,916,1107,0,0
-301,-83,0,0,0,0,0,0,0,0,0,-1,923,1107,0,0
-294,-83,0,0,0,0,0,0,0,0,0,-1,930,1107,0,0
-287,-83,0,0,0,0,0,0,0,0,0,-1,937,1107,0,0
-280,-83,0,0,0,0,0,0,0,0,0,-1,944,1107,0,0
-273,-83,0,0,0,0,0,0,0,0,0,-1,951,1107,0,0
-266,-83,0,0,0,0,0,0,0,0,0,-1,958,1107,0,0
-259,-83,0,0,0,0,0,0,0,0,0,-1,965,1107,0,0
-252,-83,0,0,0,0,0,0,0,0,0,-1,972,1107,0,0
-245,-83,0,0,0,0,0,0,0,0,0,-1,979,1107,0,0
-238,-83,0,0,0,0,0,0,0,0,0,-1,986,1107,0,0
-231,-83,0,0,0,0,0,0,0,0,0,-1,993,1107,0,0
-224,-83,0,0,0,0,0,0,0,0,0,-1,1000,1107,0,0
-217,-83,0,0,0,0,0,0,0,0,0,-1,1007,1107,0,0
-210,-83,0,0,0,0,0,0,0,0,0,-1,1014,1107,0,0
-203,-83,0,0,0,0,0,0,0,0,0,-1,1021,1107,0,0
-196,-83,0,0,0,0,0,0,0,0,0,-1,1028,1107,0,0
-189,-83,0,0,0,0,0,0,0,0,0,-1,1035,1107,0,0
-182,-83,0,0,0,0,0,0,0,0,0,-1,1042,1107,0,0
-175,-83,0,0,0,0,0,0,0,0,0,-1,1049,1107,0,0
-168,-83,0,0,0,0,0,0,0,0,0,-1,1056,1107,0,0
-161,-83,0,0,0,0,0,0,0,0,0,-1,1063,1107,0,0
-154,-83,0,0,0,0,0,0,0,0,0,-1,1070,1107,0,0
-147,-83,0,0,0,0,0,0,0,0,0,-1,1077,1107,0,0
-140,-83,0,0,0,0,0,0,0,0,0,-1,1084,1107,0,0
-133,-83,0,0,0,0,0,0,0,0,0,-1,1091,1107,0,0
-126,-83,0,0,0,0,0,0,0,0,0,-1,1098,1107,0,0
-119,-83,0,0,0,0,0,0,0,0,0,-1,1105,1107,0,0
-112,-83,0,0,0,0,0,0,0,0,0,-1,1112,1107,0,0
-105,-83,0,0,0,0,0,0,0,0,0,-1,1119,1107,0,0
-98,-83,0,0,0,0,0,0,0,0,0,-1,1126,1107,0,0
-91,-83,0,0,0,0,0,0,0,0,0,-1,1133,1107,0,0
-84,-83,0,0,0,0,0,0,0,0,0,-1,1140,1107,0,0
-77,-83,0,0,0,0,0,0,0,0,0,-1,1147,1107,0,0
-70,-83,0,0,0,0,0,0,0,0,0,-1,1154,1107,0,0
-63,-83,0,0,0,0,0,0,0,0,0,-1,1161,1107,0,0
-56,-83,0,0,0,0,0,0,0,0,0,-1,1168,1107,0,0
-49,-83,0,0,0,0,0,0,0,0,0,-1,1175,1107,0,0
-42,-83,0,0,0,0,0,0,0,0,0,-1,1182,1107,0,0
-35,-83,0,0,0,0,0,0,0,0,0,-1,1189,1107,0,0
-28,-83,0,0,0,0,0,0,0,0,0,-1,1196,1107,0,0
-21,-83,0,0,0,0,0,0,0,0,0,-1,1203,1107,0,0
-14,-83,0,0,0,0,0,0,0,0,0,-1,1210,1107,0,0
-7,-83,0,0,0,0,0,0,0,0,0,-1,1217,1107,0,0
0,-83,0,0,0,0,0,0,0,0,0,-1,1224,1107,0,0
7,-83,0,0,0,0,0,0,0,0,0,-1,1231,1107,0,0
14,-83,0,0,0,0,0,0,0,0,0,-1,1238,1107,0,0
21,-83,0,0,0,0,0,0,0,0,0,-1,1245,1107,0,0
28,-83,0,0,0,0,0,0,0,0,0,-1,1252,1107,0,0
35,-83,0,0,0,0,0,0,0,0,0,-1,1259,1107,0,0
42,-83,0,0,0,0,0,0,0,0,0,-1,1266,1107,0,0
49,-83,0,0,0,0,0,0,0,0,0,-1,1273,1107,0,0
56,-83,0,0,0,0,0,0,0,0,0,-1,1280,1107,0,0
63,-83,0,0,0,0,0,0,0,0,0,-1,1287,1107,0,0
70,-83,0,0,0,0,0,0,0,0,0,-1,1294,1107,0,0
77,-83,0,0,0,0,0,0,0,0,0,-1,1301,1107,0,0
84,-83,0,0,0,0,0,0,0,0,0,-1,1308,1107,0,0
91,-83,0,0,0,0,0,0,0,0,0,-1,1315,1107,0,0
98,-83,0,0,0,0,0,0,0,0,0,-1,1322,1107,0,0
105,-83,0,0,0,0,0,0,0,0,0,-1,1329,1107,0,0
112,-83,0,0,0,0,0,0,0,0,0,-1,1336,1107,0,0
119,-83,0,0,0,0,0,0,0,0,0,-1,1343,1107,0,0
126,-83,0,0,0,0,0,0,0,0,0,-1,1350,1107,0,0
133,-83,0,0,0,0,0,0,0,0,0,-1,1357,1107,0,0
140,-83,0,0,0,0,0,0,0,0,0,-1,1364,1107,0,0
147,-83,0,0,0,0,0,0,0,0,0,-1,1371,1107,0,0
154,-83,0,0,0,0,0,0,0,0,0,-1,1378,1107,0,0
161,-83,0,0,0,0,0,0,0,0,0,-1,1385,1107,0,0
168,-83,0,0,0,0,0,0,0,0,0,-1,1392,1107,0,0
175,-83,0,0,0,0,0,0,0,0,0,-1,1399,1107,0,0
182,-83,0,0,0,0,0,0,0,0,0,-1,1406,1107,0,0
189,-83,0,0,0,0,0,0,0,0,0,-1,1413,1107,0,0
196,-83,0,0,0,0,0,0,0,0,0,-1,1420,1107,0,0
203,-83,0,0,0,0,0,0,0,0,0,-1,1427,1107,0,0
210,-83,0,0,0,0,0,0,0,0,0,-1,1434,1107,0,0
217,-83,0,0,0,0,0,0,0,0,0,-1,1441,1107,0,0
224,-83,0,0,0,0,0,0,0,0,0,-1,1448,1107,0,0
231,-83,0,0,0,0,0,0,0,0,0,-1,1455,1107,0,0
238,-83,0,0,0,0,0,0,0,0,0,-1,1462,1107,0,0
245,-83,0,0,0,0,0,0,0,0,0,-1,1469,1107,0,0
252,-83,0,0,0,0,0,0,0,0,0,-1,1476,1107,0,0
259,-83,0,0,0,0,0,0,0,0,0,-1,1483,1107,0,0
266,-83,0,0,0,0,0,0,0,0,0,-1,1490,1107,0,0
273,-83,0,0,0,0,0,0,0,0,0,-1,1497,1107,0,0
280,-83,0,0,0,0,0,0,0,0,0,-1,1504,1107,0,0
287,-83,0,0,0,0,0,0,0,0,0,-1,1511,1107,0,0
294,-83,0,0,0,0,0,0,0,0,0,-1,1518,1107,0,0
301,-83,0,0,0,0,0,0,0,0,0,-1,1525,1107,0,0
308,-83,0,0,0,0,0,0,0,0,0,-1,1532,1107,0,0
315,-83,0,0,0,0,0,0,0,0,0,-1,1539,1107,0,0
322,-83,0,0,0,0,0,0,0,0,0,-1,1546,1107,0,0
329,-83,0,0,0,0,0,0,0,0,0,-1,1553,1107,0,0
336,-83,0,0,0,0,0,0,0,0,0,-1,1560,1107,0,0
343,-83,0,0,0,0,0,0,0,0,0,-1,1567,1107,0,0
350,-83,0,0,0,0,0,0,0,0,0,-1,1574,1107,0,0
357,-83,0,0,0,0,0,0,0,0,0,-1,1581,1107,0,0
364,-83,0,0,0,0,0,0,0,0,0,-1,1588,1107,0,0
371,-83,0,0,0,0,0,0,0,0,0,-1,1595,1107,0,0
378,-83,0,0,0,0,0,0,0,0,0,-1,1602,1107,0,0
385,-83,0,0,0,0,0,0,0,0,0,-1,1609,1107,0,0
392,-83,0,0,0,0,0,0,0,0,0,-1,1616,1107,0,0
399,-83,0,0,0,0,0,0,0,0,0,-1,1623,1107,0,0
406,-83,0,0,0,0,0,0,0,0,0,-1,1630,1107,0,0
413,-83,0,0,0,0,0,0,0,0,0,-1,1637,1107,0,0
420,-83,0,0,0,0,0,0,0,0,0,-1,1644,1107,0,0
427,-83,0,0,0,0,0,0,0,0,0,-1,1651,1107,0,0
434,-83,0,0,0,0,0,0,0,0,0,-1,1658,1107,0,0
441,-83,0,0,0,0,0,0,0,0,0,-1,1665,1107,0,0
448,-83,0,0,0,0,0,0,0,0,0,-1,1672,1107,0,0
455,-83,0,0,0,0,0,0,0,0,0,-1,1679,1107,0,0
462,-83,0,0,0,0,0,0,0,0,0,-1,1686,1107,0,0
469,-83,0,0,0,0,0,0,0,0,0,-1,1693,1107,0,0
476,-83,0,0,0,0,0,0,0,0,0,-1,1700,1107,0,0
483,-83,0,0,0,0,0,0,0,0,0,-1,1707,1107,0,0
490,-83,0,0,0,0,0,0,0,0,0,-1,1714,1107,0,0
497,-83,0,0,0,0,0,0,0,0,0,-1,1721,1107,0,0
504,-83,0,0,0,0,0,0,0,0,0,-1,1728,1107,0,0
511,-83,0,0,0,0,0,0,0,0,0,-1,1735,1107,0,0
518,-83,0,0,0,0,0,0,0,0,0,-1,1742,1107,0,0
525,-83,0,0,0,0,0,0,0,0,0,-1,1749,1107,0,0
532,-83,0,0,0,0,0,0,0,0,0,-1,1756,1107,0,0
539,-83,0,0,0,0,0,0,0,0,0,-1,1763,1107,0,0
546,-83,0,0,0,0,0,0,0,0,0,-1,1770,1107,0,0
553,-83,0,0,0,0,0,0,0,0,0,-1,1777,1107,0,0
560,-83,0,0,0,0,0,0,0,0,0,-1,1784,1107,0,0
567,-83,0,0,0,0,0,0,0,0,0,-1,1791,1107,0,0
574,-83,0,0,0,0,0,0,0,0,0,-1,1798,1107,0,0
581,-83,0,0,0,0,0,0,0,0,0,-1,1805,1107,0,0
588,-83,0,0,0,0,0,0,0,0,0,-1,1812,1107,0,0
595,-83,0,0,0,0,0,0,0,0,0,-1,1819,1107,0,0
602,-83,0,0,0,0,0,0,0,0,0,-1,1826,1107,0,0
609,-83,0,0,0,0,0,0,0,0,0,-1,1833,1107,0,0
616,-83,0,0,0,0,0,0,0,0,0,-1,1840,1107,0,0
623,-83,0,0,0,0,0,0,0,0,0,-1,1847,1107,0,0
630,-83,0,0,0,0,0,0,0,0,0,-1,1854,1107,0,0
637,-83,0,0,0,0,0,0,0,0,0,-1,1861,1107,0,0
644,-83,83.1255,2.30176,0.00338684,-0.00759615,-0.00532131,0.0055421,-0.00975141,-0.38483,0.0089405,0.0335827,1868,1107,83.1255,-2.30176
651,-83,83.097,2.26379,0.00225048,-0.00618877,-0.00383232,0.00373102,-0.00766931,-0.368667,0.00671162,0.0382709,1875,1107,83.0971,-2.26376
658,-83,83.1989,2.13232,0.00160402,-0.00494177,-0.00288115,0.00269151,-0.00602925,-0.360914,0.00515639,0.0423317,1882,1107,83.1989,-2.13232
665,-83,83.2028,2.07056,0.00109026,-0.00375907,-0.00222087,0.00195365,-0.00462245,-0.370779,0.00389954,0.0406184,1889,1107,83.2028,-2.07051
672,-83,83.1344,2.14185,0.00066102,-0.00253885,-0.0017505,0.00143259,-0.00331042,-0.415154,0.00280901,0.0370709,1896,1107,83.1344,-2.1419
679,-83,83.1523,2.2478,0.00036269,-0.00146205,-0.00139038,0.00111332,-0.00221268,-0.495036,0.00195492,0.0356839,1903,1107,83.1524,-2.24784
686,-83,83.2328,2.30017,5.61333e-05,-0.000932952,-0.00118561,0.000846209,-0.00172303,-0.587809,0.00151187,0.0332082,1910,1107,83.2328,-2.30011
693,-83,83.2156,2.30457,-0.000118482,-0.000807803,-0.000868648,0.000471384,-0.00139767,-0.596535,0.0011224,0.0348837,1917,1107,83.2156,-2.30459
700,-83,83.155,2.34216,-0.000120786,-0.00070561,-0.000479234,0.000148202,-0.000974598,-0.511468,0.000704349,0.0338314,1924,1107,83.155,-2.34221
707,-83,83.1296,2.3125,-0.000461372,-0.000456235,-1.49215e-05,-0.000443662,-0.000473944,-0.870622,0.000306368,0.0258858,1931,1107,83.1296,-2.31254
714,-83,83.1542,2.19812,0,0,0,0,0,0,0,-1,1938,1107,83.1542,-2.19813
721,-83,49.1162,7.36719,0,0,0,0,0,0,0,-1,1945,1107,49.1162,-7.36721
728,-83,66.6315,8.32141,0,0,0,0,0,0,0,-1,1952,1107,66.6314,-8.32147
735,-83,78.6305,9.3457,0,0,0,0,0,0,0,-1,1959,1107,78.6305,-9.34568
742,-83,78.7579,8.73145,-0.0026706,0.00307525,0.00214055,0.00378501,-0.00338037,1.25062,0.00413913,0.034631,1966,1107,78.7579,-8.73148
749,-83,78.8689,8.11511,-0.00307829,0.00420981,0.00287415,0.00520686,-0.00407534,1.23688,0.00537234,0.021911,1973,1107,78.8688,-8.11513
756,-83,78.8206,7.51611,-0.00332039,0.00616114,0.00354637,0.00734081,-0.00450007,1.24967,0.0069016,0.0182227,1980,1107,78.8205,-7.51615
763,-83,78.7263,6.91113,-0.00281938,0.00903123,0.00402066,0.0102666,-0.00405473,1.2727,0.00852373,0.0141767,1987,1107,78.7263,-6.91117
770,-83,78.6001,6.36487,-0.00129751,0.0128028,0.00432097,0.0140216,-0.0025163,1.29588,0.0102896,0.0169113,1994,1107,78.6002,-6.36489
777,-83,78.4272,5.78772,0.00122067,0.0169863,0.00454445,0.0182024,4.54299e-06,1.30932,0.0121334,0.0173854,2001,1107,78.4273,-5.78774
784,-83,78.302,5.19067,0.00486161,0.0213576,0.00474299,0.022624,0.00359512,1.30986,0.0140386,0.0264369,2008,1107,78.302,-5.19065
791,-83,78.3389,4.60095,0.0103312,0.0261021,0.00471391,0.0274037,0.00902966,1.3014,0.0161252,0.045277,2015,1107,78.3389,-4.60099
798,-83,78.3875,4.06104,0,0,0,0,0,0,0,-1,2022,1107,78.3875,-4.06102
805,-83,78.4485,3.34424,0,0,0,0,0,0,0,-1,2029,1107,78.4484,-3.34424
812,-83,82.5317,2.47339,0,0,0,0,0,0,0,-1,2036,1107,82.5316,-2.47336
-700,-90,0,0,0,0,0,0,0,0,0,-1,524,1114,0,0
-693,-90,-57.1362,0.402222,-0.108872,-0.0581747,0.0965851,0.0163328,-0.183379,0.913727,0.128045,0.0442855,531,1114,-57.1362,-0.402266
-686,-90,-57.8405,1.05688,-0.096864,-0.0375579,0.0888152,0.0264237,-0.160846,0.946517,0.117037,0.0432399,538,1114,-57.8405,-1.05684
-679,-90,-58.6102,1.72791,-0.0844346,-0.0238849,0.0775544,0.0290943,-0.137414,0.971486,0.10269,0.0450108,545,1114,-58.6102,-1.72789
-672,-90,-59.2684,2.50916,-0.0721231,-0.0141362,0.0655016,0.0285019,-0.114761,0.993755,0.0875681,0.0456998,552,1114,-59.2684,-2.50916
-665,-90,-61.3284,3.42395,0,0,0,0,0,0,0,-1,559,1114,-61.3284,-3.42399
-658,-90,-61.5278,4.00867,-0.0497963,-0.00203285,0.0424966,0.0228327,-0.0746618,1.04139,0.0588801,0.047562,566,1114,-61.5278,-4.00868
-651,-90,-61.6575,4.61743,-0.0397863,0.00143565,0.0320287,0.0189121,-0.0572627,1.0713,0.0457998,0.0425131,573,1114,-61.6575,-4.61741
-644,-90,-61.8335,5.31458,-0.0306921,0.00341531,0.0225726,0.0146521,-0.0419289,1.10891,0.0339088,0.0236467,580,1114,-61.8335,-5.31455
-637,-90,-61.956,6.00476,-0.0221519,0.00511902,0.0139124,0.0109638,-0.0279967,1.17307,0.0231993,0.0176228,587,1114,-61.956,-6.00478
-630,-90,-62.0165,6.65283,-0.0145413,0.00549436,0.00640116,0.00736484,-0.0164118,1.2865,0.0140548,0.013837,594,1114,-62.0165,-6.6528
-623,-90,-62.0582,7.29761,-0.00908094,0.00365665,0.00105036,0.00374268,-0.00916697,1.48907,0.00766957,0.0153062,601,1114,-62.0581,-7.29763
-616,-90,-62.1474,7.93982,-0.00587932,0.00199155,-0.00133892,0.00221308,-0.00610085,-1.40683,0.00497191,0.0156187,608,1114,-62.1474,-7.93981
-609,-90,-62.1199,8.58069,-0.00413234,0.000652085,-0.00160271,0.00113935,-0.0046196,-1.27565,0.0035215,0.0248661,615,1114,-62.12,-8.58067
-602,-90,-62.2111,9.17126,-0.00343653,9.17644e-05,-0.0013969,0.000577849,-0.00392261,-1.23593,0.00282744,0.0236499,622,1114,-62.2111,-9.17125
-595,-90,-62.2153,9.77222,-0.00286949,-0.000225782,-0.00134006,0.000334667,-0.00342994,-1.17468,0.00240596,0.0263727,629,1114,-62.2153,-9.77225
-588,-90,-62.4518,9.89453,0,0,0,0,0,0,0,-1,636,1114,-62.4518,-9.89447
-581,-90,-66.1439,0.542358,0,0,0,0,0,0,0,-1,643,1114,-66.1439,-0.542362
-574,-90,-66.1263,0.437988,-0.00147042,-0.00128355,-0.000686001,-0.000684649,-0.00206932,-0.853084,0.00121729,0.036374,650,1114,-66.1264,-0.437963
-567,-90,-66.1538,0.374512,-0.00101375,-0.00119153,-0.000474914,-0.00061948,-0.0015858,-0.692888,0.000922833,0.036078,657,1114,-66.1538,-0.374546
-560,-90,-66.0256,0.469238,-0.000833868,-0.000732585,-0.000300776,-0.000478217,-0.00108824,-0.868801,0.000629827,0.0412466,664,1114,-66.0256,-0.469242
-553,-90,-66.0303,0.685425,-0.00145002,0.000203046,-0.000331658,0.000267105,-0.00151408,-1.38,0.00110919,0.0411002,671,1114,-66.0303,-0.685469
-546,-90,-66.0648,0.776245,-0.00245123,0.00133417,-0.000491709,0.00139699,-0.00251406,-1.44371,0.00228854,0.0405696,678,1114,-66.0648,-0.776293
-539,-90,-66.0346,0.560303,-0.00343494,0.00203898,-0.000964202,0.00220385,-0.00359981,-1.40144,0.0033829,0.0399657,685,1114,-66.0346,-0.560327
-532,-90,-66.0208,0.36084,-0.00441206,0.00268341,-0.00132309,0.0029221,-0.00465075,-1.39231,0.00440999,0.0421678,692,1114,-66.0207,-0.360839
-525,-90,0,0,0,0,0,0,0,0,0,-1,699,1114,0,0
-518,-90,0,0,0,0,0,0,0,0,0,-1,706,1114,0,0
-511,-90,0,0,0,0,0,0,0,0,0,-1,713,1114,0,0
-504,-90,0,0,0,0,0,0,0,0,0,-1,720,1114,0,0
-497,-90,0,0,0,0,0,0,0,0,0,-1,727,1114,0,0
-490,-90,0,0,0,0,0,0,0,0,0,-1,734,1114,0,0
-483,-90,0,0,0,0,0,0,0,0,0,-1,741,1114,0,0
-476,-90,0,0,0,0,0,0,0,0,0,-1,748,1114,0,0
-469,-90,0,0,0,0,0,0,0,0,0,-1,755,1114,0,0
-462,-90,0,0,0,0,0,0,0,0,0,-1,762,1114,0,0
-455,-90,0,0,0,0,0,0,0,0,0,-1,769,1114,0,0
-448,-90,0,0,0,0,0,0,0,0,0,-1,776,1114,0,0
-441,-90,0,0,0,0,0,0,0,0,0,-1,783,1114,0,0
-434,-90,0,0,0,0,0,0,0,0,0,-1,790,1114,0,0
-427,-90,0,0,0,0,0,0,0,0,0,-1,797,1114,0,0
-420,-90,0,0,0,0,0,0,0,0,0,-1,804,1114,0,0
-413,-90,0,0,0,0,0,0,0,0,0,-1,811,1114,0,0
-406,-90,0,0,0,0,0,0,0,0,0,-1,818,1114,0,0
-399,-90,0,0,0,0,0,0,0,0,0,-1,825,1114,0,0
-392,-90,0,0,0,0,0,0,0,0,0,-1,832,1114,0,0
-385,-90,0,0,0,0,0,0,0,0,0,-1,839,1114,0,0
-378,-90,0,0,0,0,0,0,0,0,0,-1,846,1114,0,0
-371,-90,0,0,0,0,0,0,0,0,0,-1,853,1114,0,0
-364,-90,0,0,0,0,0,0,0,0,0,-1,860,1114,0,0
-357,-90,0,0,0,0,0,0,0,0,0,-1,867,1114,0,0
-350,-90,0,0,0,0,0,0,0,0,0,-1,874,1114,0,0
-343,-90,0,0,0,0,0,0,0,0,0,-1,881,1114,0,0
-336,-90,0,0,0,0,0,0,0,0,0,-1,888,1114,0,0
-329,-90,0,0,0,0,0,0,0,0,0,-1,895,1114,0,0
-322,-90,0,0,0,0,0,0,0,0,0,-1,902,1114,0,0
-315,-90,0,0,0,0,0,0,0,0,0,-1,909,1114,0,0
-308,-90,0,0,0,0,0,0,0,0,0,-1,916,1114,0,0
-301,-90,0,0,0,0,0,0,0,0,0,-1,923,1114,0,0
-294,-90,0,0,0,0,0,0,0,0,0,-1,930,1114,0,0
-287,-90,0,0,0,0,0,0,0,0,0,-1,937,1114,0,0
-280,-90,0,0,0,0,0,0,0,0,0,-1,944,1114,0,0
-273,-90,0,0,0,0,0,0,0,0,0,-1,951,1114,0,0
-266,-90,0,0,0,0,0,0,0,0,0,-1,958,1114,0,0
-259,-90,0,0,0,0,0,0,0,0,0,-1,965,1114,0,0
-252,-90,0,0,0,0,0,0,0,0,0,-1,972,1114,0,0
-245,-90,0,0,0,0,0,0,0,0,0,-1,979,1114,0,0
-238,-90,0,0,0,0,0,0,0,0,0,-1,986,1114,0,0
-231,-90,0,0,0,0,0,0,0,0,0,-1,993,1114,0,0
-224,-90,0,0,0,0,0,0,0,0,0,-1,1000,1114,0,0
-217,-90,0,0,0,0,0,0,0,0,0,-1,1007,1114,0,0
-210,-90,0,0,0,0,0,0,0,0,0,-1,1014,1114,0,0
-203,-90,0,0,0,0,0,0,0,0,0,-1,1021,1114,0,0
-196,-90,0,0,0,0,0,0,0,0,0,-1,1028,1114,0,0
-189,-90,0,0,0,0,0,0,0,0,0,-1,1035,1114,0,0
-182,-90,0,0,0,0,0,0,0,0,0,-1,1042,1114,0,0
-175,-90,0,0,0,0,0,0,0,0,0,-1,1049,1114,0,0
-168,-90,0,0,0,0,0,0,0,0,0,-1,1056,1114,0,0
-161,-90,0,0,0,0,0,0,0,0,0,-1,1063,1114,0,0
-154,-90,0,0,0,0,0,0,0,0,0,-1,1070,1114,0,0
-147,-90,0,0,0,0,0,0,0,0,0,-1,1077,1114,0,0
-140,-90,0,0,0,0,0,0,0,0,0,-1,1084,1114,0,0
-133,-90,0,0,0,0,0,0,0,0,0,-1,1091,1114,0,0
-126,-90,0,0,0,0,0,0,0,0,0,-1,1098,1114,0,0
-119,-90,0,0,0,0,0,0,0,0,0,-1,1105,1114,0,0
-112,-90,0,0,0,0,0,0,0,0,0,-1,1112,1114,0,0
-105,-90,0,0,0,0,0,0,0,0,0,-1,1119,1114,0,0
-98,-90,0,0,0,0,0,0,0,0,0,-1,1126,1114,0,0
-91,-90,0,0,0,0,0,0,0,0,0,-1,1133,1114,0,0
-84,-90,0,0,0,0,0,0,0,0,0,-1,1140,1114,0,0
-77,-90,0,0,0,0,0,0,0,0,0,-1,1147,1114,0,0
-70,-90,0,0,0,0,0,0,0,0,0,-1,1154,1114,0,0
-63,-90,0,0,0,0,0,0,0,0,0,-1,1161,1114,0,0
-56,-90,0,0,0,0,0,0,0,0,0,-1,1168,1114,0,0
-49,-90,0,0,0,0,0,0,0,0,0,-1,1175,1114,0,0
-42,-90,0,0,0,0,0,0,0,0,0,-1,1182,1114,0,0
-35,-90,0,0,0,0,0,0,0,0,0,-1,1189,1114,0,0
-28,-90,0,0,0,0,0,0,0,0,0,-1,1196,1114,0,0
-21,-90,0,0,0,0,0,0,0,0,0,-1,1203,1114,0,0
-14,-90,0,0,0,0,0,0,0,0,0,-1,1210,1114,0,0
-7,-90,0,0,0,0,0,0,0,0,0,-1,1217,1114,0,0
0,-90,0,0,0,0,0,0,0,0,0,-1,1224,1114,0,0
7,-90,0,0,0,0,0,0,0,0,0,-1,1231,1114,0,0
14,-90,0,0,0,0,0,0,0,0,0,-1,1238,1114,0,0
21,-90,0,0,0,0,0,0,0,0,0,-1,1245,1114,0,0
28,-90,0,0,0,0,0,0,0,0,0,-1,1252,1114,0,0
35,-90,0,0,0,0,0,0,0,0,0,-1,1259,1114,0,0
42,-90,0,0,0,0,0,0,0,0,0,-1,1266,1114,0,0
49,-90,0,0,0,0,0,0,0,0,0,-1,1273,1114,0,0
56,-90,0,0,0,0,0,0,0,0,0,-1,1280,1114,0,0
63,-90,0,0,0,0,0,0,0,0,0,-1,1287,1114,0,0
70,-90,0,0,0,0,0,0,0,0,0,-1,1294,1114,0,0
77,-90,0,0,0,0,0,0,0,0,0,-1,1301,1114,0,0
84,-90,0,0,0,0,0,0,0,0,0,-1,1308,1114,0,0
91,-90,0,0,0,0,0,0,0,0,0,-1,1315,1114,0,0
98,-90,0,0,0,0,0,0,0,0,0,-1,1322,1114,0,0
105,-90,0,0,0,0,0,0,0,0,0,-1,1329,1114,0,0
112,-90,0,0,0,0,0,0,0,0,0,-1,1336,1114,0,0
119,-90,0,0,0,0,0,0,0,0,0,-1,1343,1114,0,0
126,-90,0,0,0,0,0,0,0,0,0,-1,1350,1114,0,0
133,-90,0,0,0,0,0,0,0,0,0,-1,1357,1114,0,0
140,-90,0,0,0,0,0,0,0,0,0,-1,1364,1114,0,0
147,-90,0,0,0,0,0,0,0,0,0,-1,1371,1114,0,0
154,-90,0,0,0,0,0,0,0,0,0,-1,1378,1114,0,0
161,-90,0,0,0,0,0,0,0,0,0,-1,1385,1114,0,0
168,-90,0,0,0,0,0,0,0,0,0,-1,1392,1114,0,0
175,-90,0,0,0,0,0,0,0,0,0,-1,1399,1114,0,0
182,-90,0,0,0,0,0,0,0,0,0,-1,1406,1114,0,0
189,-90,0,0,0,0,0,0,0,0,0,-1,1413,1114,0,0
196,-90,0,0,0,0,0,0,0,0,0,-1,1420,1114,0,0
203,-90,0,0,0,0,0,0,0,0,0,-1,1427,1114,0,0
210,-90,0,0,0,0,0,0,0,0,0,-1,1434,1114,0,0
217,-90,0,0,0,0,0,0,0,0,0,-1,1441,1114,0,0
224,-90,0,0,0,0,0,0,0,0,0,-1,1448,1114,0,0
231,-90,0,0,0,0,0,0,0,0,0,-1,1455,1114,0,0
238,-90,0,0,0,0,0,0,0,0,0,-1,1462,1114,0,0
245,-90,0,0,0,0,0,0,0,0,0,-1,1469,1114,0,0
252,-90,0,0,0,0,0,0,0,0,0,-1,1476,1114,0,0
259,-90,0,0,0,0,0,0,0,0,0,-1,1483,1114,0,0
266,-90,0,0,0,0,0,0,0,0,0,-1,1490,1114,0,0
273,-90,0,0,0,0,0,0,0,0,0,-1,1497,1114,0,0
280,-90,0,0,0,0,0,0,0,0,0,-1,1504,1114,0,0
287,-90,0,0,0,0,0,0,0,0,0,-1,1511,1114,0,0
294,-90,0,0,0,0,0,0,0,0,0,-1,1518,1114,0,0
301,-90,0,0,0,0,0,0,0,0,0,-1,1525,1114,0,0
308,-90,0,0,0,0,0,0,0,0,0,-1,1532,1114,0,0
315,-90,0,0,0,0,0,0,0,0,0,-1,1539,1114,0,0
322,-90,0,0,0,0,0,0,0,0,0,-1,1546,1114,0,0
329,-90,0,0,0,0,0,0,0,0,0,-1,1553,1114,0,0
336,-90,0,0,0,0,0,0,0,0,0,-1,1560,1114,0,0
343,-90,0,0,0,0,0,0,0,0,0,-1,1567,1114,0,0
350,-90,0,0,0,0,0,0,0,0,0,-1,1574,1114,0,0
357,-90,0,0,0,0,0,0,0,0,0,-1,1581,1114,0,0
364,-90,0,0,0,0,0,0,0,0,0,-1,1588,1114,0,0
371,-90,0,0,0,0,0,0,0,0,0,-1,1595,1114,0,0
378,-90,0,0,0,0,0,0,0,0,0,-1,1602,1114,0,0
385,-90,0,0,0,0,0,0,0,0,0,-1,1609,1114,0,0
392,-90,0,0,0,0,0,0,0,0,0,-1,1616,1114,0,0
399,-90,0,0,0,0,0,0,0,0,0,-1,1623,1114,0,0
406,-90,0,0,0,0,0,0,0,0,0,-1,1630,1114,0,0
413,-90,0,0,0,0,0,0,0,0,0,-1,1637,1114,0,0
420,-90,0,0,0,0,0,0,0,0,0,-1,1644,1114,0,0
427,-90,0,0,0,0,0,0,0,0,0,-1,1651,1114,0,0
434,-90,0,0,0,0,0,0,0,0,0,-1,1658,1114,0,0
441,-90,0,0,0,0,0,0,0,0,0,-1,1665,1114,0,0
448,-90,0,0,0,0,0,0,0,0,0,-1,1672,1114,0,0
455,-90,0,0,0,0,0,0,0,0,0,-1,1679,1114,0,0
462,-90,0,0,0,0,0,0,0,0,0,-1,1686,1114,0,0
469,-90,0,0,0,0,0,0,0,0,0,-1,1693,1114,0,0
476,-90,0,0,0,0,0,0,0,0,0,-1,1700,1114,0,0
483,-90,0,0,0,0,0,0,0,0,0,-1,1707,1114,0,0
490,-90,0,0,0,0,0,0,0,0,0,-1,1714,1114,0,0
497,-90,0,0,0,0,0,0,0,0,0,-1,1721,1114,0,0
504,-90,0,0,0,0,0,0,0,0,0,-1,1728,1114,0,0
511,-90,0,0,0,0,0,0,0,0,0,-1,1735,1114,0,0
518,-90,0,0,0,0,0,0,0,0,0,-1,1742,1114,0,0
525,-90,0,0,0,0,0,0,0,0,0,-1,1749,1114,0,0
532,-90,0,0,0,0,0,0,0,0,0,-1,1756,1114,0,0
539,-90,0,0,0,0,0,0,0,0,0,-1,1763,1114,0,0
546,-90,0,0,0,0,0,0,0,0,0,-1,1770,1114,0,0
553,-90,0,0,0,0,0,0,0,0,0,-1,1777,1114,0,0
560,-90,0,0,0,0,0,0,0,0,0,-1,1784,1114,0,0
567,-90,0,0,0,0,0,0,0,0,0,-1,1791,1114,0,0
574,-90,0,0,0,0,0,0,0,0,0,-1,1798,1114,0,0
581,-90,0,0,0,0,0,0,0,0,0,-1,1805,1114,0,0
588,-90,0,0,0,0,0,0,0,0,0,-1,1812,1114,0,0
595,-90,0,0,0,0,0,0,0,0,0,-1,1819,1114,0,0
602,-90,0,0,0,0,0,0,0,0,0,-1,1826,1114,0,0
609,-90,0,0,0,0,0,0,0,0,0,-1,1833,1114,0,0
616,-90,0,0,0,0,0,0,0,0,0,-1,1840,1114,0,0
623,-90,0,0,0,0,0,0,0,0,0,-1,1847,1114,0,0
630,-90,0,0,0,0,0,0,0,0,0,-1,1854,1114,0,0
637,-90,0,0,0,0,0,0,0,0,0,-1,1861,1114,0,0
644,-90,83.0345,2.38977,0.00305887,-0.00669641,-0.00634684,0.00618584,-0.00982337,-0.457775,0.00932211,0.0341761,1868,1114,83.0345,-2.38977
651,-90,83.064,2.36462,0.00212546,-0.00556426,-0.00459255,0.00427013,-0.00770893,-0.436892,0.00701046,0.0376556,1875,1114,83.0639,-2.36462
658,-90,83.2106,2.20081,0.00159089,-0.00450747,-0.00342433,0.00312686,-0.00604343,-0.421643,0.00538299,0.0402514,1882,1114,83.2105,-2.20085
665,-90,83.2255,2.19543,0.001127,-0.00344642,-0.00257139,0.00228138,-0.0046008,-0.421965,0.00404795,0.0425383,1889,1114,83.2255,-2.19549
672,-90,83.2106,2.14856,0.000715041,-0.00233814,-0.00193088,0.00164991,-0.00327301,-0.450901,0.00289328,0.0416995,1896,1114,83.2105,-2.14861
679,-90,83.228,2.41553,0.000445981,-0.00141331,-0.00142011,0.00121367,-0.002181,-0.495587,0.00198626,0.0370799,1903,1114,83.228,-2.41557
686,-90,83.2833,2.4165,0.000191685,-0.000980176,-0.00116576,0.000910477,-0.00169897,-0.552528,0.00152932,0.0326225,1910,1114,83.2834,-2.41645
693,-90,83.1913,2.31274,5.82628e-05,-0.000897494,-0.000847898,0.000553677,-0.00139291,-0.528784,0.00115815,0.0339737,1917,1114,83.1913,-2.31274
700,-90,83.0994,2.32483,0.000101469,-0.000824947,-0.000477615,0.000303601,-0.00102708,-0.400356,0.00080523,0.0335374,1924,1114,83.0994,-2.32487
707,-90,83.1257,2.2229,-0.000176426,-0.000577149,-2.10107e-05,-0.000175327,-0.000578247,-0.0522411,0.000342362,0.0255425,1931,1114,83.1257,-2.22288
714,-90,83.1486,2.05054,0,0,0,0,0,0,0,-1,1938,1114,83.1486,-2.05049
721,-90,63.521,8.76965,0,0,0,0,0,0,0,-1,1945,1114,63.521,-8.7697
728,-90,77.9489,10.0701,0,0,0,0,0,0,0,-1,1952,1114,77.9488,-10.07
735,-90,77.7842,9.47278,-0.00227103,0.0018253,0.00147789,0.00230283,-0.00274856,1.25827,0.0029202,0.0457269,1959,1114,77.7842,-9.47283
742,-90,77.9302,8.74805,-0.00223275,0.00267595,0.00202971,0.00340649,-0.0029633,1.22531,0.00368057,0.0411762,1966,1114,77.9302,-8.74807
749,-90,78.3191,7.96057,-0.00264498,0.00371938,0.00281367,0.0047849,-0.0037105,1.20879,0.00491788,0.0237994,1973,1114,78.319,-7.96054
756,-90,78.2395,7.41431,-0.0029819,0.00554611,0.00356737,0.00684159,-0.00427738,1.22246,0.00647619,0.0188312,1980,1114,78.2396,-7.41436
763,-90,78.1204,6.84741,-0.00262486,0.00826202,0.0041934,0.00968995,-0.00405279,1.24259,0.00815384,0.0138148,1987,1114,78.1203,-6.84747
770,-90,78.0098,6.24854,-0.0014244,0.0117286,0.00474126,0.0132595,-0.0029553,1.25848,0.00997183,0.0188225,1994,1114,78.0098,-6.24858
777,-90,77.855,5.66187,0.000613516,0.0154903,0.00528427,0.0171763,-0.0010724,1.26196,0.0118245,0.0177487,2001,1114,77.8549,-5.66183
784,-90,77.7332,5.05481,0.00371596,0.0194102,0.00588755,0.0213733,0.00175285,1.24896,0.013702,0.0294229,2008,1114,77.7331,-5.05476
791,-90,77.698,4.45837,0.00847751,0.0237005,0.00634431,0.0259979,0.00618017,1.22337,0.0156831,0.0426394,2015,1114,77.6981,-4.45842
798,-90,77.6558,3.82373,0,0,0,0,0,0,0,-1,2022,1114,77.6558,-3.82378
805,-90,79.4275,3.31421,0,0,0,0,0,0,0,-1,2029,1114,79.4275,-3.31424
812,-90,82.3345,1.68225,0,0,0,0,0,0,0,-1,2036,1114,82.3346,-1.6822
-700,-97,0,0,0,0,0,0,0,0,0,-1,524,1121,0,0
-693,-97,-57.4214,1.07739,-0.113795,-0.0550441,0.0984412,0.018311,-0.18715,0.930396,0.131297,0.0454418,531,1121,-57.4214,-1.07741
-686,-97,-58.2206,1.58679,-0.10162,-0.0353959,0.0905489,0.0279052,-0.164921,0.960687,0.120333,0.0466174,538,1121,-58.2206,-1.58677
-679,-97,-59.0819,1.98486,-0.0885572,-0.0224713,0.0790653,0.0301779,-0.141206,0.983327,0.105644,0.046662,545,1121,-59.0819,-1.98485
-672,-97,-59.7295,2.53711,-0.0755789,-0.0133519,0.0667765,0.0292038,-0.118135,1.00341,0.090083,0.0465242,552,1121,-59.7295,-2.53716
-665,-97,-60.4906,3.38428,0,0,0,0,0,0,0,-1,559,1121,-60.4906,-3.38428
-658,-97,-60.8432,4.17896,-0.0521899,-0.00203491,0.0433097,0.0229336,-0.0771585,1.04783,0.060549,0.0443102,566,1121,-60.8432,-4.17893
-651,-97,-61.0423,4.67493,-0.0416932,0.00127564,0.0325756,0.0188137,-0.0592312,1.07692,0.0470302,0.0409808,573,1121,-61.0423,-4.67499
-644,-97,-61.181,5.26855,-0.0321718,0.00320783,0.0228503,0.0144155,-0.0433795,1.11479,0.0347366,0.0177713,580,1121,-61.181,-5.26851
-637,-97,-61.2556,5.96997,-0.0232907,0.00488806,0.0139044,0.0105937,-0.0289964,1.1814,0.0236662,0.0170089,587,1121,-61.2555,-5.96993
-630,-97,-61.3206,6.6377,-0.0154001,0.00515756,0.0061112,0.00683704,-0.0170796,1.3026,0.0142241,0.0124414,594,1121,-61.3206,-6.63768
-623,-97,-61.3761,7.21179,-0.009831,0.00336216,0.000677454,0.00339686,-0.0098657,1.51963,0.00795496,0.0167575,601,1121,-61.3761,-7.21173
-616,-97,-61.483,7.93091,-0.00702054,0.00178219,-0.00117434,0.00193616,-0.00717452,-1.44043,0.0055423,0.0216776,608,1121,-61.483,-7.93086
-609,-97,-61.5636,8.65051,-0.00535848,0.000785913,-0.00138789,0.00108486,-0.00565743,-1.35864,0.00418043,0.0302065,615,1121,-61.5636,-8.65046
-602,-97,-61.6602,9.24023,-0.00460355,0.000411695,-0.0012499,0.000705934,-0.00489779,-1.3396,0.00352415,0.0321062,622,1121,-61.6602,-9.24018
-595,-97,-61.779,9.78601,-0.00397441,0.000227416,-0.00128208,0.000587716,-0.00433471,-1.29684,0.00310432,0.0326626,629,1121,-61.779,-9.78597
-588,-97,-62.3621,9.98938,0,0,0,0,0,0,0,-1,636,1121,-62.3621,-9.98934
-581,-97,-51.2355,3.23926,0,0,0,0,0,0,0,-1,643,1121,-51.2355,-3.23926
-574,-97,-66.0669,0.432739,0,0,0,0,0,0,0,-1,650,1121,-66.0669,-0.43268
-567,-97,-66.1102,0.479492,-0.00170605,-0.000862669,-0.000610292,-0.000542551,-0.00202617,-1.08772,0.00121114,0.0341331,657,1121,-66.1102,-0.479527
-560,-97,-66.1804,0.606445,-0.00114758,-0.00055628,-0.000442744,-0.000319546,-0.00138431,-1.07978,0.000836944,0.04026,664,1121,-66.1804,-0.606442
-553,-97,-66.1461,0.646362,-0.00160031,0.000310276,-0.000591945,0.000478808,-0.00176884,-1.29343,0.00136707,0.0455273,671,1121,-66.146,-0.646325
-546,-97,-65.9693,0.564453,-0.00258935,0.0013964,-0.000855208,0.00157215,-0.0027651,-1.36811,0.00253549,0.0431225,678,1121,-65.9693,-0.564443
-539,-97,-65.9258,0.452637,-0.00362176,0.00209814,-0.00133929,0.0023962,-0.00391981,-1.35182,0.00368175,0.040013,685,1121,-65.9258,-0.452616
-532,-97,-66.0283,0.412842,-0.00466655,0.00269546,-0.00167409,0.00305826,-0.00502935,-1.35738,0.00471538,0.0402456,692,1121,-66.0283,-0.412894
-525,-97,0,0,0,0,0,0,0,0,0,-1,699,1121,0,0
-518,-97,0,0,0,0,0,0,0,0,0,-1,706,1121,0,0
-511,-97,0,0,0,0,0,0,0,0,0,-1,713,1121,0,0
-504,-97,0,0,0,0,0,0,0,0,0,-1,720,1121,0,0
-497,-97,0,0,0,0,0,0,0,0,0,-1,727,1121,0,0
-490,-97,0,0,0,0,0,0,0,0,0,-1,734,1121,0,0
-483,-97,0,0,0,0,0,0,0,0,0,-1,741,1121,0,0
-476,-97,0,0,0,0,0,0,0,0,0,-1,748,1121,0,0
-469,-97,0,0,0,0,0,0,0,0,0,-1,755,1121,0,0
-462,-97,0,0,0,0,0,0,0,0,0,-1,762,1121,0,0
-455,-97,0,0,0,0,0,0,0,0,0,-1,769,1121,0,0
-448,-97,0,0,0,0,0,0,0,0,0,-1,776,1121,0,0
-441,-97,0,0,0,0,0,0,0,0,0,-1,783,1121,0,0
-434,-97,0,0,0,0,0,0,0,0,0,-1,790,1121,0,0
-427,-97,0,0,0,0,0,0,0,0,0,-1,797,1121,0,0
-420,-97,0,0,0,0,0,0,0,0,0,-1,804,1121,0,0
-413,-97,0,0,0,0,0,0,0,0,0,-1,811,1121,0,0
-406,-97,0,0,0,0,0,0,0,0,0,-1,818,1121,0,0
-399,-97,0,0,0,0,0,0,0,0,0,-1,825,1121,0,0
-392,-97,0,0,0,0,0,0,0,0,0,-1,832,1121,0,0
-385,-97,0,0,0,0,0,0,0,0,0,-1,839,1121,0,0
-378,-97,0,0,0,0,0,0,0,0,0,-1,846,1121,0,0
-371,-97,0,0,0,0,0,0,0,0,0,-1,853,1121,0,0
-364,-97,0,0,0,0,0,0,0,0,0,-1,860,1121,0,0
-357,-97,0,0,0,0,0,0,0,0,0,-1,867,1121,0,0
-350,-97,0,0,0,0,0,0,0,0,0,-1,874,1121,0,0
-343,-97,0,0,0,0,0,0,0,0,0,-1,881,1121,0,0
-336,-97,0,0,0,0,0,0,0,0,0,-1,888,1121,0,0
-329,-97,0,0,0,0,0,0,0,0,0,-1,895,1121,0,0
-322,-97,0,0,0,0,0,0,0,0,0,-1,902,1121,0,0
-315,-97,0,0,0,0,0,0,0,0,0,-1,909,1121,0,0
-308,-97,0,0,0,0,0,0,0,0,0,-1,916,1121,0,0
-301,-97,0,0,0,0,0,0,0,0,0,-1,923,1121,0,0
-294,-97,0,0,0,0,0,0,0,0,0,-1,930,1121,0,0
-287,-97,0,0,0,0,0,0,0,0,0,-1,937,1121,0,0
-280,-97,0,0,0,0,0,0,0,0,0,-1,944,1121,0,0
-273,-97,0,0,0,0,0,0,0,0,0,-1,951,1121,0,0
-266,-97,0,0,0,0,0,0,0,0,0,-1,958,1121,0,0
-259,-97,0,0,0,0,0,0,0,0,0,-1,965,1121,0,0
-252,-97,0,0,0,0,0,0,0,0,0,-1,972,1121,0,0
-245,-97,0,0,0,0,0,0,0,0,0,-1,979,1121,0,0
-238,-97,0,0,0,0,0,0,0,0,0,-1,986,1121,0,0
-231,-97,0,0,0,0,0,0,0,0,0,-1,993,1121,0,0
-224,-97,0,0,0,0,0,0,0,0,0,-1,1000,1121,0,0
-217,-97,0,0,0,0,0,0,0,0,0,-1,1007,1121,0,0
-210,-97,0,0,0,0,0,0,0,0,0,-1,1014,1121,0,0
-203,-97,0,0,0,0,0,0,0,0,0,-1,1021,1121,0,0
-196,-97,0,0,0,0,0,0,0,0,0,-1,1028,1121,0,0
-189,-97,0,0,0,0,0,0,0,0,0,-1,1035,1121,0,0
-182,-97,0,0,0,0,0,0,0,0,0,-1,1042,1121,0,0
-175,-97,0,0,0,0,0,0,0,0,0,-1,1049,1121,0,0
-168,-97,0,0,0,0,0,0,0,0,0,-1,1056,1121,0,0
-161,-97,0,0,0,0,0,0,0,0,0,-1,1063,1121,0,0
-154,-97,0,0,0,0,0,0,0,0,0,-1,1070,1121,0,0
-147,-97,0,0,0,0,0,0,0,0,0,-1,1077,1121,0,0
-140,-97,0,0,0,0,0,0,0,0,0,-1,1084,1121,0,0
-133,-97,0,0,0,0,0,0,0,0,0,-1,1091,1121,0,0
-126,-97,0,0,0,0,0,0,0,0,0,-1,1098,1121,0,0
-119,-97,0,0,0,0,0,0,0,0,0,-1,1105,1121,0,0
-112,-97,0,0,0,0,0,0,0,0,0,-1,1112,1121,0,0
-105,-97,0,0,0,0,0,0,0,0,0,-1,1119,1121,0,0
-98,-97,0,0,0,0,0,0,0,0,0,-1,1126,1121,0,0
-91,-97,0,0,0,0,0,0,0,0,0,-1,1133,1121,0,0
-84,-97,0,0,0,0,0,0,0,0,0,-1,1140,1121,0,0
-77,-97,0,0,0,0,0,0,0,0,0,-1,1147,1121,0,0
-70,-97,0,0,0,0,0,0,0,0,0,-1,1154,1121,0,0
-63,-97,0,0,0,0,0,0,0,0,0,-1,1161,1121,0,0
-56,-97,0,0,0,0,0,0,0,0,0,-1,1168,1121,0,0
-49,-97,0,0,0,0,0,0,0,0,0,-1,1175,1121,0,0
-42,-97,0,0,0,0,0,0,0,0,0,-1,1182,1121,0,0
-35,-97,0,0,0,0,0,0,0,0,0,-1,1189,1121,0,0
-28,-97,0,0,0,0,0,0,0,0,0,-1,1196,1121,0,0
-21,-97,0,0,0,0,0,0,0,0,0,-1,1203,1121,0,0
-14,-97,0,0,0,0,0,0,0,0,0,-1,1210,1121,0,0
-7,-97,0,0,0,0,0,0,0,0,0,-1,1217,1121,0,0
0,-97,0,0,0,0,0,0,0,0,0,-1,1224,1121,0,0
7,-97,0,0,0,0,0,0,0,0,0,-1,1231,1121,0,0
14,-97,0,0,0,0,0,0,0,0,0,-1,1238,1121,0,0
21,-97,0,0,0,0,0,0,0,0,0,-1,1245,1121,0,0
28,-97,0,0,0,0,0,0,0,0,0,-1,1252,1121,0,0
35,-97,0,0,0,0,0,0,0,0,0,-1,1259,1121,0,0
42,-97,0,0,0,0,0,0,0,0,0,-1,1266,1121,0,0
49,-97,0,0,0,0,0,0,0,0,0,-1,1273,1121,0,0
56,-97,0,0,0,0,0,0,0,0,0,-1,1280,1121,0,0
63,-97,0,0,0,0,0,0,0,0,0,-1,1287,1121,0,0
70,-97,0,0,0,0,0,0,0,0,0,-1,1294,1121,0,0
77,-97,0,0,0,0,0,0,0,0,0,-1,1301,1121,0,0
84,-97,0,0,0,0,0,0,0,0,0,-1,1308,1121,0,0
91,-97,0,0,0,0,0,0,0,0,0,-1,1315,1121,0,0
98,-97,0,0,0,0,0,0,0,0,0,-1,1322,1121,0,0
105,-97,0,0,0,0,0,0,0,0,0,-1,1329,1121,0,0
112,-97,0,0,0,0,0,0,0,0,0,-1,1336,1121,0,0
119,-97,0,0,0,0,0,0,0,0,0,-1,1343,1121,0,0
126,-97,0,0,0,0,0,0,0,0,0,-1,1350,1121,0,0
133,-97,0,0,0,0,0,0,0,0,0,-1,1357,1121,0,0
140,-97,0,0,0,0,0,0,0,0,0,-1,1364,1121,0,0
147,-97,0,0,0,0,0,0,0,0,0,-1,1371,1121,0,0
154,-97,0,0,0,0,0,0,0,0,0,-1,1378,1121,0,0
161,-97,0,0,0,0,0,0,0,0,0,-1,1385,1121,0,0
168,-97,0,0,0,0,0,0,0,0,0,-1,1392,1121,0,0
175,-97,0,0,0,0,0,0,0,0,0,-1,1399,1121,0,0
182,-97,0,0,0,0,0,0,0,0,0,-1,1406,1121,0,0
189,-97,0,0,0,0,0,0,0,0,0,-1,1413,1121,0,0
196,-97,0,0,0,0,0,0,0,0,0,-1,1420,1121,0,0
203,-97,0,0,0,0,0,0,0,0,0,-1,1427,1121,0,0
210,-97,0,0,0,0,0,0,0,0,0,-1,1434,1121,0,0
217,-97,0,0,0,0,0,0,0,0,0,-1,1441,1121,0,0
224,-97,0,0,0,0,0,0,0,0,0,-1,1448,1121,0,0
231,-97,0,0,0,0,0,0,0,0,0,-1,1455,1121,0,0
238,-97,0,0,0,0,0,0,0,0,0,-1,1462,1121,0,0
245,-97,0,0,0,0,0,0,0,0,0,-1,1469,1121,0,0
252,-97,0,0,0,0,0,0,0,0,0,-1,1476,1121,0,0
259,-97,0,0,0,0,0,0,0,0,0,-1,1483,1121,0,0
266,-97,0,0,0,0,0,0,0,0,0,-1,1490,1121,0,0
273,-97,0,0,0,0,0,0,0,0,0,-1,1497,1121,0,0
280,-97,0,0,0,0,0,0,0,0,0,-1,1504,1121,0,0
287,-97,0,0,0,0,0,0,0,0,0,-1,1511,1121,0,0
294,-97,0,0,0,0,0,0,0,0,0,-1,1518,1121,0,0
301,-97,0,0,0,0,0,0,0,0,0,-1,1525,1121,0,0
308,-97,0,0,0,0,0,0,0,0,0,-1,1532,1121,0,0
315,-97,0,0,0,0,0,0,0,0,0,-1,1539,1121,0,0
322,-97,0,0,0,0,0,0,0,0,0,-1,1546,1121,0,0
329,-97,0,0,0,0,0,0,0,0,0,-1,1553,1121,0,0
336,-97,0,0,0,0,0,0,0,0,0,-1,1560,1121,0,0
343,-97,0,0,0,0,0,0,0,0,0,-1,1567,1121,0,0
350,-97,0,0,0,0,0,0,0,0,0,-1,1574,1121,0,0
357,-97,0,0,0,0,0,0,0,0,0,-1,1581,1121,0,0
364,-97,0,0,0,0,0,0,0,0,0,-1,1588,1121,0,0
371,-97,0,0,0,0,0,0,0,0,0,-1,1595,1121,0,0
378,-97,0,0,0,0,0,0,0,0,0,-1,1602,1121,0,0
385,-97,0,0,0,0,0,0,0,0,0,-1,1609,1121,0,0
392,-97,0,0,0,0,0,0,0,0,0,-1,1616,1121,0,0
399,-97,0,0,0,0,0,0,0,0,0,-1,1623,1121,0,0
406,-97,0,0,0,0,0,0,0,0,0,-1,1630,1121,0,0
413,-97,0,0,0,0,0,0,0,0,0,-1,1637,1121,0,0
420,-97,0,0,0,0,0,0,0,0,0,-1,1644,1121,0,0
427,-97,0,0,0,0,0,0,0,0,0,-1,1651,1121,0,0
434,-97,0,0,0,0,0,0,0,0,0,-1,1658,1121,0,0
441,-97,0,0,0,0,0,0,0,0,0,-1,1665,1121,0,0
448,-97,0,0,0,0,0,0,0,0,0,-1,1672,1121,0,0
455,-97,0,0,0,0,0,0,0,0,0,-1,1679,1121,0,0
462,-97,0,0,0,0,0,0,0,0,0,-1,1686,1121,0,0
469,-97,0,0,0,0,0,0,0,0,0,-1,1693,1121,0,0
476,-97,0,0,0,0,0,0,0,0,0,-1,1700,1121,0,0
483,-97,0,0,0,0,0,0,0,0,0,-1,1707,1121,0,0
490,-97,0,0,0,0,0,0,0,0,0,-1,1714,1121,0,0
497,-97,0,0,0,0,0,0,0,0,0,-1,1721,1121,0,0
504,-97,0,0,0,0,0,0,0,0,0,-1,1728,1121,0,0
511,-97,0,0,0,0,0,0,0,0,0,-1,1735,1121,0,0
518,-97,0,0,0,0,0,0,0,0,0,-1,1742,1121,0,0
525,-97,0,0,0,0,0,0,0,0,0,-1,1749,1121,0,0
532,-97,0,0,0,0,0,0,0,0,0,-1,1756,1121,0,0
539,-97,0,0,0,0,0,0,0,0,0,-1,1763,1121,0,0
546,-97,0,0,0,0,0,0,0,0,0,-1,1770,1121,0,0
553,-97,0,0,0,0,0,0,0,0,0,-1,1777,1121,0,0
560,-97,0,0,0,0,0,0,0,0,0,-1,1784,1121,0,0
567,-97,0,0,0,0,0,0,0,0,0,-1,1791,1121,0,0
574,-97,0,0,0,0,0,0,0,0,0,-1,1798,1121,0,0
581,-97,0,0,0,0,0,0,0,0,0,-1,1805,1121,0,0
588,-97,0,0,0,0,0,0,0,0,0,-1,1812,1121,0,0
595,-97,0,0,0,0,0,0,0,0,0,-1,1819,1121,0,0
602,-97,0,0,0,0,0,0,0,0,0,-1,1826,1121,0,0
609,-97,0,0,0,0,0,0,0,0,0,-1,1833,1121,0,0
616,-97,0,0,0,0,0,0,0,0,0,-1,1840,1121,0,0
623,-97,0,0,0,0,0,0,0,0,0,-1,1847,1121,0,0
630,-97,0,0,0,0,0,0,0,0,0,-1,1854,1121,0,0
637,-97,0,0,0,0,0,0,0,0,0,-1,1861,1121,0,0
644,-97,83.0339,2.65564,0.00252741,-0.00567994,-0.00682775,0.00638981,-0.00954234,-0.51481,0.00925826,0.0372082,1868,1121,83.0339,-2.6557
651,-97,83.0765,2.50415,0.00178789,-0.00483481,-0.00500973,0.00448174,-0.00752866,-0.493369,0.00700819,0.0374458,1875,1121,83.0765,-2.50413
658,-97,83.1587,2.28516,0.00137291,-0.00398967,-0.00375404,0.00330488,-0.00592164,-0.475288,0.00539787,0.0375247,1882,1121,83.1587,-2.2852
665,-97,83.176,2.26489,0.000981971,-0.00307254,-0.00278136,0.00239647,-0.00448705,-0.470477,0.00403483,0.0411042,1889,1121,83.176,-2.26492
672,-97,83.251,2.10095,0.000621633,-0.00208998,-0.00201683,0.00169602,-0.00316436,-0.489471,0.0028485,0.043341,1896,1121,83.2509,-2.10091
679,-97,83.1969,2.31177,0.000422618,-0.00133813,-0.00138265,0.00118138,-0.0020969,-0.501903,0.00191716,0.0413068,1903,1121,83.1969,-2.31173
686,-97,83.183,2.44946,0.000269341,-0.000976584,-0.00108048,0.000893586,-0.00160083,-0.523895,0.00145932,0.0366517,1910,1121,83.1829,-2.4495
693,-97,83.1825,2.30566,0.000181905,-0.000918798,-0.000751981,0.000563414,-0.00130031,-0.4695,0.0011037,0.03458,1917,1121,83.1825,-2.30568
700,-97,83.095,2.3031,0.000250325,-0.000879793,-0.000392551,0.000373298,-0.00100277,-0.303583,0.000821711,0.0287694,1924,1121,83.095,-2.30312
707,-97,83.1133,2.22437,4.09047e-05,-0.000650417,5.09304e-05,4.46366e-05,-0.000654149,0.0731449,0.000451714,0.0295319,1931,1121,83.1133,-2.22436
714,-97,83.1409,2.08362,0,0,0,0,0,0,0,-1,1938,1121,83.1409,-2.08363
721,-97,76.7086,10.08,0,0,0,0,0,0,0,-1,1945,1121,76.7086,-10.0799
728,-97,77.8583,9.62671,0,0,0,0,0,0,0,-1,1952,1121,77.8582,-9.62672
735,-97,77.5042,9.29517,-0.0018664,0.00158741,0.00148336,0.00213703,-0.00241601,1.21596,0.00263035,0.0343972,1959,1121,77.5042,-9.29522
742,-97,77.4161,8.70801,-0.00190297,0.00233714,0.00205043,0.00316647,-0.0027323,1.18644,0.00340873,0.029401,1966,1121,77.4161,-8.70801
749,-97,77.5337,8.05676,-0.00236233,0.00330686,0.00287966,0.00451298,-0.00356845,1.17415,0.00467643,0.0263675,1973,1121,77.5337,-8.05676
756,-97,77.5461,7.41797,-0.00281919,0.00506702,0.00371615,0.0065422,-0.00429438,1.19291,0.00630121,0.0177343,1980,1121,77.5461,-7.41797
763,-97,77.4043,6.84106,-0.00266816,0.00767342,0.00450721,0.00936207,-0.00435681,1.21233,0.00809442,0.0151024,1987,1121,77.4044,-6.84105
770,-97,77.2876,6.26685,-0.00186078,0.0108834,0.00532802,0.0128174,-0.00379479,1.2226,0.0100516,0.0149063,1994,1121,77.2876,-6.26685
777,-97,77.2031,5.64246,-0.000338326,0.0143092,0.00621836,0.0165931,-0.00262214,1.21882,0.0120317,0.0200841,2001,1121,77.2031,-5.6425
784,-97,77.127,4.98743,0.00221895,0.0178776,0.00727385,0.0207351,-0.000638495,1.19648,0.0140411,0.0388935,2008,1121,77.1271,-4.98743
791,-97,77.1047,4.41846,0.00633203,0.0219031,0.00827776,0.0254814,0.00275377,1.16278,0.0161481,0.0427823,2015,1121,77.1048,-4.4185
798,-97,77.0774,3.88867,0,0,0,0,0,0,0,-1,2022,1121,77.0774,-3.88862
805,-97,78.6436,3.48083,0,0,0,0,0,0,0,-1,2029,1121,78.6436,-3.48089
812,-97,79.4207,2.91211,0,0,0,0,0,0,0,-1,2036,1121,79.4207,-2.91217
-700,-104,0,0,0,0,0,0,0,0,0,-1,524,1128,0,0
-693,-104,-57.3152,1.21252,0,0,0,0,0,0,0,-1,531,1128,-57.3152,-1.21248
-686,-104,-59.069,1.18176,0,0,0,0,0,0,0,-1,538,1128,-59.069,-1.18178
-679,-104,-59.6436,1.91064,-0.0908504,-0.0168564,0.0794042,0.0337469,-0.141454,1.00341,0.107335,0.0498466,545,1128,-59.6436,-1.91063
-672,-104,-60.2039,2.65051,-0.0777111,-0.0090618,0.0671049,0.0319876,-0.118761,1.0218,0.0917149,0.048915,552,1128,-60.204,-2.65051
-665,-104,-60.9187,3.28552,0,0,0,0,0,0,0,-1,559,1128,-60.9187,-3.28558
-658,-104,-60.5746,4.04102,-0.0538259,0.000273529,0.0434672,0.0244203,-0.0779727,1.06373,0.061753,0.0477948,566,1128,-60.5746,-4.04099
-651,-104,-60.2917,4.60901,-0.0430084,0.00291178,0.0325681,0.0197995,-0.0598961,1.09243,0.0479142,0.0489895,573,1128,-60.2917,-4.60896
-644,-104,-60.4061,5.2594,-0.0331679,0.00434832,0.022657,0.0150046,-0.0438242,1.13116,0.0352972,0.0183373,580,1128,-60.4061,-5.25939
-637,-104,-60.5012,5.95679,-0.0240257,0.00556158,0.0135117,0.0108034,-0.0292675,1.20073,0.0239396,0.0142242,587,1128,-60.5012,-5.95683
-630,-104,-60.5511,6.55945,-0.0159675,0.00529969,0.00556874,0.00666961,-0.0173374,1.32958,0.0143093,0.0213025,594,1128,-60.5511,-6.55939
-623,-104,-60.6948,7.2085,-0.0102788,0.00336352,5.65356e-05,0.00336375,-0.0102791,1.56665,0.00820704,0.0235294,601,1128,-60.6948,-7.20855
-616,-104,-61.072,8.04285,-0.00795591,0.00171928,-0.00115138,0.00185441,-0.00809104,-1.45397,0.00610675,0.0327764,608,1128,-61.072,-8.04284
-609,-104,-61.2073,8.62134,-0.00645249,0.000948591,-0.00122488,0.00114604,-0.00664994,-1.41097,0.00486056,0.0436457,615,1128,-61.2073,-8.62131
-602,-104,-61.1923,9.24146,0,0,0,0,0,0,0,-1,622,1128,-61.1923,-9.24149
-595,-104,-60.9033,10.0983,0,0,0,0,0,0,0,-1,629,1128,-60.9033,-10.0982
-588,-104,-61.2274,10.8838,0,0,0,0,0,0,0,-1,636,1128,-61.2274,-10.8838
-581,-104,-23.9373,2.85864,0,0,0,0,0,0,0,-1,643,1128,-23.9373,-2.85861
-574,-104,-66.0265,0.411133,0,0,0,0,0,0,0,-1,650,1128,-66.0265,-0.411137
-567,-104,-66.0063,0.494507,-0.0023651,-0.000507342,-0.000885474,-0.000152913,-0.00271953,-1.19006,0.00176426,0.0352272,657,1128,-66.0063,-0.494543
-560,-104,-66.1857,0.701294,-0.00141387,-0.000409572,-0.000656039,-8.55597e-05,-0.00173788,-1.11205,0.00113114,0.0408114,664,1128,-66.1857,-0.701234
-553,-104,-66.349,0.572021,-0.00169707,0.000264876,-0.000903699,0.000617687,-0.00204988,-1.19859,0.00161242,0.0470741,671,1128,-66.349,-0.572019
-546,-104,-65.9107,0.300049,0,0,0,0,0,0,0,-1,678,1128,-65.9107,-0.300037
-539,-104,-65.9177,0.415527,-0.00372883,0.00168282,-0.00185477,0.00225749,-0.00430351,-1.27034,0.0038489,0.0404584,685,1128,-65.9177,-0.4155
-532,-104,-65.99,0.520874,-0.00484046,0.00211513,-0.00226584,0.00278813,-0.00551346,-1.28208,0.00487826,0.0426626,692,1128,-65.99,-0.520931
-525,-104,-66.0743,0.55542,-0.00598956,0.00253136,-0.00242778,0.00317454,-0.00663274,-1.31182,0.00577838,0.0392368,699,1128,-66.0743,-0.555448
-518,-104,0,0,0,0,0,0,0,0,0,-1,706,1128,0,0
-511,-104,0,0,0,0,0,0,0,0,0,-1,713,1128,0,0
-504,-104,0,0,0,0,0,0,0,0,0,-1,720,1128,0,0
-497,-104,0,0,0,0,0,0,0,0,0,-1,727,1128,0,0
-490,-104,0,0,0,0,0,0,0,0,0,-1,734,1128,0,0
-483,-104,0,0,0,0,0,0,0,0,0,-1,741,1128,0,0
-476,-104,0,0,0,0,0,0,0,0,0,-1,748,1128,0,0
-469,-104,0,0,0,0,0,0,0,0,0,-1,755,1128,0,0
-462,-104,0,0,0,0,0,0,0,0,0,-1,762,1128,0,0
-455,-104,0,0,0,0,0,0,0,0,0,-1,769,1128,0,0
-448,-104,0,0,0,0,0,0,0,0,0,-1,776,1128,0,0
-441,-104,0,0,0,0,0,0,0,0,0,-1,783,1128,0,0
-434,-104,0,0,0,0,0,0,0,0,0,-1,790,1128,0,0
-427,-104,0,0,0,0,0,0,0,0,0,-1,797,1128,0,0
-420,-104,0,0,0,0,0,0,0,0,0,-1,804,1128,0,0
-413,-104,0,0,0,0,0,0,0,0,0,-1,811,1128,0,0
-406,-104,0,0,0,0,0,0,0,0,0,-1,818,1128,0,0
-399,-104,0,0,0,0,0,0,0,0,0,-1,825,1128,0,0
-392,-104,0,0,0,0,0,0,0,0,0,-1,832,1128,0,0
-385,-104,0,0,0,0,0,0,0,0,0,-1,839,1128,0,0
-378,-104,0,0,0,0,0,0,0,0,0,-1,846,1128,0,0
-371,-104,0,0,0,0,0,0,0,0,0,-1,853,1128,0,0
-364,-104,0,0,0,0,0,0,0,0,0,-1,860,1128,0,0
-357,-104,0,0,0,0,0,0,0,0,0,-1,867,1128,0,0
-350,-104,0,0,0,0,0,0,0,0,0,-1,874,1128,0,0
-343,-104,0,0,0,0,0,0,0,0,0,-1,881,1128,0,0
-336,-104,0,0,0,0,0,0,0,0,0,-1,888,1128,0,0
-329,-104,0,0,0,0,0,0,0,0,0,-1,895,1128,0,0
-322,-104,0,0,0,0,0,0,0,0,0,-1,902,1128,0,0
-315,-104,0,0,0,0,0,0,0,0,0,-1,909,1128,0,0
-308,-104,0,0,0,0,0,0,0,0,0,-1,916,1128,0,0
-301,-104,0,0,0,0,0,0,0,0,0,-1,923,1128,0,0
-294,-104,0,0,0,0,0,0,0,0,0,-1,930,1128,0,0
-287,-104,0,0,0,0,0,0,0,0,0,-1,937,1128,0,0
-280,-104,0,0,0,0,0,0,0,0,0,-1,944,1128,0,0
-273,-104,0,0,0,0,0,0,0,0,0,-1,951,1128,0,0
-266,-104,0,0,0,0,0,0,0,0,0,-1,958,1128,0,0
-259,-104,0,0,0,0,0,0,0,0,0,-1,965,1128,0,0
-252,-104,0,0,0,0,0,0,0,0,0,-1,972,1128,0,0
-245,-104,0,0,0,0,0,0,0,0,0,-1,979,1128,0,0
-238,-104,0,0,0,0,0,0,0,0,0,-1,986,1128,0,0
-231,-104,0,0,0,0,0,0,0,0,0,-1,993,1128,0,0
-224,-104,0,0,0,0,0,0,0,0,0,-1,1000,1128,0,0
-217,-104,0,0,0,0,0,0,0,0,0,-1,1007,1128,0,0
-210,-104,0,0,0,0,0,0,0,0,0,-1,1014,1128,0,0
-203,-104,0,0,0,0,0,0,0,0,0,-1,1021,1128,0,0
-196,-104,0,0,0,0,0,0,0,0,0,-1,1028,1128,0,0
-189,-104,0,0,0,0,0,0,0,0,0,-1,1035,1128,0,0
-182,-104,0,0,0,0,0,0,0,0,0,-1,1042,1128,0,0
-175,-104,0,0,0,0,0,0,0,0,0,-1,1049,1128,0,0
-168,-104,0,0,0,0,0,0,0,0,0,-1,1056,1128,0,0
-161,-104,0,0,0,0,0,0,0,0,0,-1,1063,1128,0,0
-154,-104,0,0,0,0,0,0,0,0,0,-1,1070,1128,0,0
-147,-104,0,0,0,0,0,0,0,0,0,-1,1077,1128,0,0
-140,-104,0,0,0,0,0,0,0,0,0,-1,1084,1128,0,0
-133,-104,0,0,0,0,0,0,0,0,0,-1,1091,1128,0,0
-126,-104,0,0,0,0,0,0,0,0,0,-1,1098,1128,0,0
-119,-104,0,0,0,0,0,0,0,0,0,-1,1105,1128,0,0
-112,-104,0,0,0,0,0,0,0,0,0,-1,1112,1128,0,0
-105,-104,0,0,0,0,0,0,0,0,0,-1,1119,1128,0,0
-98,-104,0,0,0,0,0,0,0,0,0,-1,1126,1128,0,0
-91,-104,0,0,0,0,0,0,0,0,0,-1,1133,1128,0,0
-84,-104,0,0,0,0,0,0,0,0,0,-1,1140,1128,0,0
-77,-104,0,0,0,0,0,0,0,0,0,-1,1147,1128,0,0
-70,-104,0,0,0,0,0,0,0,0,0,-1,1154,1128,0,0
-63,-104,0,0,0,0,0,0,0,0,0,-1,1161,1128,0,0
-56,-104,0,0,0,0,0,0,0,0,0,-1,1168,1128,0,0
-49,-104,0,0,0,0,0,0,0,0,0,-1,1175,1128,0,0
-42,-104,0,0,0,0,0,0,0,0,0,-1,1182,1128,0,0
-35,-104,0,0,0,0,0,0,0,0,0,-1,1189,1128,0,0
-28,-104,0,0,0,0,0,0,0,0,0,-1,1196,1128,0,0
-21,-104,0,0,0,0,0,0,0,0,0,-1,1203,1128,0,0
-14,-104,0,0,0,0,0,0,0,0,0,-1,1210,1128,0,0
-7,-104,0,0,0,0,0,0,0,0,0,-1,1217,1128,0,0
0,-104,0,0,0,0,0,0,0,0,0,-1,1224,1128,0,0
7,-104,0,0,0,0,0,0,0,0,0,-1,1231,1128,0,0
14,-104,0,0,0,0,0,0,0,0,0,-1,1238,1128,0,0
21,-104,0,0,0,0,0,0,0,0,0,-1,1245,1128,0,0
28,-104,0,0,0,0,0,0,0,0,0,-1,1252,1128,0,0
35,-104,0,0,0,0,0,0,0,0,0,-1,1259,1128,0,0
42,-104,0,0,0,0,0,0,0,0,0,-1,1266,1128,0,0
49,-104,0,0,0,0,0,0,0,0,0,-1,1273,1128,0,0
56,-104,0,0,0,0,0,0,0,0,0,-1,1280,1128,0,0
63,-104,0,0,0,0,0,0,0,0,0,-1,1287,1128,0,0
70,-104,0,0,0,0,0,0,0,0,0,-1,1294,1128,0,0
77,-104,0,0,0,0,0,0,0,0,0,-1,1301,1128,0,0
84,-104,0,0,0,0,0,0,0,0,0,-1,1308,1128,0,0
91,-104,0,0,0,0,0,0,0,0,0,-1,1315,1128,0,0
98,-104,0,0,0,0,0,0,0,0,0,-1,1322,1128,0,0
105,-104,0,0,0,0,0,0,0,0,0,-1,1329,1128,0,0
112,-104,0,0,0,0,0,0,0,0,0,-1,1336,1128,0,0
119,-104,0,0,0,0,0,0,0,0,0,-1,1343,1128,0,0
126,-104,0,0,0,0,0,0,0,0,0,-1,1350,1128,0,0
133,-104,0,0,0,0,0,0,0,0,0,-1,1357,1128,0,0
140,-104,0,0,0,0,0,0,0,0,0,-1,1364,1128,0,0
147,-104,0,0,0,0,0,0,0,0,0,-1,1371,1128,0,0
154,-104,0,0,0,0,0,0,0,0,0,-1,1378,1128,0,0
161,-104,0,0,0,0,0,0,0,0,0,-1,1385,1128,0,0
168,-104,0,0,0,0,0,0,0,0,0,-1,1392,1128,0,0
175,-104,0,0,0,0,0,0,0,0,0,-1,1399,1128,0,0
182,-104,0,0,0,0,0,0,0,0,0,-1,1406,1128,0,0
189,-104,0,0,0,0,0,0,0,0,0,-1,1413,1128,0,0
196,-104,0,0,0,0,0,0,0,0,0,-1,1420,1128,0,0
203,-104,0,0,0,0,0,0,0,0,0,-1,1427,1128,0,0
210,-104,0,0,0,0,0,0,0,0,0,-1,1434,1128,0,0
217,-104,0,0,0,0,0,0,0,0,0,-1,1441,1128,0,0
224,-104,0,0,0,0,0,0,0,0,0,-1,1448,1128,0,0
231,-104,0,0,0,0,0,0,0,0,0,-1,1455,1128,0,0
238,-104,0,0,0,0,0,0,0,0,0,-1,1462,1128,0,0
245,-104,0,0,0,0,0,0,0,0,0,-1,1469,1128,0,0
252,-104,0,0,0,0,0,0,0,0,0,-1,1476,1128,0,0
259,-104,0,0,0,0,0,0,0,0,0,-1,1483,1128,0,0
266,-104,0,0,0,0,0,0,0,0,0,-1,1490,1128,0,0
273,-104,0,0,0,0,0,0,0,0,0,-1,1497,1128,0,0
280,-104,0,0,0,0,0,0,0,0,0,-1,1504,1128,0,0
287,-104,0,0,0,0,0,0,0,0,0,-1,1511,1128,0,0
294,-104,0,0,0,0,0,0,0,0,0,-1,1518,1128,0,0
301,-104,0,0,0,0,0,0,0,0,0,-1,1525,1128,0,0
308,-104,0,0,0,0,0,0,0,0,0,-1,1532,1128,0,0
315,-104,0,0,0,0,0,0,0,0,0,-1,1539,1128,0,0
322,-104,0,0,0,0,0,0,0,0,0,-1,1546,1128,0,0
329,-104,0,0,0,0,0,0,0,0,0,-1,1553,1128,0,0
336,-104,0,0,0,0,0,0,0,0,0,-1,1560,1128,0,0
343,-104,0,0,0,0,0,0,0,0,0,-1,1567,1128,0,0
350,-104,0,0,0,0,0,0,0,0,0,-1,1574,1128,0,0
357,-104,0,0,0,0,0,0,0,0,0,-1,1581,1128,0,0
364,-104,0,0,0,0,0,0,0,0,0,-1,1588,1128,0,0
371,-104,0,0,0,0,0,0,0,0,0,-1,1595,1128,0,0
378,-104,0,0,0,0,0,0,0,0,0,-1,1602,1128,0,0
385,-104,0,0,0,0,0,0,0,0,0,-1,1609,1128,0,0
392,-104,0,0,0,0,0,0,0,0,0,-1,1616,1128,0,0
399,-104,0,0,0,0,0,0,0,0,0,-1,1623,1128,0,0
406,-104,0,0,0,0,0,0,0,0,0,-1,1630,1128,0,0
413,-104,0,0,0,0,0,0,0,0,0,-1,1637,1128,0,0
420,-104,0,0,0,0,0,0,0,0,0,-1,1644,1128,0,0
427,-104,0,0,0,0,0,0,0,0,0,-1,1651,1128,0,0
434,-104,0,0,0,0,0,0,0,0,0,-1,1658,1128,0,0
441,-104,0,0,0,0,0,0,0,0,0,-1,1665,1128,0,0
448,-104,0,0,0,0,0,0,0,0,0,-1,1672,1128,0,0
455,-104,0,0,0,0,0,0,0,0,0,-1,1679,1128,0,0
462,-104,0,0,0,0,0,0,0,0,0,-1,1686,1128,0,0
469,-104,0,0,0,0,0,0,0,0,0,-1,1693,1128,0,0
476,-104,0,0,0,0,0,0,0,0,0,-1,1700,1128,0,0
483,-104,0,0,0,0,0,0,0,0,0,-1,1707,1128,0,0
490,-104,0,0,0,0,0,0,0,0,0,-1,1714,1128,0,0
497,-104,0,0,0,0,0,0,0,0,0,-1,1721,1128,0,0
504,-104,0,0,0,0,0,0,0,0,0,-1,1728,1128,0,0
511,-104,0,0,0,0,0,0,0,0,0,-1,1735,1128,0,0
518,-104,0,0,0,0,0,0,0,0,0,-1,1742,1128,0,0
525,-104,0,0,0,0,0,0,0,0,0,-1,1749,1128,0,0
532,-104,0,0,0,0,0,0,0,0,0,-1,1756,1128,0,0
539,-104,0,0,0,0,0,0,0,0,0,-1,1763,1128,0,0
546,-104,0,0,0,0,0,0,0,0,0,-1,1770,1128,0,0
553,-104,0,0,0,0,0,0,0,0,0,-1,1777,1128,0,0
560,-104,0,0,0,0,0,0,0,0,0,-1,1784,1128,0,0
567,-104,0,0,0,0,0,0,0,0,0,-1,1791,1128,0,0
574,-104,0,0,0,0,0,0,0,0,0,-1,1798,1128,0,0
581,-104,0,0,0,0,0,0,0,0,0,-1,1805,1128,0,0
588,-104,0,0,0,0,0,0,0,0,0,-1,1812,1128,0,0
595,-104,0,0,0,0,0,0,0,0,0,-1,1819,1128,0,0
602,-104,0,0,0,0,0,0,0,0,0,-1,1826,1128,0,0
609,-104,0,0,0,0,0,0,0,0,0,-1,1833,1128,0,0
616,-104,0,0,0,0,0,0,0,0,0,-1,1840,1128,0,0
623,-104,0,0,0,0,0,0,0,0,0,-1,1847,1128,0,0
630,-104,0,0,0,0,0,0,0,0,0,-1,1854,1128,0,0
637,-104,0,0,0,0,0,0,0,0,0,-1,1861,1128,0,0
644,-104,83.0541,2.70557,0.00214741,-0.00461183,-0.0063534,0.00596414,-0.00842856,-0.540963,0.00835014,0.0379393,1868,1128,83.0541,-2.70562
651,-104,83.0596,2.47864,0.00153802,-0.0039868,-0.00465063,0.0041848,-0.00663357,-0.517405,0.0062991,0.0397224,1875,1128,83.0596,-2.47864
658,-104,83.1251,2.32092,0.00119352,-0.00332599,-0.00345023,0.00305816,-0.00519063,-0.495472,0.00481519,0.0413148,1882,1128,83.1252,-2.32094
665,-104,83.1819,2.3739,0.00084048,-0.00256074,-0.00249197,0.00215682,-0.00387708,-0.485978,0.00353056,0.0424229,1889,1128,83.1819,-2.37392
672,-104,83.2435,2.31177,0.00050428,-0.00172312,-0.0017319,0.00144966,-0.00266849,-0.49966,0.00241208,0.0421055,1896,1128,83.2436,-2.31176
679,-104,83.0999,2.24414,0.000361138,-0.00117786,-0.00107824,0.000916304,-0.00173303,-0.475481,0.00155363,0.0412694,1903,1128,83.0999,-2.24419
686,-104,83.0549,2.37585,0.000299562,-0.000924109,-0.000784573,0.000682663,-0.00130721,-0.454237,0.00116756,0.0414754,1910,1128,83.055,-2.37584
693,-104,83.1085,2.29712,0.000253935,-0.000908728,-0.000465301,0.000417219,-0.00107201,-0.337494,0.000887078,0.0357411,1917,1128,83.1085,-2.29714
700,-104,83.1207,2.2749,0.000344162,-0.00091449,-0.000131605,0.000357775,-0.000928103,-0.103075,0.000766357,0.0251859,1924,1128,83.1207,-2.27491
707,-104,83.1377,2.29224,0,0,0,0,0,0,0,-1,1931,1128,83.1377,-2.29225
714,-104,45.5221,2.32166,0,0,0,0,0,0,0,-1,1938,1128,45.5221,-2.3216
721,-104,73.8613,10.292,0,0,0,0,0,0,0,-1,1945,1128,73.8613,-10.292
728,-104,77.3169,9.93542,0,0,0,0,0,0,0,-1,1952,1128,77.317,-9.93544
735,-104,77.1405,9.30908,-0.00152703,0.00133367,0.00160593,0.00205388,-0.00224724,1.14922,0.00248409,0.0441847,1959,1128,77.1405,-9.30909
742,-104,76.8866,8.72668,-0.00165636,0.00199323,0.0021585,0.00299491,-0.00265804,1.13631,0.00326567,0.0285209,1966,1128,76.8865,-8.72667
749,-104,76.7551,8.11719,-0.00218204,0.00292582,0.00300357,0.00431447,-0.00357069,1.13773,0.00455925,0.0256242,1973,1128,76.755,-8.11715
756,-104,76.7754,7.46375,-0.00282293,0.00466621,0.00388782,0.0063195,-0.00447623,1.16871,0.00626313,0.0187752,1980,1128,76.7754,-7.46371
763,-104,76.6804,6.8429,-0.00299601,0.00717661,0.00478895,0.00907633,-0.00489573,1.19315,0.00818625,0.0209771,1987,1128,76.6805,-6.84287
770,-104,76.5686,6.25806,-0.00269803,0.010137,0.00579615,0.012367,-0.00492805,1.20351,0.0102886,0.0191313,1994,1128,76.5686,-6.25807
777,-104,76.4434,5.59521,-0.00180906,0.0132503,0.00693581,0.0159578,-0.00451665,1.19861,0.0124209,0.0285912,2001,1128,76.4434,-5.5952
784,-104,76.4282,5.11182,2.4887e-05,0.0164617,0.00835685,0.0199642,-0.00347759,1.17392,0.0146073,0.0430651,2008,1128,76.4283,-5.1118
791,-104,76.407,4.70361,0.00321235,0.0201687,0.00983602,0.0246762,-0.0012951,1.14109,0.016899,0.0441701,2015,1128,76.407,-4.7036
798,-104,76.209,4.25049,0,0,0,0,0,0,0,-1,2022,1128,76.209,-4.25052
805,-104,76.146,3.59351,0,0,0,0,0,0,0,-1,2029,1128,76.146,-3.59353
812,-104,79.2007,2.79309,0,0,0,0,0,0,0,-1,2036,1128,79.2007,-2.79307
-700,-111,0,0,0,0,0,0,0,0,0,-1,524,1135,0,0
-693,-111,-58.0232,-0.0303955,0,0,0,0,0,0,0,-1,531,1135,-58.0232,0.0303774
-686,-111,-59.0149,0.64209,0,0,0,0,0,0,0,-1,538,1135,-59.0149,-0.642104
-679,-111,-60.0935,1.98438,0,0,0,0,0,0,0,-1,545,1135,-60.0935,-1.98438
-672,-111,-60.6979,2.68494,-0.0794051,-0.00278055,0.0670312,0.0361148,-0.1183,1.04502,0.0932658,0.0472965,552,1135,-60.6979,-2.68494
-665,-111,-61.8611,3.57849,-0.0668768,0.00123675,0.0549787,0.0318524,-0.0974924,1.0627,0.0778166,0.0459269,559,1135,-61.861,-3.57847
-658,-111,-59.9505,4.25061,0,0,0,0,0,0,0,-1,566,1135,-59.9505,-4.25058
-651,-111,-59.4497,4.46814,0,0,0,0,0,0,0,-1,573,1135,-59.4497,-4.46815
-644,-111,-59.5747,5.18799,-0.0338263,0.00616799,0.0221797,0.0160343,-0.0436926,1.15225,0.0356945,0.0299249,580,1135,-59.5747,-5.18794
-637,-111,-59.7512,5.95117,-0.0244631,0.0066182,0.0128158,0.0112209,-0.0290658,1.226,0.0240081,0.0151484,587,1135,-59.7512,-5.95118
-630,-111,-59.8215,6.50647,-0.0162585,0.00560241,0.00466642,0.00655683,-0.0172129,1.36905,0.0141757,0.0329863,594,1135,-59.8215,-6.50644
-623,-111,-59.8539,7.28064,-0.0104343,0.00333062,-0.00107025,0.00341333,-0.0105171,-1.49366,0.00838405,0.0289966,601,1135,-59.8539,-7.2807
-616,-111,-60.2915,7.99487,-0.00857103,0.00152877,-0.00176464,0.00182821,-0.00887046,-1.40271,0.00660789,0.0358137,608,1135,-60.2915,-7.99484
-609,-111,-60.5137,8.61682,-0.00738743,0.000939076,-0.00147242,0.00119178,-0.00764013,-1.40083,0.00553363,0.0421142,615,1135,-60.5137,-8.61677
-602,-111,-60.398,9.18823,0,0,0,0,0,0,0,-1,622,1135,-60.398,-9.18828
-595,-111,-60.0704,10.1689,0,0,0,0,0,0,0,-1,629,1135,-60.0704,-10.169
-588,-111,-59.7427,11.1497,0,0,0,0,0,0,0,-1,636,1135,-59.7427,-11.1497
-581,-111,-21.0555,3.14551,0,0,0,0,0,0,0,-1,643,1135,-21.0555,-3.14548
-574,-111,-65.986,0.303711,0,0,0,0,0,0,0,-1,650,1135,-65.986,-0.303668
-567,-111,-65.9697,0.411133,-0.00298057,0.00056045,-0.00144486,0.00107518,-0.0034953,-1.22857,0.00275932,0.0386107,657,1135,-65.9696,-0.411077
-560,-111,-66.0657,0.628174,-0.00152873,0.000600832,-0.00110865,0.00107321,-0.00200111,-1.16801,0.00180171,0.0380983,664,1135,-66.0657,-0.62815
-553,-111,-66.316,0.646484,-0.00144561,0.00124342,-0.00140526,0.00184377,-0.00204595,-1.16705,0.00224674,0.041531,671,1135,-66.316,-0.646442
-546,-111,-66.2867,0.514282,-0.00226587,0.00213373,-0.00198607,0.00289764,-0.00302978,-1.20361,0.00342248,0.0408121,678,1135,-66.2867,-0.514284
-539,-111,-66.0504,0.431274,-0.00319932,0.00284855,-0.0027622,0.00392022,-0.00427098,-1.2007,0.00473064,0.0420746,685,1135,-66.0504,-0.431267
-532,-111,-66.129,0.564575,-0.00414816,0.00347541,-0.00342008,0.00478482,-0.00545757,-1.20515,0.0059177,0.0429467,692,1135,-66.1289,-0.564607
-525,-111,-66.2968,0.655273,-0.00507817,0.00408879,-0.00384446,0.00548763,-0.00647701,-1.22183,0.00691566,0.0392966,699,1135,-66.2967,-0.655296
-518,-111,0,0,0,0,0,0,0,0,0,-1,706,1135,0,0
-511,-111,0,0,0,0,0,0,0,0,0,-1,713,1135,0,0
-504,-111,0,0,0,0,0,0,0,0,0,-1,720,1135,0,0
-497,-111,0,0,0,0,0,0,0,0,0,-1,727,1135,0,0
-490,-111,0,0,0,0,0,0,0,0,0,-1,734,1135,0,0
-483,-111,0,0,0,0,0,0,0,0,0,-1,741,1135,0,0
-476,-111,0,0,0,0,0,0,0,0,0,-1,748,1135,0,0
-469,-111,0,0,0,0,0,0,0,0,0,-1,755,1135,0,0
-462,-111,0,0,0,0,0,0,0,0,0,-1,762,1135,0,0
-455,-111,0,0,0,0,0,0,0,0,0,-1,769,1135,0,0
-448,-111,0,0,0,0,0,0,0,0,0,-1,776,1135,0,0
-441,-111,0,0,0,0,0,0,0,0,0,-1,783,1135,0,0
-434,-111,0,0,0,0,0,0,0,0,0,-1,790,1135,0,0
-427,-111,0,0,0,0,0,0,0,0,0,-1,797,1135,0,0
-420,-111,0,0,0,0,0,0,0,0,0,-1,804,1135,0,0
-413,-111,0,0,0,0,0,0,0,0,0,-1,811,1135,0,0
-406,-111,0,0,0,0,0,0,0,0,0,-1,818,1135,0,0
-399,-111,0,0,0,0,0,0,0,0,0,-1,825,1135,0,0
-392,-111,0,0,0,0,0,0,0,0,0,-1,832,1135,0,0
-385,-111,0,0,0,0,0,0,0,0,0,-1,839,1135,0,0
-378,-111,0,0,0,0,0,0,0,0,0,-1,846,1135,0,0
-371,-111,0,0,0,0,0,0,0,0,0,-1,853,1135,0,0
-364,-111,0,0,0,0,0,0,0,0,0,-1,860,1135,0,0
-357,-111,0,0,0,0,0,0,0,0,0,-1,867,1135,0,0
-350,-111,0,0,0,0,0,0,0,0,0,-1,874,1135,0,0
-343,-111,0,0,0,0,0,0,0,0,0,-1,881,1135,0,0
-336,-111,0,0,0,0,0,0,0,0,0,-1,888,1135,0,0
-329,-111,0,0,0,0,0,0,0,0,0,-1,895,1135,0,0
-322,-111,0,0,0,0,0,0,0,0,0,-1,902,1135,0,0
-315,-111,0,0,0,0,0,0,0,0,0,-1,909,1135,0,0
-308,-111,0,0,0,0,0,0,0,0,0,-1,916,1135,0,0
-301,-111,0,0,0,0,0,0,0,0,0,-1,923,1135,0,0
-294,-111,0,0,0,0,0,0,0,0,0,-1,930,1135,0,0
-287,-111,0,0,0,0,0,0,0,0,0,-1,937,1135,0,0
-280,-111,0,0,0,0,0,0,0,0,0,-1,944,1135,0,0
-273,-111,0,0,0,0,0,0,0,0,0,-1,951,1135,0,0
-266,-111,0,0,0,0,0,0,0,0,0,-1,958,1135,0,0
-259,-111,0,0,0,0,0,0,0,0,0,-1,965,1135,0,0
-252,-111,0,0,0,0,0,0,0,0,0,-1,972,1135,0,0
-245,-111,0,0,0,0,0,0,0,0,0,-1,979,1135,0,0
-238,-111,0,0,0,0,0,0,0,0,0,-1,986,1135,0,0
-231,-111,0,0,0,0,0,0,0,0,0,-1,993,1135,0,0
-224,-111,0,0,0,0,0,0,0,0,0,-1,1000,1135,0,0
-217,-111,0,0,0,0,0,0,0,0,0,-1,1007,1135,0,0
-210,-111,0,0,0,0,0,0,0,0,0,-1,1014,1135,0,0
-203,-111,0,0,0,0,0,0,0,0,0,-1,1021,1135,0,0
-196,-111,0,0,0,0,0,0,0,0,0,-1,1028,1135,0,0
-189,-111,0,0,0,0,0,0,0,0,0,-1,1035,1135,0,0
-182,-111,0,0,0,0,0,0,0,0,0,-1,1042,1135,0,0
-175,-111,0,0,0,0,0,0,0,0,0,-1,1049,1135,0,0
-168,-111,0,0,0,0,0,0,0,0,0,-1,1056,1135,0,0
-161,-111,0,0,0,0,0,0,0,0,0,-1,1063,1135,0,0
-154,-111,0,0,0,0,0,0,0,0,0,-1,1070,1135,0,0
-147,-111,0,0,0,0,0,0,0,0,0,-1,1077,1135,0,0
-140,-111,0,0,0,0,0,0,0,0,0,-1,1084,1135,0,0
-133,-111,0,0,0,0,0,0,0,0,0,-1,1091,1135,0,0
-126,-111,0,0,0,0,0,0,0,0,0,-1,1098,1135,0,0
-119,-111,0,0,0,0,0,0,0,0,0,-1,1105,1135,0,0
-112,-111,0,0,0,0,0,0,0,0,0,-1,1112,1135,0,0
-105,-111,0,0,0,0,0,0,0,0,0,-1,1119,1135,0,0
-98,-111,0,0,0,0,0,0,0,0,0,-1,1126,1135,0,0
-91,-111,0,0,0,0,0,0,0,0,0,-1,1133,1135,0,0
-84,-111,0,0,0,0,0,0,0,0,0,-1,1140,1135,0,0
-77,-111,0,0,0,0,0,0,0,0,0,-1,1147,1135,0,0
-70,-111,0,0,0,0,0,0,0,0,0,-1,1154,1135,0,0
-63,-111,0,0,0,0,0,0,0,0,0,-1,1161,1135,0,0
-56,-111,0,0,0,0,0,0,0,0,0,-1,1168,1135,0,0
-49,-111,0,0,0,0,0,0,0,0,0,-1,1175,1135,0,0
-42,-111,0,0,0,0,0,0,0,0,0,-1,1182,1135,0,0
-35,-111,0,0,0,0,0,0,0,0,0,-1,1189,1135,0,0
-28,-111,0,0,0,0,0,0,0,0,0,-1,1196,1135,0,0
-21,-111,0,0,0,0,0,0,0,0,0,-1,1203,1135,0,0
-14,-111,0,0,0,0,0,0,0,0,0,-1,1210,1135,0,0
-7,-111,0,0,0,0,0,0,0,0,0,-1,1217,1135,0,0
0,-111,0,0,0,0,0,0,0,0,0,-1,1224,1135,0,0
7,-111,0,0,0,0,0,0,0,0,0,-1,1231,1135,0,0
14,-111,0,0,0,0,0,0,0,0,0,-1,1238,1135,0,0
21,-111,0,0,0,0,0,0,0,0,0,-1,1245,1135,0,0
28,-111,0,0,0,0,0,0,0,0,0,-1,1252,1135,0,0
35,-111,0,0,0,0,0,0,0,0,0,-1,1259,1135,0,0
42,-111,0,0,0,0,0,0,0,0,0,-1,1266,1135,0,0
49,-111,0,0,0,0,0,0,0,0,0,-1,1273,1135,0,0
56,-111,0,0,0,0,0,0,0,0,0,-1,1280,1135,0,0
63,-111,0,0,0,0,0,0,0,0,0,-1,1287,1135,0,0
70,-111,0,0,0,0,0,0,0,0,0,-1,1294,1135,0,0
77,-111,0,0,0,0,0,0,0,0,0,-1,1301,1135,0,0
84,-111,0,0,0,0,0,0,0,0,0,-1,1308,1135,0,0
91,-111,0,0,0,0,0,0,0,0,0,-1,1315,1135,0,0
98,-111,0,0,0,0,0,0,0,0,0,-1,1322,1135,0,0
105,-111,0,0,0,0,0,0,0,0,0,-1,1329,1135,0,0
112,-111,0,0,0,0,0,0,0,0,0,-1,1336,1135,0,0
119,-111,0,0,0,0,0,0,0,0,0,-1,1343,1135,0,0
126,-111,0,0,0,0,0,0,0,0,0,-1,1350,1135,0,0
133,-111,0,0,0,0,0,0,0,0,0,-1,1357,1135,0,0
140,-111,0,0,0,0,0,0,0,0,0,-1,1364,1135,0,0
147,-111,0,0,0,0,0,0,0,0,0,-1,1371,1135,0,0
154,-111,0,0,0,0,0,0,0,0,0,-1,1378,1135,0,0
161,-111,0,0,0,0,0,0,0,0,0,-1,1385,1135,0,0
168,-111,0,0,0,0,0,0,0,0,0,-1,1392,1135,0,0
175,-111,0,0,0,0,0,0,0,0,0,-1,1399,1135,0,0
182,-111,0,0,0,0,0,0,0,0,0,-1,1406,1135,0,0
189,-111,0,0,0,0,0,0,0,0,0,-1,1413,1135,0,0
196,-111,0,0,0,0,0,0,0,0,0,-1,1420,1135,0,0
203,-111,0,0,0,0,0,0,0,0,0,-1,1427,1135,0,0
210,-111,0,0,0,0,0,0,0,0,0,-1,1434,1135,0,0
217,-111,0,0,0,0,0,0,0,0,0,-1,1441,1135,0,0
224,-111,0,0,0,0,0,0,0,0,0,-1,1448,1135,0,0
231,-111,0,0,0,0,0,0,0,0,0,-1,1455,1135,0,0
238,-111,0,0,0,0,0,0,0,0,0,-1,1462,1135,0,0
245,-111,0,0,0,0,0,0,0,0,0,-1,1469,1135,0,0
252,-111,0,0,0,0,0,0,0,0,0,-1,1476,1135,0,0
259,-111,0,0,0,0,0,0,0,0,0,-1,1483,1135,0,0
266,-111,0,0,0,0,0,0,0,0,0,-1,1490,1135,0,0
273,-111,0,0,0,0,0,0,0,0,0,-1,1497,1135,0,0
280,-111,0,0,0,0,0,0,0,0,0,-1,1504,1135,0,0
287,-111,0,0,0,0,0,0,0,0,0,-1,1511,1135,0,0
294,-111,0,0,0,0,0,0,0,0,0,-1,1518,1135,0,0
301,-111,0,0,0,0,0,0,0,0,0,-1,1525,1135,0,0
308,-111,0,0,0,0,0,0,0,0,0,-1,1532,1135,0,0
315,-111,0,0,0,0,0,0,0,0,0,-1,1539,1135,0,0
322,-111,0,0,0,0,0,0,0,0,0,-1,1546,1135,0,0
329,-111,0,0,0,0,0,0,0,0,0,-1,1553,1135,0,0
336,-111,0,0,0,0,0,0,0,0,0,-1,1560,1135,0,0
343,-111,0,0,0,0,0,0,0,0,0,-1,1567,1135,0,0
350,-111,0,0,0,0,0,0,0,0,0,-1,1574,1135,0,0
357,-111,0,0,0,0,0,0,0,0,0,-1,1581,1135,0,0
364,-111,0,0,0,0,0,0,0,0,0,-1,1588,1135,0,0
371,-111,0,0,0,0,0,0,0,0,0,-1,1595,1135,0,0
378,-111,0,0,0,0,0,0,0,0,0,-1,1602,1135,0,0
385,-111,0,0,0,0,0,0,0,0,0,-1,1609,1135,0,0
392,-111,0,0,0,0,0,0,0,0,0,-1,1616,1135,0,0
399,-111,0,0,0,0,0,0,0,0,0,-1,1623,1135,0,0
406,-111,0,0,0,0,0,0,0,0,0,-1,1630,1135,0,0
413,-111,0,0,0,0,0,0,0,0,0,-1,1637,1135,0,0
420,-111,0,0,0,0,0,0,0,0,0,-1,1644,1135,0,0
427,-111,0,0,0,0,0,0,0,0,0,-1,1651,1135,0,0
434,-111,0,0,0,0,0,0,0,0,0,-1,1658,1135,0,0
441,-111,0,0,0,0,0,0,0,0,0,-1,1665,1135,0,0
448,-111,0,0,0,0,0,0,0,0,0,-1,1672,1135,0,0
455,-111,0,0,0,0,0,0,0,0,0,-1,1679,1135,0,0
462,-111,0,0,0,0,0,0,0,0,0,-1,1686,1135,0,0
469,-111,0,0,0,0,0,0,0,0,0,-1,1693,1135,0,0
476,-111,0,0,0,0,0,0,0,0,0,-1,1700,1135,0,0
483,-111,0,0,0,0,0,0,0,0,0,-1,1707,1135,0,0
490,-111,0,0,0,0,0,0,0,0,0,-1,1714,1135,0,0
497,-111,0,0,0,0,0,0,0,0,0,-1,1721,1135,0,0
504,-111,0,0,0,0,0,0,0,0,0,-1,1728,1135,0,0
511,-111,0,0,0,0,0,0,0,0,0,-1,1735,1135,0,0
518,-111,0,0,0,0,0,0,0,0,0,-1,1742,1135,0,0
525,-111,0,0,0,0,0,0,0,0,0,-1,1749,1135,0,0
532,-111,0,0,0,0,0,0,0,0,0,-1,1756,1135,0,0
539,-111,0,0,0,0,0,0,0,0,0,-1,1763,1135,0,0
546,-111,0,0,0,0,0,0,0,0,0,-1,1770,1135,0,0
553,-111,0,0,0,0,0,0,0,0,0,-1,1777,1135,0,0
560,-111,0,0,0,0,0,0,0,0,0,-1,1784,1135,0,0
567,-111,0,0,0,0,0,0,0,0,0,-1,1791,1135,0,0
574,-111,0,0,0,0,0,0,0,0,0,-1,1798,1135,0,0
581,-111,0,0,0,0,0,0,0,0,0,-1,1805,1135,0,0
588,-111,0,0,0,0,0,0,0,0,0,-1,1812,1135,0,0
595,-111,0,0,0,0,0,0,0,0,0,-1,1819,1135,0,0
602,-111,0,0,0,0,0,0,0,0,0,-1,1826,1135,0,0
609,-111,0,0,0,0,0,0,0,0,0,-1,1833,1135,0,0
616,-111,0,0,0,0,0,0,0,0,0,-1,1840,1135,0,0
623,-111,0,0,0,0,0,0,0,0,0,-1,1847,1135,0,0
630,-111,0,0,0,0,0,0,0,0,0,-1,1854,1135,0,0
637,-111,0,0,0,0,0,0,0,0,0,-1,1861,1135,0,0
644,-111,83.0652,2.66919,0.00160719,-0.0037766,-0.00557977,0.00511046,-0.00727987,-0.560648,0.00719002,0.0396727,1868,1135,83.0652,-2.66915
651,-111,83.0374,2.52686,0.00114963,-0.00318279,-0.00403817,0.00356592,-0.00559908,-0.539214,0.00533464,0.0415361,1875,1135,83.0374,-2.52689
658,-111,83.0819,2.35181,0.000912232,-0.00257679,-0.00292361,0.00257225,-0.0042368,-0.516404,0.00397017,0.045545,1882,1135,83.0819,-2.35184
665,-111,83.1924,2.177,0.000649364,-0.00188971,-0.00202457,0.00176952,-0.00300986,-0.505357,0.00279018,0.0450584,1889,1135,83.1924,-2.17695
672,-111,83.2025,2.13782,0.000393915,-0.00114729,-0.00132092,0.00115258,-0.00190596,-0.521343,0.00178362,0.0432433,1896,1135,83.2025,-2.13781
679,-111,83.0861,2.30505,0.000352603,-0.000774073,-0.000690705,0.000680569,-0.00110204,-0.443308,0.00103873,0.0393498,1903,1135,83.0861,-2.30503
686,-111,83.0258,2.50098,0.000396697,-0.000622829,-0.000421317,0.000548271,-0.000774402,-0.345345,0.000767357,0.0388754,1910,1135,83.0257,-2.50099
693,-111,82.9955,2.45837,0.00038477,-0.00066245,-0.000130463,0.000400779,-0.000678458,-0.122095,0.000629935,0.0352298,1917,1135,82.9955,-2.45843
700,-111,83.1195,2.29614,0.000479351,-0.00073196,0.000165732,0.000501617,-0.000754227,0.133551,0.000729935,0.0262679,1924,1135,83.1195,-2.29608
707,-111,83.1654,2.29346,0,0,0,0,0,0,0,-1,1931,1135,83.1655,-2.29347
714,-111,45.1654,7.39746,0,0,0,0,0,0,0,-1,1938,1135,45.1654,-7.39745
721,-111,76.2617,10.9464,0,0,0,0,0,0,0,-1,1945,1135,76.2617,-10.9464
728,-111,76.2952,10.1617,-0.000977698,0.000781592,0.00166615,0.00178605,-0.00198216,1.02828,0.00217656,0.03544,1952,1135,76.2952,-10.1618
735,-111,76.3354,9.49451,-0.0011386,0.00116873,0.00175918,0.0021188,-0.00208866,1.07562,0.0024292,0.0335448,1959,1135,76.3354,-9.49453
742,-111,76.1737,8.86377,-0.00135533,0.00169307,0.00226914,0.0029024,-0.00256467,1.08114,0.00315842,0.0222229,1966,1135,76.1737,-8.86372
749,-111,76.0459,8.17944,-0.00194973,0.00255568,0.00310707,0.00414076,-0.00353481,1.09906,0.00443609,0.02252,1973,1135,76.0459,-8.17939
756,-111,76.0203,7.47107,-0.0027656,0.00426405,0.00401783,0.00608747,-0.00458903,1.14476,0.00618429,0.0182305,1980,1135,76.0203,-7.47102
763,-111,75.9619,6.83655,-0.00320604,0.00665554,0.0050041,0.00874997,-0.00530047,1.17441,0.00819311,0.0177269,1987,1135,75.9619,-6.83656
770,-111,75.897,6.19226,-0.00328423,0.00935013,0.00614081,0.011843,-0.00577707,1.18518,0.0103719,0.0157169,1994,1135,75.8969,-6.19226
777,-111,75.6682,5.51843,-0.00287897,0.0121295,0.00745322,0.0152019,-0.00595131,1.1798,0.012596,0.0311285,2001,1135,75.6681,-5.51846
784,-111,75.5112,4.82715,-0.00166326,0.0149133,0.00914958,0.0189705,-0.00572044,1.15342,0.0149238,0.0438026,2008,1135,75.5112,-4.82717
791,-111,75.406,4.46387,0.000639726,0.0181404,0.0110048,0.0234497,-0.00466958,1.12128,0.0173998,0.0459463,2015,1135,75.406,-4.46384
798,-111,75.2537,3.98853,0,0,0,0,0,0,0,-1,2022,1135,75.2536,-3.9885
805,-111,78.177,3.29236,0,0,0,0,0,0,0,-1,2029,1135,78.1771,-3.29242
812,-111,79.0308,2.6958,0,0,0,0,0,0,0,-1,2036,1135,79.0307,-2.69581
-700,-118,0,0,0,0,0,0,0,0,0,-1,524,1142,0,0
-693,-118,-58.9272,0.30481,-0.117222,-0.0222096,0.0973906,0.0386438,-0.178075,1.01231,0.133476,0.0462623,531,1142,-58.9272,-0.30477
-686,-118,-59.774,0.989746,-0.106867,-0.0081431,0.0897905,0.0449593,-0.159969,1.03672,0.124371,0.0471896,538,1142,-59.774,-0.989798
-679,-118,-60.6734,1.66113,-0.0941144,-0.000350419,0.0784937,0.0441961,-0.138661,1.0546,0.110168,0.0444978,545,1142,-60.6734,-1.66111
-672,-118,-61.4491,2.45105,-0.0807365,0.00411786,0.0663151,0.0404165,-0.117035,1.06998,0.0944242,0.0453843,552,1142,-61.4491,-2.4511
-665,-118,-62.5309,3.23523,-0.0680067,0.00660927,0.0543113,0.0351921,-0.0965896,1.08635,0.0787887,0.0471592,559,1142,-62.5309,-3.23525
-658,-118,-63.8104,3.98669,0,0,0,0,0,0,0,-1,566,1142,-63.8104,-3.98667
-651,-118,-58.4243,4.11096,0,0,0,0,0,0,0,-1,573,1142,-58.4243,-4.11091
-644,-118,-58.7448,5.06165,-0.0342068,0.00804283,0.0212882,0.0169088,-0.0430728,1.17617,0.0357117,0.0417352,580,1142,-58.7448,-5.06164
-637,-118,-58.981,5.97131,-0.0246725,0.00759788,0.0117897,0.0114462,-0.0285208,1.25528,0.0237665,0.021938,587,1142,-58.981,-5.97127
-630,-118,-59.0406,6.6189,-0.016347,0.00577698,0.00349036,0.00631457,-0.0168846,1.41798,0.0138497,0.0321928,594,1142,-59.0406,-6.61885
-623,-118,-59.0272,7.35327,-0.010457,0.00313204,-0.00249714,0.00357639,-0.0109013,-1.3947,0.00870803,0.0264898,601,1142,-59.0272,-7.35331
-616,-118,-59.2109,8.03418,-0.00898105,0.00128518,-0.00297395,0.00208446,-0.00978032,-1.30824,0.00731471,0.0431769,608,1142,-59.2109,-8.03421
-609,-118,-59.9697,8.60852,0,0,0,0,0,0,0,-1,615,1142,-59.9697,-8.60855
-602,-118,-60.0977,8.97498,0,0,0,0,0,0,0,-1,622,1142,-60.0977,-8.97498
-595,-118,-59.4283,10.1193,0,0,0,0,0,0,0,-1,629,1142,-59.4283,-10.1192
-588,-118,-58.7589,11.2634,0,0,0,0,0,0,0,-1,636,1142,-58.7589,-11.2635
-581,-118,-24.6116,3.89648,0,0,0,0,0,0,0,-1,643,1142,-24.6116,-3.89645
-574,-118,-65.9067,0.26123,0,0,0,0,0,0,0,-1,650,1142,-65.9067,-0.261258
-567,-118,-66.0101,0.401489,-0.0035579,0.00107424,-0.00210568,0.00188836,-0.00437202,-1.20187,0.00370803,0.0430507,657,1142,-66.0101,-0.401472
-560,-118,-66.0708,0.564697,-0.00170182,0.00105831,-0.00162655,0.00181138,-0.00245488,-1.1372,0.00247245,0.0367188,664,1142,-66.0708,-0.564681
-553,-118,-65.9406,0.568604,-0.00110313,0.00180889,-0.00182111,0.00268449,-0.00197873,-1.12262,0.00270257,0.0373054,671,1142,-65.9406,-0.568584
-546,-118,-65.8931,0.509521,-0.00167871,0.00285391,-0.00240375,0.00389126,-0.00271606,-1.16339,0.0038348,0.0389036,678,1142,-65.8931,-0.50948
-539,-118,-66.076,0.620483,-0.0025795,0.00378121,-0.00321469,0.0051229,-0.00392119,-1.17541,0.00523695,0.0436445,685,1142,-66.0761,-0.620523
-532,-118,-66.2885,0.78064,-0.00347841,0.00461621,-0.00391267,0.00619826,-0.00506046,-1.18655,0.00651128,0.0419734,692,1142,-66.2885,-0.780623
-525,-118,-66.3023,0.608032,-0.00432114,0.0054271,-0.00437073,0.00709976,-0.0059938,-1.2053,0.00756856,0.0430508,699,1142,-66.3023,-0.607995
-518,-118,0,0,0,0,0,0,0,0,0,-1,706,1142,0,0
-511,-118,0,0,0,0,0,0,0,0,0,-1,713,1142,0,0
-504,-118,0,0,0,0,0,0,0,0,0,-1,720,1142,0,0
-497,-118,0,0,0,0,0,0,0,0,0,-1,727,1142,0,0
-490,-118,0,0,0,0,0,0,0,0,0,-1,734,1142,0,0
-483,-118,0,0,0,0,0,0,0,0,0,-1,741,1142,0,0
-476,-118,0,0,0,0,0,0,0,0,0,-1,748,1142,0,0
-469,-118,0,0,0,0,0,0,0,0,0,-1,755,1142,0,0
-462,-118,0,0,0,0,0,0,0,0,0,-1,762,1142,0,0
-455,-118,0,0,0,0,0,0,0,0,0,-1,769,1142,0,0
-448,-118,0,0,0,0,0,0,0,0,0,-1,776,1142,0,0
-441,-118,0,0,0,0,0,0,0,0,0,-1,783,1142,0,0
-434,-118,0,0,0,0,0,0,0,0,0,-1,790,1142,0,0
-427,-118,0,0,0,0,0,0,0,0,0,-1,797,1142,0,0
-420,-118,0,0,0,0,0,0,0,0,0,-1,804,1142,0,0
-413,-118,0,0,0,0,0,0,0,0,0,-1,811,1142,0,0
-406,-118,0,0,0,0,0,0,0,0,0,-1,818,1142,0,0
-399,-118,0,0,0,0,0,0,0,0,0,-1,825,1142,0,0
-392,-118,0,0,0,0,0,0,0,0,0,-1,832,1142,0,0
-385,-118,0,0,0,0,0,0,0,0,0,-1,839,1142,0,0
-378,-118,0,0,0,0,0,0,0,0,0,-1,846,1142,0,0
-371,-118,0,0,0,0,0,0,0,0,0,-1,853,1142,0,0
-364,-118,0,0,0,0,0,0,0,0,0,-1,860,1142,0,0
-357,-118,0,0,0,0,0,0,0,0,0,-1,867,1142,0,0
-350,-118,0,0,0,0,0,0,0,0,0,-1,874,1142,0,0
-343,-118,0,0,0,0,0,0,0,0,0,-1,881,1142,0,0
-336,-118,0,0,0,0,0,0,0,0,0,-1,888,1142,0,0
-329,-118,0,0,0,0,0,0,0,0,0,-1,895,1142,0,0
-322,-118,0,0,0,0,0,0,0,0,0,-1,902,1142,0,0
-315,-118,0,0,0,0,0,0,0,0,0,-1,909,1142,0,0
-308,-118,0,0,0,0,0,0,0,0,0,-1,916,1142,0,0
-301,-118,0,0,0,0,0,0,0,0,0,-1,923,1142,0,0
-294,-118,0,0,0,0,0,0,0,0,0,-1,930,1142,0,0
-287,-118,0,0,0,0,0,0,0,0,0,-1,937,1142,0,0
-280,-118,0,0,0,0,0,0,0,0,0,-1,944,1142,0,0
-273,-118,0,0,0,0,0,0,0,0,0,-1,951,1142,0,0
-266,-118,0,0,0,0,0,0,0,0,0,-1,958,1142,0,0
-259,-118,0,0,0,0,0,0,0,0,0,-1,965,1142,0,0
-252,-118,0,0,0,0,0,0,0,0,0,-1,972,1142,0,0
-245,-118,0,0,0,0,0,0,0,0,0,-1,979,1142,0,0
-238,-118,0,0,0,0,0,0,0,0,0,-1,986,1142,0,0
-231,-118,0,0,0,0,0,0,0,0,0,-1,993,1142,0,0
-224,-118,0,0,0,0,0,0,0,0,0,-1,1000,1142,0,0
-217,-118,0,0,0,0,0,0,0,0,0,-1,1007,1142,0,0
-210,-118,0,0,0,0,0,0,0,0,0,-1,1014,1142,0,0
-203,-118,0,0,0,0,0,0,0,0,0,-1,1021,1142,0,0
-196,-118,0,0,0,0,0,0,0,0,0,-1,1028,1142,0,0
-189,-118,0,0,0,0,0,0,0,0,0,-1,1035,1142,0,0
-182,-118,0,0,0,0,0,0,0,0,0,-1,1042,1142,0,0
-175,-118,0,0,0,0,0,0,0,0,0,-1,1049,1142,0,0
-168,-118,0,0,0,0,0,0,0,0,0,-1,1056,1142,0,0
-161,-118,0,0,0,0,0,0,0,0,0,-1,1063,1142,0,0
-154,-118,0,0,0,0,0,0,0,0,0,-1,1070,1142,0,0
-147,-118,0,0,0,0,0,0,0,0,0,-1,1077,1142,0,0
-140,-118,0,0,0,0,0,0,0,0,0,-1,1084,1142,0,0
-133,-118,0,0,0,0,0,0,0,0,0,-1,1091,1142,0,0
-126,-118,0,0,0,0,0,0,0,0,0,-1,1098,1142,0,0
-119,-118,0,0,0,0,0,0,0,0,0,-1,1105,1142,0,0
-112,-118,0,0,0,0,0,0,0,0,0,-1,1112,1142,0,0
-105,-118,0,0,0,0,0,0,0,0,0,-1,1119,1142,0,0
-98,-118,0,0,0,0,0,0,0,0,0,-1,1126,1142,0,0
-91,-118,0,0,0,0,0,0,0,0,0,-1,1133,1142,0,0
-84,-118,0,0,0,0,0,0,0,0,0,-1,1140,1142,0,0
-77,-118,0,0,0,0,0,0,0,0,0,-1,1147,1142,0,0
-70,-118,0,0,0,0,0,0,0,0,0,-1,1154,1142,0,0
-63,-118,0,0,0,0,0,0,0,0,0,-1,1161,1142,0,0
-56,-118,0,0,0,0,0,0,0,0,0,-1,1168,1142,0,0
-49,-118,0,0,0,0,0,0,0,0,0,-1,1175,1142,0,0
-42,-118,0,0,0,0,0,0,0,0,0,-1,1182,1142,0,0
-35,-118,0,0,0,0,0,0,0,0,0,-1,1189,1142,0,0
-28,-118,0,0,0,0,0,0,0,0,0,-1,1196,1142,0,0
-21,-118,0,0,0,0,0,0,0,0,0,-1,1203,1142,0,0
-14,-118,0,0,0,0,0,0,0,0,0,-1,1210,1142,0,0
-7,-118,0,0,0,0,0,0,0,0,0,-1,1217,1142,0,0
0,-118,0,0,0,0,0,0,0,0,0,-1,1224,1142,0,0
7,-118,0,0,0,0,0,0,0,0,0,-1,1231,1142,0,0
14,-118,0,0,0,0,0,0,0,0,0,-1,1238,1142,0,0
21,-118,0,0,0,0,0,0,0,0,0,-1,1245,1142,0,0
28,-118,0,0,0,0,0,0,0,0,0,-1,1252,1142,0,0
35,-118,0,0,0,0,0,0,0,0,0,-1,1259,1142,0,0
42,-118,0,0,0,0,0,0,0,0,0,-1,1266,1142,0,0
49,-118,0,0,0,0,0,0,0,0,0,-1,1273,1142,0,0
56,-118,0,0,0,0,0,0,0,0,0,-1,1280,1142,0,0
63,-118,0,0,0,0,0,0,0,0,0,-1,1287,1142,0,0
70,-118,0,0,0,0,0,0,0,0,0,-1,1294,1142,0,0
77,-118,0,0,0,0,0,0,0,0,0,-1,1301,1142,0,0
84,-118,0,0,0,0,0,0,0,0,0,-1,1308,1142,0,0
91,-118,0,0,0,0,0,0,0,0,0,-1,1315,1142,0,0
98,-118,0,0,0,0,0,0,0,0,0,-1,1322,1142,0,0
105,-118,0,0,0,0,0,0,0,0,0,-1,1329,1142,0,0
112,-118,0,0,0,0,0,0,0,0,0,-1,1336,1142,0,0
119,-118,0,0,0,0,0,0,0,0,0,-1,1343,1142,0,0
126,-118,0,0,0,0,0,0,0,0,0,-1,1350,1142,0,0
133,-118,0,0,0,0,0,0,0,0,0,-1,1357,1142,0,0
140,-118,0,0,0,0,0,0,0,0,0,-1,1364,1142,0,0
147,-118,0,0,0,0,0,0,0,0,0,-1,1371,1142,0,0
154,-118,0,0,0,0,0,0,0,0,0,-1,1378,1142,0,0
161,-118,0,0,0,0,0,0,0,0,0,-1,1385,1142,0,0
168,-118,0,0,0,0,0,0,0,0,0,-1,1392,1142,0,0
175,-118,0,0,0,0,0,0,0,0,0,-1,1399,1142,0,0
182,-118,0,0,0,0,0,0,0,0,0,-1,1406,1142,0,0
189,-118,0,0,0,0,0,0,0,0,0,-1,1413,1142,0,0
196,-118,0,0,0,0,0,0,0,0,0,-1,1420,1142,0,0
203,-118,0,0,0,0,0,0,0,0,0,-1,1427,1142,0,0
210,-118,0,0,0,0,0,0,0,0,0,-1,1434,1142,0,0
217,-118,0,0,0,0,0,0,0,0,0,-1,1441,1142,0,0
224,-118,0,0,0,0,0,0,0,0,0,-1,1448,1142,0,0
231,-118,0,0,0,0,0,0,0,0,0,-1,1455,1142,0,0
238,-118,0,0,0,0,0,0,0,0,0,-1,1462,1142,0,0
245,-118,0,0,0,0,0,0,0,0,0,-1,1469,1142,0,0
252,-118,0,0,0,0,0,0,0,0,0,-1,1476,1142,0,0
259,-118,0,0,0,0,0,0,0,0,0,-1,1483,1142,0,0
266,-118,0,0,0,0,0,0,0,0,0,-1,1490,1142,0,0
273,-118,0,0,0,0,0,0,0,0,0,-1,1497,1142,0,0
280,-118,0,0,0,0,0,0,0,0,0,-1,1504,1142,0,0
287,-118,0,0,0,0,0,0,0,0,0,-1,1511,1142,0,0
294,-118,0,0,0,0,0,0,0,0,0,-1,1518,1142,0,0
301,-118,0,0,0,0,0,0,0,0,0,-1,1525,1142,0,0
308,-118,0,0,0,0,0,0,0,0,0,-1,1532,1142,0,0
315,-118,0,0,0,0,0,0,0,0,0,-1,1539,1142,0,0
322,-118,0,0,0,0,0,0,0,0,0,-1,1546,1142,0,0
329,-118,0,0,0,0,0,0,0,0,0,-1,1553,1142,0,0
336,-118,0,0,0,0,0,0,0,0,0,-1,1560,1142,0,0
343,-118,0,0,0,0,0,0,0,0,0,-1,1567,1142,0,0
350,-118,0,0,0,0,0,0,0,0,0,-1,1574,1142,0,0
357,-118,0,0,0,0,0,0,0,0,0,-1,1581,1142,0,0
364,-118,0,0,0,0,0,0,0,0,0,-1,1588,1142,0,0
371,-118,0,0,0,0,0,0,0,0,0,-1,1595,1142,0,0
378,-118,0,0,0,0,0,0,0,0,0,-1,1602,1142,0,0
385,-118,0,0,0,0,0,0,0,0,0,-1,1609,1142,0,0
392,-118,0,0,0,0,0,0,0,0,0,-1,1616,1142,0,0
399,-118,0,0,0,0,0,0,0,0,0,-1,1623,1142,0,0
406,-118,0,0,0,0,0,0,0,0,0,-1,1630,1142,0,0
413,-118,0,0,0,0,0,0,0,0,0,-1,1637,1142,0,0
420,-118,0,0,0,0,0,0,0,0,0,-1,1644,1142,0,0
427,-118,0,0,0,0,0,0,0,0,0,-1,1651,1142,0,0
434,-118,0,0,0,0,0,0,0,0,0,-1,1658,1142,0,0
441,-118,0,0,0,0,0,0,0,0,0,-1,1665,1142,0,0
448,-118,0,0,0,0,0,0,0,0,0,-1,1672,1142,0,0
455,-118,0,0,0,0,0,0,0,0,0,-1,1679,1142,0,0
462,-118,0,0,0,0,0,0,0,0,0,-1,1686,1142,0,0
469,-118,0,0,0,0,0,0,0,0,0,-1,1693,1142,0,0
476,-118,0,0,0,0,0,0,0,0,0,-1,1700,1142,0,0
483,-118,0,0,0,0,0,0,0,0,0,-1,1707,1142,0,0
490,-118,0,0,0,0,0,0,0,0,0,-1,1714,1142,0,0
497,-118,0,0,0,0,0,0,0,0,0,-1,1721,1142,0,0
504,-118,0,0,0,0,0,0,0,0,0,-1,1728,1142,0,0
511,-118,0,0,0,0,0,0,0,0,0,-1,1735,1142,0,0
518,-118,0,0,0,0,0,0,0,0,0,-1,1742,1142,0,0
525,-118,0,0,0,0,0,0,0,0,0,-1,1749,1142,0,0
532,-118,0,0,0,0,0,0,0,0,0,-1,1756,1142,0,0
539,-118,0,0,0,0,0,0,0,0,0,-1,1763,1142,0,0
546,-118,0,0,0,0,0,0,0,0,0,-1,1770,1142,0,0
553,-118,0,0,0,0,0,0,0,0,0,-1,1777,1142,0,0
560,-118,0,0,0,0,0,0,0,0,0,-1,1784,1142,0,0
567,-118,0,0,0,0,0,0,0,0,0,-1,1791,1142,0,0
574,-118,0,0,0,0,0,0,0,0,0,-1,1798,1142,0,0
581,-118,0,0,0,0,0,0,0,0,0,-1,1805,1142,0,0
588,-118,0,0,0,0,0,0,0,0,0,-1,1812,1142,0,0
595,-118,0,0,0,0,0,0,0,0,0,-1,1819,1142,0,0
602,-118,0,0,0,0,0,0,0,0,0,-1,1826,1142,0,0
609,-118,0,0,0,0,0,0,0,0,0,-1,1833,1142,0,0
616,-118,0,0,0,0,0,0,0,0,0,-1,1840,1142,0,0
623,-118,0,0,0,0,0,0,0,0,0,-1,1847,1142,0,0
630,-118,0,0,0,0,0,0,0,0,0,-1,1854,1142,0,0
637,-118,0,0,0,0,0,0,0,0,0,-1,1861,1142,0,0
644,-118,83.0261,2.68127,0.0014347,-0.00326729,-0.00512339,0.00472075,-0.00655334,-0.570293,0.0065377,0.0413708,1868,1142,83.0261,-2.68129
651,-118,83.0007,2.57227,0.000965805,-0.00261371,-0.00369796,0.00328435,-0.00493225,-0.560021,0.00477555,0.04162,1875,1142,83.0007,-2.5723
658,-118,83.0297,2.52039,0.000742939,-0.00199465,-0.00264101,0.00234879,-0.0036005,-0.546314,0.00346008,0.0423606,1882,1142,83.0297,-2.52041
665,-118,83.0283,2.29175,0.000520518,-0.00133465,-0.00177989,0.00160003,-0.00241416,-0.545188,0.00233343,0.0416996,1889,1142,83.0283,-2.29174
672,-118,83.1216,2.3335,0.000319486,-0.000642574,-0.00110927,0.00104753,-0.00137062,-0.580813,0.00140027,0.0442686,1896,1142,83.1215,-2.33355
679,-118,83.0935,2.55005,0.000363077,-0.000394461,-0.000473842,0.000590932,-0.000622316,-0.448224,0.000700547,0.0410987,1903,1142,83.0935,-2.55
686,-118,83.0488,2.44128,0.000539821,-0.000296813,-0.000200118,0.000585224,-0.000342216,-0.223105,0.00054155,0.0352034,1910,1142,83.0489,-2.44123
693,-118,82.975,2.4292,0.000567192,-0.00036712,7.63537e-05,0.00057339,-0.000373319,0.0810056,0.000550636,0.0329692,1917,1142,82.975,-2.42919
700,-118,83.0852,2.32971,0.000647619,-0.000482767,0.000323194,0.0007335,-0.000568649,0.259724,0.000753801,0.0222768,1924,1142,83.0851,-2.32975
707,-118,83.1768,2.31299,0,0,0,0,0,0,0,-1,1931,1142,83.1767,-2.31305
714,-118,50.4819,8.53809,0,0,0,0,0,0,0,-1,1938,1142,50.4819,-8.53809
721,-118,75.6002,11.0056,0,0,0,0,0,0,0,-1,1945,1142,75.6002,-11.0056
728,-118,75.5706,10.2933,-0.000559755,0.000748893,0.0017654,0.00197732,-0.00178819,0.962869,0.00217493,0.0246449,1952,1142,75.5705,-10.2933
735,-118,75.5228,9.62927,-0.000663001,0.00100316,0.00183141,0.00218206,-0.0018419,0.998853,0.002326,0.0242138,1959,1142,75.5229,-9.62925
742,-118,75.4431,8.97278,-0.000937536,0.00135709,0.00227545,0.0027581,-0.00233855,1.0189,0.00294588,0.0366176,1966,1142,75.4432,-8.97281
749,-118,75.2769,8.27185,-0.00167293,0.00217175,0.00310312,0.00389972,-0.0034009,1.06271,0.0042183,0.0277229,1973,1142,75.277,-8.27189
756,-118,75.2664,7.49219,-0.00284645,0.00385037,0.00404908,0.00575618,-0.00475226,1.13088,0.00607628,0.0203165,1980,1142,75.2663,-7.49225
763,-118,75.2695,6.80408,-0.00384137,0.0060891,0.0051493,0.0082771,-0.00602937,1.169,0.00829376,0.0115701,1987,1142,75.2694,-6.80412
770,-118,75.1543,6.19141,-0.00463796,0.00845972,0.0064642,0.0111127,-0.00729093,1.18135,0.0107014,0.0146461,1994,1142,75.1542,-6.19144
777,-118,74.9468,5.55164,-0.00513311,0.0107985,0.00802033,0.0141366,-0.00847129,1.17639,0.0131886,0.0320246,2001,1142,74.9468,-5.55169
784,-118,74.9482,4.80261,-0.00509697,0.0129371,0.0101149,0.0174706,-0.0096305,1.14944,0.0158636,0.0450992,2008,1142,74.9482,-4.80257
791,-118,75.0237,4.04248,0,0,0,0,0,0,0,-1,2015,1142,75.0237,-4.0425
798,-118,77.6316,4.72473,0,0,0,0,0,0,0,-1,2022,1142,77.6316,-4.72473
805,-118,78.6196,4.09619,0,0,0,0,0,0,0,-1,2029,1142,78.6197,-4.09622
812,-118,75.593,-2.81274,0,0,0,0,0,0,0,-1,2036,1142,75.5931,2.81279
-700,-125,0,0,0,0,0,0,0,0,0,-1,524,1149,0,0
-693,-125,-59.8212,0.657471,-0.116787,-0.00840757,0.0960116,0.0476514,-0.172845,1.04232,0.133969,0.0492287,531,1149,-59.8212,-0.657454
-686,-125,-60.5377,1.36108,-0.106096,0.00346488,0.0880665,0.0523985,-0.15503,1.06363,0.124549,0.0473274,538,1149,-60.5377,-1.36109
-679,-125,-61.3924,1.70105,-0.0932088,0.00919571,0.0766722,0.0501905,-0.134204,1.07979,0.110082,0.0438385,545,1149,-61.3924,-1.70102
-672,-125,-62.2006,2.3219,-0.0797593,0.0117987,0.0645609,0.045164,-0.113125,1.0938,0.0941538,0.0445716,552,1149,-62.2006,-2.32192
-665,-125,-62.9616,3.00281,-0.066999,0.01261,0.0527031,0.038851,-0.09324,1.10883,0.0783881,0.0439777,559,1149,-62.9616,-3.00281
-658,-125,-63.781,3.56396,0,0,0,0,0,0,0,-1,566,1149,-63.781,-3.56392
-651,-125,-57.6348,4.13245,0,0,0,0,0,0,0,-1,573,1149,-57.6348,-4.13248
-644,-125,-58.0413,5.07971,-0.033317,0.00999785,0.0199856,0.0178102,-0.0411293,1.19816,0.0349053,0.0398509,580,1149,-58.0412,-5.0797
-637,-125,-58.2393,5.93701,-0.0239158,0.00851623,0.0105564,0.0116495,-0.0270491,1.28226,0.0229248,0.0170263,587,1149,-58.2393,-5.93704
-630,-125,-58.2571,6.65112,-0.015805,0.00585003,0.00233148,0.0060982,-0.0160532,1.46475,0.0132126,0.0167276,594,1149,-58.2571,-6.65116
-623,-125,-58.2714,7.40039,-0.0101478,0.00271196,-0.0037824,0.00374196,-0.0111778,-1.30493,0.00896345,0.0153896,601,1149,-58.2714,-7.40035
-616,-125,-58.3549,8.05249,-0.00907049,0.000844339,-0.0042522,0.00241817,-0.0106443,-1.21631,0.00802465,0.0406446,608,1149,-58.3549,-8.05251
-609,-125,-58.7675,8.92944,0,0,0,0,0,0,0,-1,615,1149,-58.7674,-8.92945
-602,-125,-59.6744,9.36707,0,0,0,0,0,0,0,-1,622,1149,-59.6744,-9.36709
-595,-125,-58.7147,10.3074,0,0,0,0,0,0,0,-1,629,1149,-58.7147,-10.3074
-588,-125,-57.755,11.2478,0,0,0,0,0,0,0,-1,636,1149,-57.755,-11.2478
-581,-125,-26.4055,4.83203,0,0,0,0,0,0,0,-1,643,1149,-26.4055,-4.83204
-574,-125,-37.674,0.655151,0,0,0,0,0,0,0,-1,650,1149,-37.674,-0.655195
-567,-125,-66.0421,0.559082,0,0,0,0,0,0,0,-1,657,1149,-66.0421,-0.559103
-560,-125,-66.0945,0.621582,-0.00201747,0.000931959,-0.00206555,0.00199521,-0.00308072,-1.09541,0.00295284,0.0397287,664,1149,-66.0945,-0.621537
-553,-125,-65.9781,0.607422,-0.000843545,0.0018049,-0.00209011,0.00295497,-0.00199362,-1.06777,0.00287498,0.0395477,671,1149,-65.9782,-0.607442
-546,-125,-65.9749,0.492188,-0.001137,0.00311795,-0.00259842,0.00434874,-0.00236779,-1.12844,0.0039336,0.0391955,678,1149,-65.9749,-0.492208
-539,-125,-66.1456,0.535645,-0.00215176,0.00434376,-0.00346621,0.005846,-0.00365401,-1.16183,0.00553329,0.0399838,685,1149,-66.1456,-0.535685
-532,-125,-66.2068,0.584473,-0.00315823,0.00548508,-0.00423248,0.00721244,-0.00488559,-1.18331,0.00702774,0.0381927,692,1149,-66.2068,-0.584432
-525,-125,-66.1681,0.393555,-0.00407956,0.00660295,-0.00478412,0.00843225,-0.00590885,-1.20558,0.00832245,0.0443443,699,1149,-66.1681,-0.393514
-518,-125,0,0,0,0,0,0,0,0,0,-1,706,1149,0,0
-511,-125,0,0,0,0,0,0,0,0,0,-1,713,1149,0,0
-504,-125,0,0,0,0,0,0,0,0,0,-1,720,1149,0,0
-497,-125,0,0,0,0,0,0,0,0,0,-1,727,1149,0,0
-490,-125,0,0,0,0,0,0,0,0,0,-1,734,1149,0,0
-483,-125,0,0,0,0,0,0,0,0,0,-1,741,1149,0,0
-476,-125,0,0,0,0,0,0,0,0,0,-1,748,1149,0,0
-469,-125,0,0,0,0,0,0,0,0,0,-1,755,1149,0,0
-462,-125,0,0,0,0,0,0,0,0,0,-1,762,1149,0,0
-455,-125,0,0,0,0,0,0,0,0,0,-1,769,1149,0,0
-448,-125,0,0,0,0,0,0,0,0,0,-1,776,1149,0,0
-441,-125,0,0,0,0,0,0,0,0,0,-1,783,1149,0,0
-434,-125,0,0,0,0,0,0,0,0,0,-1,790,1149,0,0
-427,-125,0,0,0,0,0,0,0,0,0,-1,797,1149,0,0
-420,-125,0,0,0,0,0,0,0,0,0,-1,804,1149,0,0
-413,-125,0,0,0,0,0,0,0,0,0,-1,811,1149,0,0
-406,-125,0,0,0,0,0,0,0,0,0,-1,818,1149,0,0
-399,-125,0,0,0,0,0,0,0,0,0,-1,825,1149,0,0
-392,-125,0,0,0,0,0,0,0,0,0,-1,832,1149,0,0
-385,-125,0,0,0,0,0,0,0,0,0,-1,839,1149,0,0
-378,-125,0,0,0,0,0,0,0,0,0,-1,846,1149,0,0
-371,-125,0,0,0,0,0,0,0,0,0,-1,853,1149,0,0
-364,-125,0,0,0,0,0,0,0,0,0,-1,860,1149,0,0
-357,-125,0,0,0,0,0,0,0,0,0,-1,867,1149,0,0
-350,-125,0,0,0,0,0,0,0,0,0,-1,874,1149,0,0
-343,-125,0,0,0,0,0,0,0,0,0,-1,881,1149,0,0
-336,-125,0,0,0,0,0,0,0,0,0,-1,888,1149,0,0
-329,-125,0,0,0,0,0,0,0,0,0,-1,895,1149,0,0
-322,-125,0,0,0,0,0,0,0,0,0,-1,902,1149,0,0
-315,-125,0,0,0,0,0,0,0,0,0,-1,909,1149,0,0
-308,-125,0,0,0,0,0,0,0,0,0,-1,916,1149,0,0
-301,-125,0,0,0,0,0,0,0,0,0,-1,923,1149,0,0
-294,-125,0,0,0,0,0,0,0,0,0,-1,930,1149,0,0
-287,-125,0,0,0,0,0,0,0,0,0,-1,937,1149,0,0
-280,-125,0,0,0,0,0,0,0,0,0,-1,944,1149,0,0
-273,-125,0,0,0,0,0,0,0,0,0,-1,951,1149,0,0
-266,-125,0,0,0,0,0,0,0,0,0,-1,958,1149,0,0
-259,-125,0,0,0,0,0,0,0,0,0,-1,965,1149,0,0
-252,-125,0,0,0,0,0,0,0,0,0,-1,972,1149,0,0
-245,-125,0,0,0,0,0,0,0,0,0,-1,979,1149,0,0
-238,-125,0,0,0,0,0,0,0,0,0,-1,986,1149,0,0
-231,-125,0,0,0,0,0,0,0,0,0,-1,993,1149,0,0
-224,-125,0,0,0,0,0,0,0,0,0,-1,1000,1149,0,0
-217,-125,0,0,0,0,0,0,0,0,0,-1,1007,1149,0,0
-210,-125,0,0,0,0,0,0,0,0,0,-1,1014,1149,0,0
-203,-125,0,0,0,0,0,0,0,0,0,-1,1021,1149,0,0
-196,-125,0,0,0,0,0,0,0,0,0,-1,1028,1149,0,0
-189,-125,0,0,0,0,0,0,0,0,0,-1,1035,1149,0,0
-182,-125,0,0,0,0,0,0,0,0,0,-1,1042,1149,0,0
-175,-125,0,0,0,0,0,0,0,0,0,-1,1049,1149,0,0
-168,-125,0,0,0,0,0,0,0,0,0,-1,1056,1149,0,0
-161,-125,0,0,0,0,0,0,0,0,0,-1,1063,1149,0,0
-154,-125,0,0,0,0,0,0,0,0,0,-1,1070,1149,0,0
-147,-125,0,0,0,0,0,0,0,0,0,-1,1077,1149,0,0
-140,-125,0,0,0,0,0,0,0,0,0,-1,1084,1149,0,0
-133,-125,0,0,0,0,0,0,0,0,0,-1,1091,1149,0,0
-126,-125,0,0,0,0,0,0,0,0,0,-1,1098,1149,0,0
-119,-125,0,0,0,0,0,0,0,0,0,-1,1105,1149,0,0
-112,-125,0,0,0,0,0,0,0,0,0,-1,1112,1149,0,0
-105,-125,0,0,0,0,0,0,0,0,0,-1,1119,1149,0,0
-98,-125,0,0,0,0,0,0,0,0,0,-1,1126,1149,0,0
-91,-125,0,0,0,0,0,0,0,0,0,-1,1133,1149,0,0
-84,-125,0,0,0,0,0,0,0,0,0,-1,1140,1149,0,0
-77,-125,0,0,0,0,0,0,0,0,0,-1,1147,1149,0,0
-70,-125,0,0,0,0,0,0,0,0,0,-1,1154,1149,0,0
-63,-125,0,0,0,0,0,0,0,0,0,-1,1161,1149,0,0
-56,-125,0,0,0,0,0,0,0,0,0,-1,1168,1149,0,0
-49,-125,0,0,0,0,0,0,0,0,0,-1,1175,1149,0,0
-42,-125,0,0,0,0,0,0,0,0,0,-1,1182,1149,0,0
-35,-125,0,0,0,0,0,0,0,0,0,-1,1189,1149,0,0
-28,-125,0,0,0,0,0,0,0,0,0,-1,1196,1149,0,0
-21,-125,0,0,0,0,0,0,0,0,0,-1,1203,1149,0,0
-14,-125,0,0,0,0,0,0,0,0,0,-1,1210,1149,0,0
-7,-125,0,0,0,0,0,0,0,0,0,-1,1217,1149,0,0
0,-125,0,0,0,0,0,0,0,0,0,-1,1224,1149,0,0
7,-125,0,0,0,0,0,0,0,0,0,-1,1231,1149,0,0
14,-125,0,0,0,0,0,0,0,0,0,-1,1238,1149,0,0
21,-125,0,0,0,0,0,0,0,0,0,-1,1245,1149,0,0
28,-125,0,0,0,0,0,0,0,0,0,-1,1252,1149,0,0
35,-125,0,0,0,0,0,0,0,0,0,-1,1259,1149,0,0
42,-125,0,0,0,0,0,0,0,0,0,-1,1266,1149,0,0
49,-125,0,0,0,0,0,0,0,0,0,-1,1273,1149,0,0
56,-125,0,0,0,0,0,0,0,0,0,-1,1280,1149,0,0
63,-125,0,0,0,0,0,0,0,0,0,-1,1287,1149,0,0
70,-125,0,0,0,0,0,0,0,0,0,-1,1294,1149,0,0
77,-125,0,0,0,0,0,0,0,0,0,-1,1301,1149,0,0
84,-125,0,0,0,0,0,0,0,0,0,-1,1308,1149,0,0
91,-125,0,0,0,0,0,0,0,0,0,-1,1315,1149,0,0
98,-125,0,0,0,0,0,0,0,0,0,-1,1322,1149,0,0
105,-125,0,0,0,0,0,0,0,0,0,-1,1329,1149,0,0
112,-125,0,0,0,0,0,0,0,0,0,-1,1336,1149,0,0
119,-125,0,0,0,0,0,0,0,0,0,-1,1343,1149,0,0
126,-125,0,0,0,0,0,0,0,0,0,-1,1350,1149,0,0
133,-125,0,0,0,0,0,0,0,0,0,-1,1357,1149,0,0
140,-125,0,0,0,0,0,0,0,0,0,-1,1364,1149,0,0
147,-125,0,0,0,0,0,0,0,0,0,-1,1371,1149,0,0
154,-125,0,0,0,0,0,0,0,0,0,-1,1378,1149,0,0
161,-125,0,0,0,0,0,0,0,0,0,-1,1385,1149,0,0
168,-125,0,0,0,0,0,0,0,0,0,-1,1392,1149,0,0
175,-125,0,0,0,0,0,0,0,0,0,-1,1399,1149,0,0
182,-125,0,0,0,0,0,0,0,0,0,-1,1406,1149,0,0
189,-125,0,0,0,0,0,0,0,0,0,-1,1413,1149,0,0
196,-125,0,0,0,0,0,0,0,0,0,-1,1420,1149,0,0
203,-125,0,0,0,0,0,0,0,0,0,-1,1427,1149,0,0
210,-125,0,0,0,0,0,0,0,0,0,-1,1434,1149,0,0
217,-125,0,0,0,0,0,0,0,0,0,-1,1441,1149,0,0
224,-125,0,0,0,0,0,0,0,0,0,-1,1448,1149,0,0
231,-125,0,0,0,0,0,0,0,0,0,-1,1455,1149,0,0
238,-125,0,0,0,0,0,0,0,0,0,-1,1462,1149,0,0
245,-125,0,0,0,0,0,0,0,0,0,-1,1469,1149,0,0
252,-125,0,0,0,0,0,0,0,0,0,-1,1476,1149,0,0
259,-125,0,0,0,0,0,0,0,0,0,-1,1483,1149,0,0
266,-125,0,0,0,0,0,0,0,0,0,-1,1490,1149,0,0
273,-125,0,0,0,0,0,0,0,0,0,-1,1497,1149,0,0
280,-125,0,0,0,0,0,0,0,0,0,-1,1504,1149,0,0
287,-125,0,0,0,0,0,0,0,0,0,-1,1511,1149,0,0
294,-125,0,0,0,0,0,0,0,0,0,-1,1518,1149,0,0
301,-125,0,0,0,0,0,0,0,0,0,-1,1525,1149,0,0
308,-125,0,0,0,0,0,0,0,0,0,-1,1532,1149,0,0
315,-125,0,0,0,0,0,0,0,0,0,-1,1539,1149,0,0
322,-125,0,0,0,0,0,0,0,0,0,-1,1546,1149,0,0
329,-125,0,0,0,0,0,0,0,0,0,-1,1553,1149,0,0
336,-125,0,0,0,0,0,0,0,0,0,-1,1560,1149,0,0
343,-125,0,0,0,0,0,0,0,0,0,-1,1567,1149,0,0
350,-125,0,0,0,0,0,0,0,0,0,-1,1574,1149,0,0
357,-125,0,0,0,0,0,0,0,0,0,-1,1581,1149,0,0
364,-125,0,0,0,0,0,0,0,0,0,-1,1588,1149,0,0
371,-125,0,0,0,0,0,0,0,0,0,-1,1595,1149,0,0
378,-125,0,0,0,0,0,0,0,0,0,-1,1602,1149,0,0
385,-125,0,0,0,0,0,0,0,0,0,-1,1609,1149,0,0
392,-125,0,0,0,0,0,0,0,0,0,-1,1616,1149,0,0
399,-125,0,0,0,0,0,0,0,0,0,-1,1623,1149,0,0
406,-125,0,0,0,0,0,0,0,0,0,-1,1630,1149,0,0
413,-125,0,0,0,0,0,0,0,0,0,-1,1637,1149,0,0
420,-125,0,0,0,0,0,0,0,0,0,-1,1644,1149,0,0
427,-125,0,0,0,0,0,0,0,0,0,-1,1651,1149,0,0
434,-125,0,0,0,0,0,0,0,0,0,-1,1658,1149,0,0
441,-125,0,0,0,0,0,0,0,0,0,-1,1665,1149,0,0
448,-125,0,0,0,0,0,0,0,0,0,-1,1672,1149,0,0
455,-125,0,0,0,0,0,0,0,0,0,-1,1679,1149,0,0
462,-125,0,0,0,0,0,0,0,0,0,-1,1686,1149,0,0
469,-125,0,0,0,0,0,0,0,0,0,-1,1693,1149,0,0
476,-125,0,0,0,0,0,0,0,0,0,-1,1700,1149,0,0
483,-125,0,0,0,0,0,0,0,0,0,-1,1707,1149,0,0
490,-125,0,0,0,0,0,0,0,0,0,-1,1714,1149,0,0
497,-125,0,0,0,0,0,0,0,0,0,-1,1721,1149,0,0
504,-125,0,0,0,0,0,0,0,0,0,-1,1728,1149,0,0
511,-125,0,0,0,0,0,0,0,0,0,-1,1735,1149,0,0
518,-125,0,0,0,0,0,0,0,0,0,-1,1742,1149,0,0
525,-125,0,0,0,0,0,0,0,0,0,-1,1749,1149,0,0
532,-125,0,0,0,0,0,0,0,0,0,-1,1756,1149,0,0
539,-125,0,0,0,0,0,0,0,0,0,-1,1763,1149,0,0
546,-125,0,0,0,0,0,0,0,0,0,-1,1770,1149,0,0
553,-125,0,0,0,0,0,0,0,0,0,-1,1777,1149,0,0
560,-125,0,0,0,0,0,0,0,0,0,-1,1784,1149,0,0
567,-125,0,0,0,0,0,0,0,0,0,-1,1791,1149,0,0
574,-125,0,0,0,0,0,0,0,0,0,-1,1798,1149,0,0
581,-125,0,0,0,0,0,0,0,0,0,-1,1805,1149,0,0
588,-125,0,0,0,0,0,0,0,0,0,-1,1812,1149,0,0
595,-125,0,0,0,0,0,0,0,0,0,-1,1819,1149,0,0
602,-125,0,0,0,0,0,0,0,0,0,-1,1826,1149,0,0
609,-125,0,0,0,0,0,0,0,0,0,-1,1833,1149,0,0
616,-125,0,0,0,0,0,0,0,0,0,-1,1840,1149,0,0
623,-125,0,0,0,0,0,0,0,0,0,-1,1847,1149,0,0
630,-125,0,0,0,0,0,0,0,0,0,-1,1854,1149,0,0
637,-125,0,0,0,0,0,0,0,0,0,-1,1861,1149,0,0
644,-125,83.145,2.48413,0.00189457,-0.00235755,-0.00456335,0.00480282,-0.0052658,-0.5674,0.00581516,0.0417864,1868,1149,83.145,-2.48415
651,-125,83.0593,2.4126,0.00129665,-0.00181102,-0.00321945,0.00331762,-0.00383199,-0.560566,0.00413139,0.0387568,1875,1149,83.0593,-2.41255
658,-125,82.9734,2.51306,0.000970916,-0.00130166,-0.00223031,0.00233771,-0.00266846,-0.549799,0.00289242,0.038954,1882,1149,82.9734,-2.5131
665,-125,82.9121,2.5,0.000673752,-0.000758787,-0.00143806,0.00156405,-0.00164908,-0.554343,0.00185532,0.042089,1889,1149,82.9121,-2.49995
672,-125,83.0569,2.29309,0.000419707,-0.000177928,-0.000839568,0.00101205,-0.000770271,-0.614429,0.00103217,0.0452828,1896,1149,83.0569,-2.29303
679,-125,83.0718,2.32861,0.000462268,-6.34019e-05,-0.00023762,0.000553756,-0.000154891,-0.367528,0.000430198,0.0404036,1903,1149,83.0717,-2.3286
686,-125,83.0725,2.36328,0.000818278,5.41191e-05,-4.60764e-05,0.000821046,5.13508e-05,-0.0600071,0.000531075,0.0363941,1910,1149,83.0725,-2.36324
693,-125,82.9702,2.39392,0.000951393,-1.60953e-05,0.000201218,0.000991574,-5.62759e-05,0.197094,0.000680584,0.0311134,1917,1149,82.9702,-2.39391
700,-125,83.0653,2.323,0.00101216,-0.000128065,0.000405909,0.0011419,-0.000257803,0.30936,0.000860175,0.0201915,1924,1149,83.0653,-2.32295
707,-125,83.1599,2.25696,0,0,0,0,0,0,0,-1,1931,1149,83.1599,-2.25694
714,-125,54.8745,9.21375,0,0,0,0,0,0,0,-1,1938,1149,54.8746,-9.21371
721,-125,74.6725,11.1544,0,0,0,0,0,0,0,-1,1945,1149,74.6724,-11.1544
728,-125,74.6818,10.4469,0.000150912,0.00086293,0.00173185,0.00227499,-0.00126114,0.886769,0.00206937,0.0222935,1952,1149,74.6817,-10.4469
735,-125,74.7334,9.78992,0.000165231,0.000993932,0.00179036,0.00241727,-0.0012581,0.899113,0.00215687,0.0250538,1959,1149,74.7334,-9.78989
742,-125,74.6569,9.0885,-0.000100437,0.00120306,0.00216524,0.00281252,-0.0017099,0.931587,0.00263676,0.0372814,1966,1149,74.6569,-9.0885
749,-125,74.5006,8.36865,-0.00100891,0.00197464,0.00298005,0.00381545,-0.00284972,1.01746,0.00386158,0.0282275,1973,1149,74.5006,-8.36865
756,-125,74.4824,7.4928,-0.00255451,0.00365786,0.00394041,0.00556917,-0.00446581,1.11918,0.00580536,0.0238333,1980,1149,74.4823,-7.49278
763,-125,74.4958,6.82007,-0.00403895,0.00580815,0.00508665,0.00796382,-0.00619461,1.16995,0.00819562,0.0128919,1987,1149,74.4959,-6.82007
770,-125,74.4119,6.11975,-0.00539179,0.0080202,0.00646378,0.0106282,-0.00799981,1.18729,0.0107905,0.0163138,1994,1149,74.4118,-6.1198
777,-125,74.2544,5.51257,-0.00654056,0.0101982,0.00809031,0.0134692,-0.00981161,1.18657,0.0134964,0.0348948,2001,1149,74.2545,-5.51256
784,-125,74.1375,4.73389,-0.00732989,0.0121369,0.0103112,0.0165831,-0.0117761,1.16369,0.0164514,0.0491904,2008,1149,74.1376,-4.73391
791,-125,74.1477,3.94482,0,0,0,0,0,0,0,-1,2015,1149,74.1477,-3.94477
798,-125,77.9451,4.9906,0,0,0,0,0,0,0,-1,2022,1149,77.9452,-4.99063
805,-125,77.2542,-2.61108,0,0,0,0,0,0,0,-1,2029,1149,77.2541,2.61109
812,-125,76.2761,-3.18787,0,0,0,0,0,0,0,-1,2036,1149,76.2762,3.18792
-700,-132,0,0,0,0,0,0,0,0,0,-1,524,1156,0,0
-693,-132,-60.677,1.00098,0,0,0,0,0,0,0,-1,531,1156,-60.677,-1.00093
-686,-132,-61.2869,1.69763,0,0,0,0,0,0,0,-1,538,1156,-61.2869,-1.69762
-679,-132,-62.1318,1.58813,-0.0913867,0.0197994,0.0741021,0.0568439,-0.128431,1.10722,0.109598,0.0485335,545,1156,-62.1318,-1.58815
-672,-132,-62.9088,2.22937,-0.0781253,0.0203156,0.0622153,0.0504261,-0.108236,1.12005,0.0936084,0.044328,552,1156,-62.9088,-2.22939
-665,-132,-63.6687,2.9137,-0.0655628,0.0192589,0.0506709,0.0429255,-0.0892293,1.13384,0.0778451,0.044921,559,1156,-63.6687,-2.91366
-658,-132,-57.739,2.51099,0,0,0,0,0,0,0,-1,566,1156,-57.739,-2.51096
-651,-132,-57.5097,3.82666,0,0,0,0,0,0,0,-1,573,1156,-57.5097,-3.82669
-644,-132,-57.3605,5.10315,-0.0325606,0.0120389,0.0188697,0.0189513,-0.0394729,1.21966,0.0344178,0.032061,580,1156,-57.3605,-5.10316
-637,-132,-57.4855,5.92322,-0.0233498,0.00940167,0.00966311,0.0120402,-0.0259883,1.30425,0.0224426,0.0160716,587,1156,-57.4855,-5.92326
-630,-132,-57.4883,6.66504,-0.0154158,0.00584798,0.00164061,0.00597382,-0.0155416,1.49425,0.0128248,0.0117641,594,1156,-57.4883,-6.66498
-623,-132,-57.5323,7.4314,-0.00990089,0.00222645,-0.00454088,0.00373824,-0.0114127,-1.24941,0.00911378,0.0172143,601,1156,-57.5323,-7.43144
-616,-132,-57.5258,8.0177,0,0,0,0,0,0,0,-1,608,1156,-57.5257,-8.01771
-609,-132,-56.803,8.78076,0,0,0,0,0,0,0,-1,615,1156,-56.803,-8.78079
-602,-132,-51.2123,7.94373,0,0,0,0,0,0,0,-1,622,1156,-51.2123,-7.94373
-595,-132,-57.9985,10.5878,0,0,0,0,0,0,0,-1,629,1156,-57.9985,-10.5878
-588,-132,-42.6534,6.92969,0,0,0,0,0,0,0,-1,636,1156,-42.6535,-6.92967
-581,-132,-35.9343,6.42957,0,0,0,0,0,0,0,-1,643,1156,-35.9342,-6.42957
-574,-132,-33.2071,2.86963,0,0,0,0,0,0,0,-1,650,1156,-33.2071,-2.86963
-567,-132,-65.9263,0.222168,0,0,0,0,0,0,0,-1,657,1156,-65.9264,-0.222181
-560,-132,-66.0901,0.545654,-0.00203062,0.000990453,-0.00268169,0.00255777,-0.00359794,-1.04189,0.00357087,0.0377217,664,1156,-66.0901,-0.545603
-553,-132,-66.0628,0.585083,-0.000320668,0.00192257,-0.00254034,0.00357789,-0.00197599,-0.993289,0.00325068,0.0378952,671,1156,-66.0628,-0.585114
-546,-132,-66.0401,0.603149,-0.000151235,0.00354755,-0.0029096,0.00514576,-0.00174945,-1.0685,0.0041388,0.040695,678,1156,-66.0401,-0.603123
-539,-132,-66.0936,0.557495,-0.00108623,0.00517567,-0.00389777,0.00704427,-0.00295483,-1.12376,0.00593174,0.0424132,685,1156,-66.0936,-0.557513
-532,-132,-66.0959,0.435425,-0.0019815,0.00677262,-0.00480493,0.00889525,-0.00410413,-1.15481,0.00767324,0.0404352,692,1156,-66.096,-0.435384
-525,-132,-66.1237,0.365723,-0.00276687,0.00833284,-0.00554824,0.0106305,-0.00506455,-1.17817,0.00924954,0.0418045,699,1156,-66.1236,-0.365752
-518,-132,0,0,0,0,0,0,0,0,0,-1,706,1156,0,0
-511,-132,0,0,0,0,0,0,0,0,0,-1,713,1156,0,0
-504,-132,0,0,0,0,0,0,0,0,0,-1,720,1156,0,0
-497,-132,0,0,0,0,0,0,0,0,0,-1,727,1156,0,0
-490,-132,0,0,0,0,0,0,0,0,0,-1,734,1156,0,0
-483,-132,0,0,0,0,0,0,0,0,0,-1,741,1156,0,0
-476,-132,0,0,0,0,0,0,0,0,0,-1,748,1156,0,0
-469,-132,0,0,0,0,0,0,0,0,0,-1,755,1156,0,0
-462,-132,0,0,0,0,0,0,0,0,0,-1,762,1156,0,0
-455,-132,0,0,0,0,0,0,0,0,0,-1,769,1156,0,0
-448,-132,0,0,0,0,0,0,0,0,0,-1,776,1156,0,0
-441,-132,0,0,0,0,0,0,0,0,0,-1,783,1156,0,0
-434,-132,0,0,0,0,0,0,0,0,0,-1,790,1156,0,0
-427,-132,0,0,0,0,0,0,0,0,0,-1,797,1156,0,0
-420,-132,0,0,0,0,0,0,0,0,0,-1,804,1156,0,0
-413,-132,0,0,0,0,0,0,0,0,0,-1,811,1156,0,0
-406,-132,0,0,0,0,0,0,0,0,0,-1,818,1156,0,0
-399,-132,0,0,0,0,0,0,0,0,0,-1,825,1156,0,0
-392,-132,0,0,0,0,0,0,0,0,0,-1,832,1156,0,0
-385,-132,0,0,0,0,0,0,0,0,0,-1,839,1156,0,0
-378,-132,0,0,0,0,0,0,0,0,0,-1,846,1156,0,0
-371,-132,0,0,0,0,0,0,0,0,0,-1,853,1156,0,0
-364,-132,0,0,0,0,0,0,0,0,0,-1,860,1156,0,0
-357,-132,0,0,0,0,0,0,0,0,0,-1,867,1156,0,0
-350,-132,0,0,0,0,0,0,0,0,0,-1,874,1156,0,0
-343,-132,0,0,0,0,0,0,0,0,0,-1,881,1156,0,0
-336,-132,0,0,0,0,0,0,0,0,0,-1,888,1156,0,0
-329,-132,0,0,0,0,0,0,0,0,0,-1,895,1156,0,0
-322,-132,0,0,0,0,0,0,0,0,0,-1,902,1156,0,0
-315,-132,0,0,0,0,0,0,0,0,0,-1,909,1156,0,0
-308,-132,0,0,0,0,0,0,0,0,0,-1,916,1156,0,0
-301,-132,0,0,0,0,0,0,0,0,0,-1,923,1156,0,0
-294,-132,0,0,0,0,0,0,0,0,0,-1,930,1156,0,0
-287,-132,0,0,0,0,0,0,0,0,0,-1,937,1156,0,0
-280,-132,0,0,0,0,0,0,0,0,0,-1,944,1156,0,0
-273,-132,0,0,0,0,0,0,0,0,0,-1,951,1156,0,0
-266,-132,0,0,0,0,0,0,0,0,0,-1,958,1156,0,0
-259,-132,0,0,0,0,0,0,0,0,0,-1,965,1156,0,0
-252,-132,0,0,0,0,0,0,0,0,0,-1,972,1156,0,0
-245,-132,0,0,0,0,0,0,0,0,0,-1,979,1156,0,0
-238,-132,0,0,0,0,0,0,0,0,0,-1,986,1156,0,0
-231,-132,0,0,0,0,0,0,0,0,0,-1,993,1156,0,0
-224,-132,0,0,0,0,0,0,0,0,0,-1,1000,1156,0,0
-217,-132,0,0,0,0,0,0,0,0,0,-1,1007,1156,0,0
-210,-132,0,0,0,0,0,0,0,0,0,-1,1014,1156,0,0
-203,-132,0,0,0,0,0,0,0,0,0,-1,1021,1156,0,0
-196,-132,0,0,0,0,0,0,0,0,0,-1,1028,1156,0,0
-189,-132,0,0,0,0,0,0,0,0,0,-1,1035,1156,0,0
-182,-132,0,0,0,0,0,0,0,0,0,-1,1042,1156,0,0
-175,-132,0,0,0,0,0,0,0,0,0,-1,1049,1156,0,0
-168,-132,0,0,0,0,0,0,0,0,0,-1,1056,1156,0,0
-161,-132,0,0,0,0,0,0,0,0,0,-1,1063,1156,0,0
-154,-132,0,0,0,0,0,0,0,0,0,-1,1070,1156,0,0
-147,-132,0,0,0,0,0,0,0,0,0,-1,1077,1156,0,0
-140,-132,0,0,0,0,0,0,0,0,0,-1,1084,1156,0,0
-133,-132,0,0,0,0,0,0,0,0,0,-1,1091,1156,0,0
-126,-132,0,0,0,0,0,0,0,0,0,-1,1098,1156,0,0
-119,-132,0,0,0,0,0,0,0,0,0,-1,1105,1156,0,0
-112,-132,0,0,0,0,0,0,0,0,0,-1,1112,1156,0,0
-105,-132,0,0,0,0,0,0,0,0,0,-1,1119,1156,0,0
-98,-132,0,0,0,0,0,0,0,0,0,-1,1126,1156,0,0
-91,-132,0,0,0,0,0,0,0,0,0,-1,1133,1156,0,0
-84,-132,0,0,0,0,0,0,0,0,0,-1,1140,1156,0,0
-77,-132,0,0,0,0,0,0,0,0,0,-1,1147,1156,0,0
-70,-132,0,0,0,0,0,0,0,0,0,-1,1154,1156,0,0
-63,-132,0,0,0,0,0,0,0,0,0,-1,1161,1156,0,0
-56,-132,0,0,0,0,0,0,0,0,0,-1,1168,1156,0,0
-49,-132,0,0,0,0,0,0,0,0,0,-1,1175,1156,0,0
-42,-132,0,0,0,0,0,0,0,0,0,-1,1182,1156,0,0
-35,-132,0,0,0,0,0,0,0,0,0,-1,1189,1156,0,0
-28,-132,0,0,0,0,0,0,0,0,0,-1,1196,1156,0,0
-21,-132,0,0,0,0,0,0,0,0,0,-1,1203,1156,0,0
-14,-132,0,0,0,0,0,0,0,0,0,-1,1210,1156,0,0
-7,-132,0,0,0,0,0,0,0,0,0,-1,1217,1156,0,0
0,-132,0,0,0,0,0,0,0,0,0,-1,1224,1156,0,0
7,-132,0,0,0,0,0,0,0,0,0,-1,1231,1156,0,0
14,-132,0,0,0,0,0,0,0,0,0,-1,1238,1156,0,0
21,-132,0,0,0,0,0,0,0,0,0,-1,1245,1156,0,0
28,-132,0,0,0,0,0,0,0,0,0,-1,1252,1156,0,0
35,-132,0,0,0,0,0,0,0,0,0,-1,1259,1156,0,0
42,-132,0,0,0,0,0,0,0,0,0,-1,1266,1156,0,0
49,-132,0,0,0,0,0,0,0,0,0,-1,1273,1156,0,0
56,-132,0,0,0,0,0,0,0,0,0,-1,1280,1156,0,0
63,-132,0,0,0,0,0,0,0,0,0,-1,1287,1156,0,0
70,-132,0,0,0,0,0,0,0,0,0,-1,1294,1156,0,0
77,-132,0,0,0,0,0,0,0,0,0,-1,1301,1156,0,0
84,-132,0,0,0,0,0,0,0,0,0,-1,1308,1156,0,0
91,-132,0,0,0,0,0,0,0,0,0,-1,1315,1156,0,0
98,-132,0,0,0,0,0,0,0,0,0,-1,1322,1156,0,0
105,-132,0,0,0,0,0,0,0,0,0,-1,1329,1156,0,0
112,-132,0,0,0,0,0,0,0,0,0,-1,1336,1156,0,0
119,-132,0,0,0,0,0,0,0,0,0,-1,1343,1156,0,0
126,-132,0,0,0,0,0,0,0,0,0,-1,1350,1156,0,0
133,-132,0,0,0,0,0,0,0,0,0,-1,1357,1156,0,0
140,-132,0,0,0,0,0,0,0,0,0,-1,1364,1156,0,0
147,-132,0,0,0,0,0,0,0,0,0,-1,1371,1156,0,0
154,-132,0,0,0,0,0,0,0,0,0,-1,1378,1156,0,0
161,-132,0,0,0,0,0,0,0,0,0,-1,1385,1156,0,0
168,-132,0,0,0,0,0,0,0,0,0,-1,1392,1156,0,0
175,-132,0,0,0,0,0,0,0,0,0,-1,1399,1156,0,0
182,-132,0,0,0,0,0,0,0,0,0,-1,1406,1156,0,0
189,-132,0,0,0,0,0,0,0,0,0,-1,1413,1156,0,0
196,-132,0,0,0,0,0,0,0,0,0,-1,1420,1156,0,0
203,-132,0,0,0,0,0,0,0,0,0,-1,1427,1156,0,0
210,-132,0,0,0,0,0,0,0,0,0,-1,1434,1156,0,0
217,-132,0,0,0,0,0,0,0,0,0,-1,1441,1156,0,0
224,-132,0,0,0,0,0,0,0,0,0,-1,1448,1156,0,0
231,-132,0,0,0,0,0,0,0,0,0,-1,1455,1156,0,0
238,-132,0,0,0,0,0,0,0,0,0,-1,1462,1156,0,0
245,-132,0,0,0,0,0,0,0,0,0,-1,1469,1156,0,0
252,-132,0,0,0,0,0,0,0,0,0,-1,1476,1156,0,0
259,-132,0,0,0,0,0,0,0,0,0,-1,1483,1156,0,0
266,-132,0,0,0,0,0,0,0,0,0,-1,1490,1156,0,0
273,-132,0,0,0,0,0,0,0,0,0,-1,1497,1156,0,0
280,-132,0,0,0,0,0,0,0,0,0,-1,1504,1156,0,0
287,-132,0,0,0,0,0,0,0,0,0,-1,1511,1156,0,0
294,-132,0,0,0,0,0,0,0,0,0,-1,1518,1156,0,0
301,-132,0,0,0,0,0,0,0,0,0,-1,1525,1156,0,0
308,-132,0,0,0,0,0,0,0,0,0,-1,1532,1156,0,0
315,-132,0,0,0,0,0,0,0,0,0,-1,1539,1156,0,0
322,-132,0,0,0,0,0,0,0,0,0,-1,1546,1156,0,0
329,-132,0,0,0,0,0,0,0,0,0,-1,1553,1156,0,0
336,-132,0,0,0,0,0,0,0,0,0,-1,1560,1156,0,0
343,-132,0,0,0,0,0,0,0,0,0,-1,1567,1156,0,0
350,-132,0,0,0,0,0,0,0,0,0,-1,1574,1156,0,0
357,-132,0,0,0,0,0,0,0,0,0,-1,1581,1156,0,0
364,-132,0,0,0,0,0,0,0,0,0,-1,1588,1156,0,0
371,-132,0,0,0,0,0,0,0,0,0,-1,1595,1156,0,0
378,-132,0,0,0,0,0,0,0,0,0,-1,1602,1156,0,0
385,-132,0,0,0,0,0,0,0,0,0,-1,1609,1156,0,0
392,-132,0,0,0,0,0,0,0,0,0,-1,1616,1156,0,0
399,-132,0,0,0,0,0,0,0,0,0,-1,1623,1156,0,0
406,-132,0,0,0,0,0,0,0,0,0,-1,1630,1156,0,0
413,-132,0,0,0,0,0,0,0,0,0,-1,1637,1156,0,0
420,-132,0,0,0,0,0,0,0,0,0,-1,1644,1156,0,0
427,-132,0,0,0,0,0,0,0,0,0,-1,1651,1156,0,0
434,-132,0,0,0,0,0,0,0,0,0,-1,1658,1156,0,0
441,-132,0,0,0,0,0,0,0,0,0,-1,1665,1156,0,0
448,-132,0,0,0,0,0,0,0,0,0,-1,1672,1156,0,0
455,-132,0,0,0,0,0,0,0,0,0,-1,1679,1156,0,0
462,-132,0,0,0,0,0,0,0,0,0,-1,1686,1156,0,0
469,-132,0,0,0,0,0,0,0,0,0,-1,1693,1156,0,0
476,-132,0,0,0,0,0,0,0,0,0,-1,1700,1156,0,0
483,-132,0,0,0,0,0,0,0,0,0,-1,1707,1156,0,0
490,-132,0,0,0,0,0,0,0,0,0,-1,1714,1156,0,0
497,-132,0,0,0,0,0,0,0,0,0,-1,1721,1156,0,0
504,-132,0,0,0,0,0,0,0,0,0,-1,1728,1156,0,0
511,-132,0,0,0,0,0,0,0,0,0,-1,1735,1156,0,0
518,-132,0,0,0,0,0,0,0,0,0,-1,1742,1156,0,0
525,-132,0,0,0,0,0,0,0,0,0,-1,1749,1156,0,0
532,-132,0,0,0,0,0,0,0,0,0,-1,1756,1156,0,0
539,-132,0,0,0,0,0,0,0,0,0,-1,1763,1156,0,0
546,-132,0,0,0,0,0,0,0,0,0,-1,1770,1156,0,0
553,-132,0,0,0,0,0,0,0,0,0,-1,1777,1156,0,0
560,-132,0,0,0,0,0,0,0,0,0,-1,1784,1156,0,0
567,-132,0,0,0,0,0,0,0,0,0,-1,1791,1156,0,0
574,-132,0,0,0,0,0,0,0,0,0,-1,1798,1156,0,0
581,-132,0,0,0,0,0,0,0,0,0,-1,1805,1156,0,0
588,-132,0,0,0,0,0,0,0,0,0,-1,1812,1156,0,0
595,-132,0,0,0,0,0,0,0,0,0,-1,1819,1156,0,0
602,-132,0,0,0,0,0,0,0,0,0,-1,1826,1156,0,0
609,-132,0,0,0,0,0,0,0,0,0,-1,1833,1156,0,0
616,-132,0,0,0,0,0,0,0,0,0,-1,1840,1156,0,0
623,-132,0,0,0,0,0,0,0,0,0,-1,1847,1156,0,0
630,-132,0,0,0,0,0,0,0,0,0,-1,1854,1156,0,0
637,-132,0,0,0,0,0,0,0,0,0,-1,1861,1156,0,0
644,-132,83.1648,2.38428,0.00192852,-0.00123282,-0.00397097,0.00462186,-0.00392616,-0.595983,0.00494064,0.0445528,1868,1156,83.1648,-2.38425
651,-132,83.0601,2.36218,0.0012988,-0.000935228,-0.00276153,0.00316068,-0.0027971,-0.593212,0.00344186,0.0393894,1875,1156,83.06,-2.36222
658,-132,82.9381,2.41272,0.000938822,-0.000599019,-0.00188735,0.00220787,-0.00186807,-0.59196,0.00235597,0.0392828,1882,1156,82.9381,-2.41273
665,-132,82.9149,2.42065,0.000630494,-0.00018499,-0.00121449,0.00150387,-0.00105836,-0.623445,0.00148674,0.0416549,1889,1156,82.915,-2.42068
672,-132,83.0782,2.20972,0.000389554,0.000315041,-0.000739315,0.00109255,-0.000387956,-0.760223,0.00088645,0.0408669,1896,1156,83.0783,-2.20977
679,-132,83.1039,2.25647,0.000483845,0.000381747,-0.00021554,0.000654299,0.000211293,-0.669119,0.000385575,0.0395349,1903,1156,83.1039,-2.25644
686,-132,83.0791,2.56189,0.00102665,0.000554803,-8.1697e-05,0.00104039,0.000541058,-0.166682,0.000600831,0.0366237,1910,1156,83.0791,-2.56183
693,-132,83.0095,2.47803,0.00125182,0.000461456,0.000184375,0.00129271,0.000420561,0.21827,0.000761377,0.0293019,1917,1156,83.0095,-2.47806
700,-132,83.0789,2.3313,0,0,0,0,0,0,0,-1,1924,1156,83.0789,-2.33134
707,-132,57.9275,3.01367,0,0,0,0,0,0,0,-1,1931,1156,57.9275,-3.01369
714,-132,57.8083,9.22156,0,0,0,0,0,0,0,-1,1938,1156,57.8084,-9.22151
721,-132,73.9581,11.1696,0,0,0,0,0,0,0,-1,1945,1156,73.9582,-11.1696
728,-132,73.8544,10.5935,0.000803937,0.00109962,0.0016387,0.00259713,-0.000693572,0.830386,0.00200305,0.0322147,1952,1156,73.8544,-10.5935
735,-132,73.8693,9.86426,0.000979958,0.00110158,0.00172467,0.00276651,-0.00068497,0.803021,0.00211005,0.0334254,1959,1156,73.8692,-9.86431
742,-132,73.875,9.11011,0.000786685,0.00115821,0.00207412,0.00305487,-0.00110997,0.83006,0.00249043,0.0304551,1966,1156,73.8751,-9.11005
749,-132,73.7836,8.34473,-0.000276424,0.00183671,0.00291081,0.00387678,-0.00231649,0.959494,0.00361331,0.0250196,1973,1156,73.7835,-8.34473
756,-132,73.7485,7.55115,-0.00212329,0.00345778,0.00387806,0.00544495,-0.00411046,1.09727,0.00553472,0.0242492,1980,1156,73.7485,-7.55113
763,-132,73.6975,6.85291,-0.00395256,0.00547479,0.00501843,0.00764612,-0.00612389,1.16245,0.0079663,0.0148314,1987,1156,73.6976,-6.85288
770,-132,73.6875,6.16699,-0.00569119,0.0075249,0.00638221,0.0101037,-0.00827003,1.18679,0.0106257,0.0148055,1994,1156,73.6874,-6.16698
777,-132,73.583,5.41797,-0.00730113,0.00954737,0.0079915,0.0127348,-0.0104886,1.19128,0.013429,0.0280054,2001,1156,73.583,-5.41802
784,-132,73.4492,4.64551,-0.00867009,0.0112973,0.0102227,0.0156027,-0.0129755,1.17218,0.0165228,0.0483389,2008,1156,73.4492,-4.64548
791,-132,73.4368,3.85767,0,0,0,0,0,0,0,-1,2015,1156,73.4367,-3.85767
798,-132,73.2852,-4.60278,0,0,0,0,0,0,0,-1,2022,1156,73.285,4.60284
805,-132,77.8914,-3.00745,0,0,0,0,0,0,0,-1,2029,1156,77.8914,3.00746
812,-132,76.9595,-3.56543,0,0,0,0,0,0,0,-1,2036,1156,76.9594,3.56547
-700,-139,0,0,0,0,0,0,0,0,0,-1,524,1163,0,0
-693,-139,-66.0565,0.425781,0,0,0,0,0,0,0,-1,531,1163,-66.0566,-0.425723
-686,-139,-66.0005,0.5271,0,0,0,0,0,0,0,-1,538,1163,-66.0005,-0.527098
-679,-139,-62.8392,1.49329,0,0,0,0,0,0,0,-1,545,1163,-62.8392,-1.49335
-672,-139,-63.6089,2.1449,-0.0763676,0.0289214,0.0614354,0.0571828,-0.104629,1.13964,0.0947513,0.0462397,552,1163,-63.6089,-2.14494
-665,-139,-64.3389,2.83337,-0.0638797,0.0258707,0.049807,0.0480367,-0.0860457,1.15208,0.0784424,0.0445417,559,1163,-64.3389,-2.83333
-658,-139,-65.2365,3.36401,-0.0523143,0.0221952,0.0387113,0.0386664,-0.0687855,1.16851,0.0628446,0.042317,566,1163,-65.2365,-3.36399
-651,-139,-56.6044,4.18713,0,0,0,0,0,0,0,-1,573,1163,-56.6044,-4.18717
-644,-139,-56.5499,5.18054,-0.0315614,0.0139691,0.0182555,0.0203846,-0.037977,1.23285,0.0342016,0.032992,580,1163,-56.5499,-5.1806
-637,-139,-56.6807,5.91895,-0.0225848,0.0102078,0.00915642,0.0125912,-0.0249683,1.31614,0.022074,0.0188082,587,1163,-56.6807,-5.91898
-630,-139,-56.7032,6.68481,-0.0148727,0.00583948,0.00124447,0.00591399,-0.0149472,1.511,0.0124149,0.0118643,594,1163,-56.7032,-6.6848
-623,-139,-56.741,7.46753,-0.00948387,0.0018439,-0.00498446,0.00372485,-0.0113648,-1.20996,0.0090766,0.0190513,601,1163,-56.741,-7.46749
-616,-139,-56.8843,8.20471,-0.00854805,-0.000330775,-0.00599369,0.00282731,-0.0117061,-1.08586,0.00889754,0.0248428,608,1163,-56.8843,-8.20466
-609,-139,-57.1307,9.04407,0,0,0,0,0,0,0,-1,615,1163,-57.1307,-9.04406
-602,-139,-50.4112,7.96228,0,0,0,0,0,0,0,-1,622,1163,-50.4112,-7.96224
-595,-139,-50.6539,8.62317,0,0,0,0,0,0,0,-1,629,1163,-50.6539,-8.62318
-588,-139,-51.0773,9.1781,0,0,0,0,0,0,0,-1,636,1163,-51.0773,-9.17806
-581,-139,-34.4892,6.72473,0,0,0,0,0,0,0,-1,643,1163,-34.4892,-6.72476
-574,-139,-23.0725,2.4043,0,0,0,0,0,0,0,-1,650,1163,-23.0725,-2.40433
-567,-139,-65.9962,0.522705,0,0,0,0,0,0,0,-1,657,1163,-65.9962,-0.522757
-560,-139,-65.9948,0.494995,-0.00186354,0.001147,-0.00339203,0.00335275,-0.00406929,-0.994227,0.00429177,0.039825,664,1163,-65.9947,-0.494977
-553,-139,-65.9221,0.456421,0.000300679,0.00205822,-0.00311854,0.00441944,-0.00206054,-0.922731,0.00382295,0.0406591,671,1163,-65.9221,-0.456439
-546,-139,-65.8286,0.442749,0.0010188,0.00388937,-0.0031818,0.00594464,-0.00103646,-0.997279,0.00434993,0.0437175,678,1163,-65.8286,-0.442705
-539,-139,-65.9416,0.506348,8.10225e-05,0.00587607,-0.00410689,0.0080047,-0.00204761,-1.09261,0.006134,0.0438576,685,1163,-65.9416,-0.506289
-532,-139,-66.0697,0.378784,-0.000789983,0.00777013,-0.00491999,0.0100112,-0.00303106,-1.14337,0.00788124,0.0427255,692,1163,-66.0697,-0.378775
-525,-139,-66.0706,0.337891,-0.00151603,0.00950754,-0.00558078,0.0118395,-0.00384803,-1.17499,0.00944083,0.0407159,699,1163,-66.0706,-0.337849
-518,-139,0,0,0,0,0,0,0,0,0,-1,706,1163,0,0
-511,-139,0,0,0,0,0,0,0,0,0,-1,713,1163,0,0
-504,-139,0,0,0,0,0,0,0,0,0,-1,720,1163,0,0
-497,-139,0,0,0,0,0,0,0,0,0,-1,727,1163,0,0
-490,-139,0,0,0,0,0,0,0,0,0,-1,734,1163,0,0
-483,-139,0,0,0,0,0,0,0,0,0,-1,741,1163,0,0
-476,-139,0,0,0,0,0,0,0,0,0,-1,748,1163,0,0
-469,-139,0,0,0,0,0,0,0,0,0,-1,755,1163,0,0
-462,-139,0,0,0,0,0,0,0,0,0,-1,762,1163,0,0
-455,-139,0,0,0,0,0,0,0,0,0,-1,769,1163,0,0
-448,-139,0,0,0,0,0,0,0,0,0,-1,776,1163,0,0
-441,-139,0,0,0,0,0,0,0,0,0,-1,783,1163,0,0
-434,-139,0,0,0,0,0,0,0,0,0,-1,790,1163,0,0
-427,-139,0,0,0,0,0,0,0,0,0,-1,797,1163,0,0
-420,-139,0,0,0,0,0,0,0,0,0,-1,804,1163,0,0
-413,-139,0,0,0,0,0,0,0,0,0,-1,811,1163,0,0
-406,-139,0,0,0,0,0,0,0,0,0,-1,818,1163,0,0
-399,-139,0,0,0,0,0,0,0,0,0,-1,825,1163,0,0
-392,-139,0,0,0,0,0,0,0,0,0,-1,832,1163,0,0
-385,-139,0,0,0,0,0,0,0,0,0,-1,839,1163,0,0
-378,-139,0,0,0,0,0,0,0,0,0,-1,846,1163,0,0
-371,-139,0,0,0,0,0,0,0,0,0,-1,853,1163,0,0
-364,-139,0,0,0,0,0,0,0,0,0,-1,860,1163,0,0
-357,-139,0,0,0,0,0,0,0,0,0,-1,867,1163,0,0
-350,-139,0,0,0,0,0,0,0,0,0,-1,874,1163,0,0
-343,-139,0,0,0,0,0,0,0,0,0,-1,881,1163,0,0
-336,-139,0,0,0,0,0,0,0,0,0,-1,888,1163,0,0
-329,-139,0,0,0,0,0,0,0,0,0,-1,895,1163,0,0
-322,-139,0,0,0,0,0,0,0,0,0,-1,902,1163,0,0
-315,-139,0,0,0,0,0,0,0,0,0,-1,909,1163,0,0
-308,-139,0,0,0,0,0,0,0,0,0,-1,916,1163,0,0
-301,-139,0,0,0,0,0,0,0,0,0,-1,923,1163,0,0
-294,-139,0,0,0,0,0,0,0,0,0,-1,930,1163,0,0
-287,-139,0,0,0,0,0,0,0,0,0,-1,937,1163,0,0
-280,-139,0,0,0,0,0,0,0,0,0,-1,944,1163,0,0
-273,-139,0,0,0,0,0,0,0,0,0,-1,951,1163,0,0
-266,-139,0,0,0,0,0,0,0,0,0,-1,958,1163,0,0
-259,-139,0,0,0,0,0,0,0,0,0,-1,965,1163,0,0
-252,-139,0,0,0,0,0,0,0,0,0,-1,972,1163,0,0
-245,-139,0,0,0,0,0,0,0,0,0,-1,979,1163,0,0
-238,-139,0,0,0,0,0,0,0,0,0,-1,986,1163,0,0
-231,-139,0,0,0,0,0,0,0,0,0,-1,993,1163,0,0
-224,-139,0,0,0,0,0,0,0,0,0,-1,1000,1163,0,0
-217,-139,0,0,0,0,0,0,0,0,0,-1,1007,1163,0,0
-210,-139,0,0,0,0,0,0,0,0,0,-1,1014,1163,0,0
-203,-139,0,0,0,0,0,0,0,0,0,-1,1021,1163,0,0
-196,-139,0,0,0,0,0,0,0,0,0,-1,1028,1163,0,0
-189,-139,0,0,0,0,0,0,0,0,0,-1,1035,1163,0,0
-182,-139,0,0,0,0,0,0,0,0,0,-1,1042,1163,0,0
-175,-139,0,0,0,0,0,0,0,0,0,-1,1049,1163,0,0
-168,-139,0,0,0,0,0,0,0,0,0,-1,1056,1163,0,0
-161,-139,0,0,0,0,0,0,0,0,0,-1,1063,1163,0,0
-154,-139,0,0,0,0,0,0,0,0,0,-1,1070,1163,0,0
-147,-139,0,0,0,0,0,0,0,0,0,-1,1077,1163,0,0
-140,-139,0,0,0,0,0,0,0,0,0,-1,1084,1163,0,0
-133,-139,0,0,0,0,0,0,0,0,0,-1,1091,1163,0,0
-126,-139,0,0,0,0,0,0,0,0,0,-1,1098,1163,0,0
-119,-139,0,0,0,0,0,0,0,0,0,-1,1105,1163,0,0
-112,-139,0,0,0,0,0,0,0,0,0,-1,1112,1163,0,0
-105,-139,0,0,0,0,0,0,0,0,0,-1,1119,1163,0,0
-98,-139,0,0,0,0,0,0,0,0,0,-1,1126,1163,0,0
-91,-139,0,0,0,0,0,0,0,0,0,-1,1133,1163,0,0
-84,-139,0,0,0,0,0,0,0,0,0,-1,1140,1163,0,0
-77,-139,0,0,0,0,0,0,0,0,0,-1,1147,1163,0,0
-70,-139,0,0,0,0,0,0,0,0,0,-1,1154,1163,0,0
-63,-139,0,0,0,0,0,0,0,0,0,-1,1161,1163,0,0
-56,-139,0,0,0,0,0,0,0,0,0,-1,1168,1163,0,0
-49,-139,0,0,0,0,0,0,0,0,0,-1,1175,1163,0,0
-42,-139,0,0,0,0,0,0,0,0,0,-1,1182,1163,0,0
-35,-139,0,0,0,0,0,0,0,0,0,-1,1189,1163,0,0
-28,-139,0,0,0,0,0,0,0,0,0,-1,1196,1163,0,0
-21,-139,0,0,0,0,0,0,0,0,0,-1,1203,1163,0,0
-14,-139,0,0,0,0,0,0,0,0,0,-1,1210,1163,0,0
-7,-139,0,0,0,0,0,0,0,0,0,-1,1217,1163,0,0
0,-139,0,0,0,0,0,0,0,0,0,-1,1224,1163,0,0
7,-139,0,0,0,0,0,0,0,0,0,-1,1231,1163,0,0
14,-139,0,0,0,0,0,0,0,0,0,-1,1238,1163,0,0
21,-139,0,0,0,0,0,0,0,0,0,-1,1245,1163,0,0
28,-139,0,0,0,0,0,0,0,0,0,-1,1252,1163,0,0
35,-139,0,0,0,0,0,0,0,0,0,-1,1259,1163,0,0
42,-139,0,0,0,0,0,0,0,0,0,-1,1266,1163,0,0
49,-139,0,0,0,0,0,0,0,0,0,-1,1273,1163,0,0
56,-139,0,0,0,0,0,0,0,0,0,-1,1280,1163,0,0
63,-139,0,0,0,0,0,0,0,0,0,-1,1287,1163,0,0
70,-139,0,0,0,0,0,0,0,0,0,-1,1294,1163,0,0
77,-139,0,0,0,0,0,0,0,0,0,-1,1301,1163,0,0
84,-139,0,0,0,0,0,0,0,0,0,-1,1308,1163,0,0
91,-139,0,0,0,0,0,0,0,0,0,-1,1315,1163,0,0
98,-139,0,0,0,0,0,0,0,0,0,-1,1322,1163,0,0
105,-139,0,0,0,0,0,0,0,0,0,-1,1329,1163,0,0
112,-139,0,0,0,0,0,0,0,0,0,-1,1336,1163,0,0
119,-139,0,0,0,0,0,0,0,0,0,-1,1343,1163,0,0
126,-139,0,0,0,0,0,0,0,0,0,-1,1350,1163,0,0
133,-139,0,0,0,0,0,0,0,0,0,-1,1357,1163,0,0
140,-139,0,0,0,0,0,0,0,0,0,-1,1364,1163,0,0
147,-139,0,0,0,0,0,0,0,0,0,-1,1371,1163,0,0
154,-139,0,0,0,0,0,0,0,0,0,-1,1378,1163,0,0
161,-139,0,0,0,0,0,0,0,0,0,-1,1385,1163,0,0
168,-139,0,0,0,0,0,0,0,0,0,-1,1392,1163,0,0
175,-139,0,0,0,0,0,0,0,0,0,-1,1399,1163,0,0
182,-139,0,0,0,0,0,0,0,0,0,-1,1406,1163,0,0
189,-139,0,0,0,0,0,0,0,0,0,-1,1413,1163,0,0
196,-139,0,0,0,0,0,0,0,0,0,-1,1420,1163,0,0
203,-139,0,0,0,0,0,0,0,0,0,-1,1427,1163,0,0
210,-139,0,0,0,0,0,0,0,0,0,-1,1434,1163,0,0
217,-139,0,0,0,0,0,0,0,0,0,-1,1441,1163,0,0
224,-139,0,0,0,0,0,0,0,0,0,-1,1448,1163,0,0
231,-139,0,0,0,0,0,0,0,0,0,-1,1455,1163,0,0
238,-139,0,0,0,0,0,0,0,0,0,-1,1462,1163,0,0
245,-139,0,0,0,0,0,0,0,0,0,-1,1469,1163,0,0
252,-139,0,0,0,0,0,0,0,0,0,-1,1476,1163,0,0
259,-139,0,0,0,0,0,0,0,0,0,-1,1483,1163,0,0
266,-139,0,0,0,0,0,0,0,0,0,-1,1490,1163,0,0
273,-139,0,0,0,0,0,0,0,0,0,-1,1497,1163,0,0
280,-139,0,0,0,0,0,0,0,0,0,-1,1504,1163,0,0
287,-139,0,0,0,0,0,0,0,0,0,-1,1511,1163,0,0
294,-139,0,0,0,0,0,0,0,0,0,-1,1518,1163,0,0
301,-139,0,0,0,0,0,0,0,0,0,-1,1525,1163,0,0
308,-139,0,0,0,0,0,0,0,0,0,-1,1532,1163,0,0
315,-139,0,0,0,0,0,0,0,0,0,-1,1539,1163,0,0
322,-139,0,0,0,0,0,0,0,0,0,-1,1546,1163,0,0
329,-139,0,0,0,0,0,0,0,0,0,-1,1553,1163,0,0
336,-139,0,0,0,0,0,0,0,0,0,-1,1560,1163,0,0
343,-139,0,0,0,0,0,0,0,0,0,-1,1567,1163,0,0
350,-139,0,0,0,0,0,0,0,0,0,-1,1574,1163,0,0
357,-139,0,0,0,0,0,0,0,0,0,-1,1581,1163,0,0
364,-139,0,0,0,0,0,0,0,0,0,-1,1588,1163,0,0
371,-139,0,0,0,0,0,0,0,0,0,-1,1595,1163,0,0
378,-139,0,0,0,0,0,0,0,0,0,-1,1602,1163,0,0
385,-139,0,0,0,0,0,0,0,0,0,-1,1609,1163,0,0
392,-139,0,0,0,0,0,0,0,0,0,-1,1616,1163,0,0
399,-139,0,0,0,0,0,0,0,0,0,-1,1623,1163,0,0
406,-139,0,0,0,0,0,0,0,0,0,-1,1630,1163,0,0
413,-139,0,0,0,0,0,0,0,0,0,-1,1637,1163,0,0
420,-139,0,0,0,0,0,0,0,0,0,-1,1644,1163,0,0
427,-139,0,0,0,0,0,0,0,0,0,-1,1651,1163,0,0
434,-139,0,0,0,0,0,0,0,0,0,-1,1658,1163,0,0
441,-139,0,0,0,0,0,0,0,0,0,-1,1665,1163,0,0
448,-139,0,0,0,0,0,0,0,0,0,-1,1672,1163,0,0
455,-139,0,0,0,0,0,0,0,0,0,-1,1679,1163,0,0
462,-139,0,0,0,0,0,0,0,0,0,-1,1686,1163,0,0
469,-139,0,0,0,0,0,0,0,0,0,-1,1693,1163,0,0
476,-139,0,0,0,0,0,0,0,0,0,-1,1700,1163,0,0
483,-139,0,0,0,0,0,0,0,0,0,-1,1707,1163,0,0
490,-139,0,0,0,0,0,0,0,0,0,-1,1714,1163,0,0
497,-139,0,0,0,0,0,0,0,0,0,-1,1721,1163,0,0
504,-139,0,0,0,0,0,0,0,0,0,-1,1728,1163,0,0
511,-139,0,0,0,0,0,0,0,0,0,-1,1735,1163,0,0
518,-139,0,0,0,0,0,0,0,0,0,-1,1742,1163,0,0
525,-139,0,0,0,0,0,0,0,0,0,-1,1749,1163,0,0
532,-139,0,0,0,0,0,0,0,0,0,-1,1756,1163,0,0
539,-139,0,0,0,0,0,0,0,0,0,-1,1763,1163,0,0
546,-139,0,0,0,0,0,0,0,0,0,-1,1770,1163,0,0
553,-139,0,0,0,0,0,0,0,0,0,-1,1777,1163,0,0
560,-139,0,0,0,0,0,0,0,0,0,-1,1784,1163,0,0
567,-139,0,0,0,0,0,0,0,0,0,-1,1791,1163,0,0
574,-139,0,0,0,0,0,0,0,0,0,-1,1798,1163,0,0
581,-139,0,0,0,0,0,0,0,0,0,-1,1805,1163,0,0
588,-139,0,0,0,0,0,0,0,0,0,-1,1812,1163,0,0
595,-139,0,0,0,0,0,0,0,0,0,-1,1819,1163,0,0
602,-139,0,0,0,0,0,0,0,0,0,-1,1826,1163,0,0
609,-139,0,0,0,0,0,0,0,0,0,-1,1833,1163,0,0
616,-139,0,0,0,0,0,0,0,0,0,-1,1840,1163,0,0
623,-139,0,0,0,0,0,0,0,0,0,-1,1847,1163,0,0
630,-139,0,0,0,0,0,0,0,0,0,-1,1854,1163,0,0
637,-139,0,0,0,0,0,0,0,0,0,-1,1861,1163,0,0
644,-139,83.1652,2.30066,0.00200279,-0.000401523,-0.00373931,0.00472844,-0.00312717,-0.62987,0.00456673,0.0407729,1868,1163,83.1651,-2.30061
651,-139,83.0654,2.43176,0.00137457,-0.00014596,-0.00260216,0.00332525,-0.00209664,-0.643271,0.00315701,0.039541,1875,1163,83.0654,-2.43177
658,-139,83.0671,2.46997,0.000979376,0.00015917,-0.00178673,0.00240246,-0.00126391,-0.672588,0.00215054,0.0395907,1882,1163,83.0672,-2.46993
665,-139,83.0557,2.42847,0.000644241,0.000546681,-0.00118028,0.00177675,-0.000585828,-0.764745,0.00142063,0.0394531,1889,1163,83.0557,-2.42849
672,-139,83.1302,2.38501,0.000391769,0.00103295,-0.00078091,0.00155651,-0.000131797,-0.980175,0.00108428,0.0393922,1896,1163,83.1303,-2.38497
679,-139,83.1875,2.35913,0.000507696,0.00107938,-0.000308787,0.00121431,0.000372758,-1.15881,0.000718288,0.0368823,1903,1163,83.1875,-2.35911
686,-139,83.0513,2.56445,0.0012386,0.0012864,-0.000235407,0.00149912,0.00102588,-0.835994,0.000884903,0.0341333,1910,1163,83.0512,-2.56442
693,-139,83.0687,2.47021,0.00151519,0.0011253,4.42053e-05,0.00152014,0.00112035,0.111491,0.000909926,0.0250202,1917,1163,83.0687,-2.4702
700,-139,83.1232,2.26282,0,0,0,0,0,0,0,-1,1924,1163,83.1232,-2.26284
707,-139,32.116,6.54346,0,0,0,0,0,0,0,-1,1931,1163,32.116,-6.54343
714,-139,62.1425,10.1428,0,0,0,0,0,0,0,-1,1938,1163,62.1424,-10.1428
721,-139,72.1608,11.011,0,0,0,0,0,0,0,-1,1945,1163,72.1608,-11.0109
728,-139,73.0547,10.7305,0,0,0,0,0,0,0,-1,1952,1163,73.0547,-10.7305
735,-139,73.0421,9.9541,0.00175382,0.00133167,0.00148842,0.00304605,3.94327e-05,0.714961,0.00201769,0.0370449,1959,1163,73.0421,-9.95411
742,-139,73.1105,9.05884,0.00161809,0.00120383,0.00183136,0.00325399,-0.000432073,0.729088,0.00232676,0.0287684,1966,1163,73.1105,-9.05883
749,-139,73.0696,8.30212,0.00045628,0.00177263,0.00272588,0.00391867,-0.00168976,0.903858,0.00332217,0.0201927,1973,1163,73.0696,-8.30209
756,-139,72.9548,7.59387,-0.00146503,0.00333429,0.00373993,0.00537821,-0.00350895,1.07063,0.0051687,0.0119251,1980,1163,72.9548,-7.59391
763,-139,72.8906,6.82605,-0.00329459,0.0052395,0.00491723,0.00748297,-0.00553806,1.14276,0.0075456,0.0124835,1987,1163,72.8905,-6.82607
770,-139,72.8862,6.12305,-0.00501488,0.00717241,0.00631193,0.00985218,-0.00769466,1.1693,0.0101562,0.013486,1994,1163,72.8862,-6.12305
777,-139,72.8691,5.44128,-0.00661488,0.00910263,0.00794138,0.0124164,-0.00992866,1.17548,0.0129276,0.0268739,2001,1163,72.8691,-5.44134
784,-139,72.6824,4.9325,-0.00796901,0.0107634,0.0102106,0.015253,-0.0124586,1.15654,0.0160264,0.0436932,2008,1163,72.6823,-4.93246
791,-139,72.6104,4.43274,0,0,0,0,0,0,0,-1,2015,1163,72.6103,-4.43274
798,-139,71.9846,4.83691,0,0,0,0,0,0,0,-1,2022,1163,71.9846,-4.83687
805,-139,70.6143,4.20105,0,0,0,0,0,0,0,-1,2029,1163,70.6142,-4.20111
812,-139,0,0,0,0,0,0,0,0,0,-1,2036,1163,0,0
-700,-146,0,0,0,0,0,0,0,0,0,-1,524,1170,0,0
-693,-146,-64.968,0.0643311,0,0,0,0,0,0,0,-1,531,1170,-64.968,-0.0643459
-686,-146,-65.1123,0.218628,0,0,0,0,0,0,0,-1,538,1170,-65.1123,-0.218633
-679,-146,-64.8505,1.06812,0,0,0,0,0,0,0,-1,545,1170,-64.8505,-1.06809
-672,-146,-64.331,2.03052,0,0,0,0,0,0,0,-1,552,1170,-64.331,-2.03047
-665,-146,-65.0459,2.7135,0,0,0,0,0,0,0,-1,559,1170,-65.0459,-2.71354
-658,-146,-65.6303,3.32239,0,0,0,0,0,0,0,-1,566,1170,-65.6303,-3.32236
-651,-146,-55.5114,4.28528,0,0,0,0,0,0,0,-1,573,1170,-55.5114,-4.28525
-644,-146,-55.6931,5.14233,-0.0305303,0.0162645,0.0174463,0.0220529,-0.0363187,1.25044,0.0340347,0.0318631,580,1170,-55.6931,-5.14234
-637,-146,-55.8472,5.91907,-0.0219296,0.011322,0.00860563,0.0134172,-0.0240248,1.33198,0.0219044,0.0143343,587,1170,-55.8473,-5.91913
-630,-146,-55.8846,6.70398,-0.0145302,0.00611907,0.000945954,0.00616232,-0.0145734,1.52511,0.0122957,0.0109399,594,1170,-55.8846,-6.70402
-623,-146,-55.9247,7.46375,-0.0093864,0.00166579,-0.00521283,0.0037365,-0.0114571,-1.19268,0.00914175,0.0147056,601,1170,-55.9248,-7.46377
-616,-146,-56.0775,8.20007,-0.00836615,-0.000873514,-0.00654662,0.00292293,-0.0121626,-1.04528,0.00923814,0.0233457,608,1170,-56.0774,-8.20013
-609,-146,-56.2264,8.93652,0,0,0,0,0,0,0,-1,615,1170,-56.2264,-8.93657
-602,-146,-49.7178,7.99854,0,0,0,0,0,0,0,-1,622,1170,-49.7178,-7.99849
-595,-146,-49.8962,8.69519,0,0,0,0,0,0,0,-1,629,1170,-49.8963,-8.6952
-588,-146,-45.0034,7.81934,0,0,0,0,0,0,0,-1,636,1170,-45.0034,-7.81931
-581,-146,-31.7815,6.30347,0,0,0,0,0,0,0,-1,643,1170,-31.7815,-6.3035
-574,-146,-17.9915,3.79114,0,0,0,0,0,0,0,-1,650,1170,-17.9915,-3.79118
-567,-146,-44.4572,0.6604,0,0,0,0,0,0,0,-1,657,1170,-44.4572,-0.660404
-560,-146,-65.9804,0.492432,0,0,0,0,0,0,0,-1,664,1170,-65.9804,-0.492487
-553,-146,-65.9455,0.5625,0.000696057,0.00201538,-0.00362369,0.00503896,-0.00232753,-0.875433,0.00434802,0.040142,671,1170,-65.9455,-0.562524
-546,-146,-65.825,0.46228,0.00214732,0.00373445,-0.00319051,0.0062286,-0.00034683,-0.907288,0.0042727,0.0440914,678,1170,-65.825,-0.462223
-539,-146,-65.8041,0.331543,0.00127717,0.0060904,-0.00392689,0.00828946,-0.000921892,-1.06031,0.00585783,0.0447636,685,1170,-65.8041,-0.331584
-532,-146,-65.8966,0.270752,0.000536457,0.00825983,-0.00453148,0.0103519,-0.00155559,-1.13828,0.00747394,0.04396,692,1170,-65.8966,-0.270742
-525,-146,-65.9335,0.456909,-3.50063e-06,0.0101763,-0.0049751,0.0122039,-0.00203109,-1.1838,0.00889064,0.0429267,699,1170,-65.9335,-0.456914
-518,-146,0,0,0,0,0,0,0,0,0,-1,706,1170,0,0
-511,-146,0,0,0,0,0,0,0,0,0,-1,713,1170,0,0
-504,-146,0,0,0,0,0,0,0,0,0,-1,720,1170,0,0
-497,-146,0,0,0,0,0,0,0,0,0,-1,727,1170,0,0
-490,-146,0,0,0,0,0,0,0,0,0,-1,734,1170,0,0
-483,-146,0,0,0,0,0,0,0,0,0,-1,741,1170,0,0
-476,-146,0,0,0,0,0,0,0,0,0,-1,748,1170,0,0
-469,-146,0,0,0,0,0,0,0,0,0,-1,755,1170,0,0
-462,-146,0,0,0,0,0,0,0,0,0,-1,762,1170,0,0
-455,-146,0,0,0,0,0,0,0,0,0,-1,769,1170,0,0
-448,-146,0,0,0,0,0,0,0,0,0,-1,776,1170,0,0
-441,-146,0,0,0,0,0,0,0,0,0,-1,783,1170,0,0
-434,-146,0,0,0,0,0,0,0,0,0,-1,790,1170,0,0
-427,-146,0,0,0,0,0,0,0,0,0,-1,797,1170,0,0
-420,-146,0,0,0,0,0,0,0,0,0,-1,804,1170,0,0
-413,-146,0,0,0,0,0,0,0,0,0,-1,811,1170,0,0
-406,-146,0,0,0,0,0,0,0,0,0,-1,818,1170,0,0
-399,-146,0,0,0,0,0,0,0,0,0,-1,825,1170,0,0
-392,-146,0,0,0,0,0,0,0,0,0,-1,832,1170,0,0
-385,-146,0,0,0,0,0,0,0,0,0,-1,839,1170,0,0
-378,-146,0,0,0,0,0,0,0,0,0,-1,846,1170,0,0
-371,-146,0,0,0,0,0,0,0,0,0,-1,853,1170,0,0
-364,-146,0,0,0,0,0,0,0,0,0,-1,860,1170,0,0
-357,-146,0,0,0,0,0,0,0,0,0,-1,867,1170,0,0
-350,-146,0,0,0,0,0,0,0,0,0,-1,874,1170,0,0
-343,-146,0,0,0,0,0,0,0,0,0,-1,881,1170,0,0
-336,-146,0,0,0,0,0,0,0,0,0,-1,888,1170,0,0
-329,-146,0,0,0,0,0,0,0,0,0,-1,895,1170,0,0
-322,-146,0,0,0,0,0,0,0,0,0,-1,902,1170,0,0
-315,-146,0,0,0,0,0,0,0,0,0,-1,909,1170,0,0
-308,-146,0,0,0,0,0,0,0,0,0,-1,916,1170,0,0
-301,-146,0,0,0,0,0,0,0,0,0,-1,923,1170,0,0
-294,-146,0,0,0,0,0,0,0,0,0,-1,930,1170,0,0
-287,-146,0,0,0,0,0,0,0,0,0,-1,937,1170,0,0
-280,-146,0,0,0,0,0,0,0,0,0,-1,944,1170,0,0
-273,-146,0,0,0,0,0,0,0,0,0,-1,951,1170,0,0
-266,-146,0,0,0,0,0,0,0,0,0,-1,958,1170,0,0
-259,-146,0,0,0,0,0,0,0,0,0,-1,965,1170,0,0
-252,-146,0,0,0,0,0,0,0,0,0,-1,972,1170,0,0
-245,-146,0,0,0,0,0,0,0,0,0,-1,979,1170,0,0
-238,-146,0,0,0,0,0,0,0,0,0,-1,986,1170,0,0
-231,-146,0,0,0,0,0,0,0,0,0,-1,993,1170,0,0
-224,-146,0,0,0,0,0,0,0,0,0,-1,1000,1170,0,0
-217,-146,0,0,0,0,0,0,0,0,0,-1,1007,1170,0,0
-210,-146,0,0,0,0,0,0,0,0,0,-1,1014,1170,0,0
-203,-146,0,0,0,0,0,0,0,0,0,-1,1021,1170,0,0
-196,-146,0,0,0,0,0,0,0,0,0,-1,1028,1170,0,0
-189,-146,0,0,0,0,0,0,0,0,0,-1,1035,1170,0,0
-182,-146,0,0,0,0,0,0,0,0,0,-1,1042,1170,0,0
-175,-146,0,0,0,0,0,0,0,0,0,-1,1049,1170,0,0
-168,-146,0,0,0,0,0,0,0,0,0,-1,1056,1170,0,0
-161,-146,0,0,0,0,0,0,0,0,0,-1,1063,1170,0,0
-154,-146,0,0,0,0,0,0,0,0,0,-1,1070,1170,0,0
-147,-146,0,0,0,0,0,0,0,0,0,-1,1077,1170,0,0
-140,-146,0,0,0,0,0,0,0,0,0,-1,1084,1170,0,0
-133,-146,0,0,0,0,0,0,0,0,0,-1,1091,1170,0,0
-126,-146,0,0,0,0,0,0,0,0,0,-1,1098,1170,0,0
-119,-146,0,0,0,0,0,0,0,0,0,-1,1105,1170,0,0
-112,-146,0,0,0,0,0,0,0,0,0,-1,1112,1170,0,0
-105,-146,0,0,0,0,0,0,0,0,0,-1,1119,1170,0,0
-98,-146,0,0,0,0,0,0,0,0,0,-1,1126,1170,0,0
-91,-146,0,0,0,0,0,0,0,0,0,-1,1133,1170,0,0
-84,-146,0,0,0,0,0,0,0,0,0,-1,1140,1170,0,0
-77,-146,0,0,0,0,0,0,0,0,0,-1,1147,1170,0,0
-70,-146,0,0,0,0,0,0,0,0,0,-1,1154,1170,0,0
-63,-146,0,0,0,0,0,0,0,0,0,-1,1161,1170,0,0
-56,-146,0,0,0,0,0,0,0,0,0,-1,1168,1170,0,0
-49,-146,0,0,0,0,0,0,0,0,0,-1,1175,1170,0,0
-42,-146,0,0,0,0,0,0,0,0,0,-1,1182,1170,0,0
-35,-146,0,0,0,0,0,0,0,0,0,-1,1189,1170,0,0
-28,-146,0,0,0,0,0,0,0,0,0,-1,1196,1170,0,0
-21,-146,0,0,0,0,0,0,0,0,0,-1,1203,1170,0,0
-14,-146,0,0,0,0,0,0,0,0,0,-1,1210,1170,0,0
-7,-146,0,0,0,0,0,0,0,0,0,-1,1217,1170,0,0
0,-146,0,0,0,0,0,0,0,0,0,-1,1224,1170,0,0
7,-146,0,0,0,0,0,0,0,0,0,-1,1231,1170,0,0
14,-146,0,0,0,0,0,0,0,0,0,-1,1238,1170,0,0
21,-146,0,0,0,0,0,0,0,0,0,-1,1245,1170,0,0
28,-146,0,0,0,0,0,0,0,0,0,-1,1252,1170,0,0
35,-146,0,0,0,0,0,0,0,0,0,-1,1259,1170,0,0
42,-146,0,0,0,0,0,0,0,0,0,-1,1266,1170,0,0
49,-146,0,0,0,0,0,0,0,0,0,-1,1273,1170,0,0
56,-146,0,0,0,0,0,0,0,0,0,-1,1280,1170,0,0
63,-146,0,0,0,0,0,0,0,0,0,-1,1287,1170,0,0
70,-146,0,0,0,0,0,0,0,0,0,-1,1294,1170,0,0
77,-146,0,0,0,0,0,0,0,0,0,-1,1301,1170,0,0
84,-146,0,0,0,0,0,0,0,0,0,-1,1308,1170,0,0
91,-146,0,0,0,0,0,0,0,0,0,-1,1315,1170,0,0
98,-146,0,0,0,0,0,0,0,0,0,-1,1322,1170,0,0
105,-146,0,0,0,0,0,0,0,0,0,-1,1329,1170,0,0
112,-146,0,0,0,0,0,0,0,0,0,-1,1336,1170,0,0
119,-146,0,0,0,0,0,0,0,0,0,-1,1343,1170,0,0
126,-146,0,0,0,0,0,0,0,0,0,-1,1350,1170,0,0
133,-146,0,0,0,0,0,0,0,0,0,-1,1357,1170,0,0
140,-146,0,0,0,0,0,0,0,0,0,-1,1364,1170,0,0
147,-146,0,0,0,0,0,0,0,0,0,-1,1371,1170,0,0
154,-146,0,0,0,0,0,0,0,0,0,-1,1378,1170,0,0
161,-146,0,0,0,0,0,0,0,0,0,-1,1385,1170,0,0
168,-146,0,0,0,0,0,0,0,0,0,-1,1392,1170,0,0
175,-146,0,0,0,0,0,0,0,0,0,-1,1399,1170,0,0
182,-146,0,0,0,0,0,0,0,0,0,-1,1406,1170,0,0
189,-146,0,0,0,0,0,0,0,0,0,-1,1413,1170,0,0
196,-146,0,0,0,0,0,0,0,0,0,-1,1420,1170,0,0
203,-146,0,0,0,0,0,0,0,0,0,-1,1427,1170,0,0
210,-146,0,0,0,0,0,0,0,0,0,-1,1434,1170,0,0
217,-146,0,0,0,0,0,0,0,0,0,-1,1441,1170,0,0
224,-146,0,0,0,0,0,0,0,0,0,-1,1448,1170,0,0
231,-146,0,0,0,0,0,0,0,0,0,-1,1455,1170,0,0
238,-146,0,0,0,0,0,0,0,0,0,-1,1462,1170,0,0
245,-146,0,0,0,0,0,0,0,0,0,-1,1469,1170,0,0
252,-146,0,0,0,0,0,0,0,0,0,-1,1476,1170,0,0
259,-146,0,0,0,0,0,0,0,0,0,-1,1483,1170,0,0
266,-146,0,0,0,0,0,0,0,0,0,-1,1490,1170,0,0
273,-146,0,0,0,0,0,0,0,0,0,-1,1497,1170,0,0
280,-146,0,0,0,0,0,0,0,0,0,-1,1504,1170,0,0
287,-146,0,0,0,0,0,0,0,0,0,-1,1511,1170,0,0
294,-146,0,0,0,0,0,0,0,0,0,-1,1518,1170,0,0
301,-146,0,0,0,0,0,0,0,0,0,-1,1525,1170,0,0
308,-146,0,0,0,0,0,0,0,0,0,-1,1532,1170,0,0
315,-146,0,0,0,0,0,0,0,0,0,-1,1539,1170,0,0
322,-146,0,0,0,0,0,0,0,0,0,-1,1546,1170,0,0
329,-146,0,0,0,0,0,0,0,0,0,-1,1553,1170,0,0
336,-146,0,0,0,0,0,0,0,0,0,-1,1560,1170,0,0
343,-146,0,0,0,0,0,0,0,0,0,-1,1567,1170,0,0
350,-146,0,0,0,0,0,0,0,0,0,-1,1574,1170,0,0
357,-146,0,0,0,0,0,0,0,0,0,-1,1581,1170,0,0
364,-146,0,0,0,0,0,0,0,0,0,-1,1588,1170,0,0
371,-146,0,0,0,0,0,0,0,0,0,-1,1595,1170,0,0
378,-146,0,0,0,0,0,0,0,0,0,-1,1602,1170,0,0
385,-146,0,0,0,0,0,0,0,0,0,-1,1609,1170,0,0
392,-146,0,0,0,0,0,0,0,0,0,-1,1616,1170,0,0
399,-146,0,0,0,0,0,0,0,0,0,-1,1623,1170,0,0
406,-146,0,0,0,0,0,0,0,0,0,-1,1630,1170,0,0
413,-146,0,0,0,0,0,0,0,0,0,-1,1637,1170,0,0
420,-146,0,0,0,0,0,0,0,0,0,-1,1644,1170,0,0
427,-146,0,0,0,0,0,0,0,0,0,-1,1651,1170,0,0
434,-146,0,0,0,0,0,0,0,0,0,-1,1658,1170,0,0
441,-146,0,0,0,0,0,0,0,0,0,-1,1665,1170,0,0
448,-146,0,0,0,0,0,0,0,0,0,-1,1672,1170,0,0
455,-146,0,0,0,0,0,0,0,0,0,-1,1679,1170,0,0
462,-146,0,0,0,0,0,0,0,0,0,-1,1686,1170,0,0
469,-146,0,0,0,0,0,0,0,0,0,-1,1693,1170,0,0
476,-146,0,0,0,0,0,0,0,0,0,-1,1700,1170,0,0
483,-146,0,0,0,0,0,0,0,0,0,-1,1707,1170,0,0
490,-146,0,0,0,0,0,0,0,0,0,-1,1714,1170,0,0
497,-146,0,0,0,0,0,0,0,0,0,-1,1721,1170,0,0
504,-146,0,0,0,0,0,0,0,0,0,-1,1728,1170,0,0
511,-146,0,0,0,0,0,0,0,0,0,-1,1735,1170,0,0
518,-146,0,0,0,0,0,0,0,0,0,-1,1742,1170,0,0
525,-146,0,0,0,0,0,0,0,0,0,-1,1749,1170,0,0
532,-146,0,0,0,0,0,0,0,0,0,-1,1756,1170,0,0
539,-146,0,0,0,0,0,0,0,0,0,-1,1763,1170,0,0
546,-146,0,0,0,0,0,0,0,0,0,-1,1770,1170,0,0
553,-146,0,0,0,0,0,0,0,0,0,-1,1777,1170,0,0
560,-146,0,0,0,0,0,0,0,0,0,-1,1784,1170,0,0
567,-146,0,0,0,0,0,0,0,0,0,-1,1791,1170,0,0
574,-146,0,0,0,0,0,0,0,0,0,-1,1798,1170,0,0
581,-146,0,0,0,0,0,0,0,0,0,-1,1805,1170,0,0
588,-146,0,0,0,0,0,0,0,0,0,-1,1812,1170,0,0
595,-146,0,0,0,0,0,0,0,0,0,-1,1819,1170,0,0
602,-146,0,0,0,0,0,0,0,0,0,-1,1826,1170,0,0
609,-146,0,0,0,0,0,0,0,0,0,-1,1833,1170,0,0
616,-146,0,0,0,0,0,0,0,0,0,-1,1840,1170,0,0
623,-146,0,0,0,0,0,0,0,0,0,-1,1847,1170,0,0
630,-146,0,0,0,0,0,0,0,0,0,-1,1854,1170,0,0
637,-146,83.1091,2.19592,0.00270692,6.0284e-05,-0.00513026,0.00668178,-0.00391458,-0.659177,0.00618696,0.0405537,1861,1170,83.1091,-2.19596
644,-146,83.1698,2.18152,0.00203134,0.000114034,-0.00356808,0.0047673,-0.00262193,-0.65416,0.0043257,0.0398448,1868,1170,83.1699,-2.18154
651,-146,83.1439,2.28198,0.00143103,0.000410067,-0.00253659,0.003508,-0.0016669,-0.686101,0.00305011,0.0372877,1875,1170,83.144,-2.28195
658,-146,83.1814,2.4762,0.00102012,0.00074842,-0.00179941,0.0026888,-0.000920262,-0.747721,0.00216548,0.0387833,1882,1170,83.1814,-2.47615
665,-146,83.2325,2.40454,0.000674896,0.00116831,-0.00126986,0.00221521,-0.000371995,-0.881343,0.00161515,0.0383349,1889,1170,83.2325,-2.40453
672,-146,83.1995,2.42114,0.000424522,0.00169038,-0.000946889,0.0021964,-8.14961e-05,-1.08001,0.00149217,0.039531,1896,1170,83.1994,-2.42114
679,-146,83.1263,2.42749,0.000568539,0.00174878,-0.000572975,0.00198118,0.000336138,-1.18547,0.00122422,0.0337662,1903,1170,83.1264,-2.42747
686,-146,83.0068,2.35181,0.00143851,0.00194385,-0.000545055,0.00229196,0.00109041,-1.00244,0.00132378,0.0245687,1910,1170,83.0069,-2.35177
693,-146,83.0607,2.29199,0.00172923,0.00169389,-0.00021867,0.00193094,0.00149218,-0.745084,0.00116882,0.0210398,1917,1170,83.0607,-2.29203
700,-146,83.0642,2.16418,0,0,0,0,0,0,0,-1,1924,1170,83.0642,-2.16425
707,-146,29.9441,6.94653,0,0,0,0,0,0,0,-1,1931,1170,29.9441,-6.94652
714,-146,31.325,6.13245,0,0,0,0,0,0,0,-1,1938,1170,31.325,-6.1325
721,-146,61.3608,9.47766,0,0,0,0,0,0,0,-1,1945,1170,61.3608,-9.47767
728,-146,72.2861,10.1527,0,0,0,0,0,0,0,-1,1952,1170,72.2861,-10.1527
735,-146,72.2916,9.79663,0.00232325,0.00156811,0.0011796,0.00318424,0.000707129,0.63051,0.00193077,0.0426573,1959,1170,72.2917,-9.79666
742,-146,72.4274,9.01306,0.00216536,0.00127981,0.00154705,0.00333175,0.000113416,0.64602,0.00218435,0.0218945,1966,1170,72.4274,-9.01304
749,-146,72.2574,8.35242,0.000924914,0.00179416,0.00250144,0.00389845,-0.00117938,0.871414,0.0030686,0.0174802,1973,1170,72.2575,-8.35237
756,-146,72.1887,7.60681,-0.000909349,0.00335548,0.00355652,0.00536988,-0.00292374,1.05545,0.00485725,0.0135362,1980,1170,72.1888,-7.60684
763,-146,72.1196,6.82629,-0.00256344,0.00520191,0.00478146,0.00747858,-0.00484011,1.12641,0.00716637,0.0128612,1987,1170,72.1196,-6.82627
770,-146,72.0837,6.09045,-0.00409577,0.00708165,0.0062425,0.00987163,-0.00688576,1.1505,0.00972594,0.0140224,1994,1170,72.0837,-6.09049
777,-146,72.092,5.42896,-0.00550604,0.00898519,0.00795434,0.0124993,-0.00902009,1.1548,0.0124782,0.025437,2001,1170,72.0921,-5.42897
784,-146,71.8259,5.05981,-0.00662162,0.0106441,0.0103431,0.0154836,-0.0114612,1.13316,0.0156143,0.0426802,2008,1170,71.8258,-5.05978
791,-146,71.6631,4.66589,0,0,0,0,0,0,0,-1,2015,1170,71.6632,-4.66584
798,-146,71.7278,4.69189,0,0,0,0,0,0,0,-1,2022,1170,71.7277,-4.69192
805,-146,71.7126,4.45667,0,0,0,0,0,0,0,-1,2029,1170,71.7127,-4.4567
812,-146,0,0,0,0,0,0,0,0,0,-1,2036,1170,0,0
-700,-153,0,0,0,0,0,0,0,0,0,-1,524,1177,0,0
-693,-153,0,0,0,0,0,0,0,0,0,-1,531,1177,0,0
-686,-153,-64.0121,-0.0681152,-0.0982509,0.0581975,0.0827269,0.0938275,-0.133881,1.16411,0.132144,0.0444139,538,1177,-64.0121,0.0681741
-679,-153,-64.4172,0.765625,-0.0845777,0.053147,0.0697004,0.0822651,-0.113696,1.17507,0.113622,0.0487082,545,1177,-64.4172,-0.765679
-672,-153,-64.5848,1.56409,-0.0714997,0.0466327,0.0572793,0.0698449,-0.0947119,1.18578,0.0953678,0.0428224,552,1177,-64.5848,-1.56411
-665,-153,-64.9511,2.09644,-0.0594831,0.0397199,0.0458832,0.0576875,-0.0774507,1.19756,0.0782997,0.0411641,559,1177,-64.9511,-2.09642
-658,-153,-65.7146,2.87903,0,0,0,0,0,0,0,-1,566,1177,-65.7146,-2.87898
-651,-153,-54.619,4.35156,0,0,0,0,0,0,0,-1,573,1177,-54.619,-4.35152
-644,-153,-54.8151,5.13916,-0.0295665,0.0191677,0.016377,0.0241598,-0.0345586,1.27492,0.0340779,0.0330635,580,1177,-54.8151,-5.13922
-637,-153,-55.0024,5.92786,-0.0213133,0.0130465,0.00797309,0.0148065,-0.0230733,1.35354,0.0220428,0.0129388,587,1177,-55.0024,-5.92786
-630,-153,-55.0648,6.72717,-0.0141385,0.00690711,0.000722598,0.00693189,-0.0141633,1.53652,0.0124156,0.0102424,594,1177,-55.0648,-6.72721
-623,-153,-55.1113,7.51953,-0.00910113,0.00178344,-0.00509533,0.00379641,-0.0111141,-1.19455,0.0089475,0.0131643,601,1177,-55.1113,-7.51957
-616,-153,-55.1985,8.24304,-0.00764333,-0.00162757,-0.00683328,0.00283054,-0.0121014,-0.992727,0.00915813,0.0175354,608,1177,-55.1985,-8.24301
-609,-153,-55.3075,8.95874,0,0,0,0,0,0,0,-1,615,1177,-55.3075,-8.95873
-602,-153,-50.7079,7.54736,0,0,0,0,0,0,0,-1,622,1177,-50.7079,-7.54741
-595,-153,-43.9551,7.35718,0,0,0,0,0,0,0,-1,629,1177,-43.9551,-7.35722
-588,-153,-32.348,5.51038,0,0,0,0,0,0,0,-1,636,1177,-32.348,-5.51034
-581,-153,-33.4568,6.41492,0,0,0,0,0,0,0,-1,643,1177,-33.4568,-6.41497
-574,-153,-25.4814,5.16956,0,0,0,0,0,0,0,-1,650,1177,-25.4814,-5.16961
-567,-153,-35.3121,1.09485,0,0,0,0,0,0,0,-1,657,1177,-35.3121,-1.09482
-560,-153,-66.1207,0.845703,0,0,0,0,0,0,0,-1,664,1177,-66.1207,-0.845721
-553,-153,-66.0324,0.704956,0.000797012,0.00162983,-0.00396399,0.00519923,-0.00277238,-0.83773,0.00467296,0.0402251,671,1177,-66.0324,-0.704981
-546,-153,-65.9464,0.537354,0.00278638,0.00276463,-0.00303813,0.00581366,-0.00026265,-0.783609,0.00396622,0.0417802,678,1177,-65.9463,-0.5373
-539,-153,-65.9065,0.322388,0.00199146,0.00555049,-0.00369444,0.00787165,-0.000329699,-1.00984,0.00536105,0.0451089,685,1177,-65.9065,-0.322399
-532,-153,-65.6863,0.29895,0,0,0,0,0,0,0,-1,692,1177,-65.6863,-0.298937
-525,-153,-65.8226,0.661377,0,0,0,0,0,0,0,-1,699,1177,-65.8226,-0.661408
-518,-153,0,0,0,0,0,0,0,0,0,-1,706,1177,0,0
-511,-153,0,0,0,0,0,0,0,0,0,-1,713,1177,0,0
-504,-153,0,0,0,0,0,0,0,0,0,-1,720,1177,0,0
-497,-153,0,0,0,0,0,0,0,0,0,-1,727,1177,0,0
-490,-153,0,0,0,0,0,0,0,0,0,-1,734,1177,0,0
-483,-153,0,0,0,0,0,0,0,0,0,-1,741,1177,0,0
-476,-153,0,0,0,0,0,0,0,0,0,-1,748,1177,0,0
-469,-153,0,0,0,0,0,0,0,0,0,-1,755,1177,0,0
-462,-153,0,0,0,0,0,0,0,0,0,-1,762,1177,0,0
-455,-153,0,0,0,0,0,0,0,0,0,-1,769,1177,0,0
-448,-153,0,0,0,0,0,0,0,0,0,-1,776,1177,0,0
-441,-153,0,0,0,0,0,0,0,0,0,-1,783,1177,0,0
-434,-153,0,0,0,0,0,0,0,0,0,-1,790,1177,0,0
-427,-153,0,0,0,0,0,0,0,0,0,-1,797,1177,0,0
-420,-153,0,0,0,0,0,0,0,0,0,-1,804,1177,0,0
-413,-153,0,0,0,0,0,0,0,0,0,-1,811,1177,0,0
-406,-153,0,0,0,0,0,0,0,0,0,-1,818,1177,0,0
-399,-153,0,0,0,0,0,0,0,0,0,-1,825,1177,0,0
-392,-153,0,0,0,0,0,0,0,0,0,-1,832,1177,0,0
-385,-153,0,0,0,0,0,0,0,0,0,-1,839,1177,0,0
-378,-153,0,0,0,0,0,0,0,0,0,-1,846,1177,0,0
-371,-153,0,0,0,0,0,0,0,0,0,-1,853,1177,0,0
-364,-153,0,0,0,0,0,0,0,0,0,-1,860,1177,0,0
-357,-153,0,0,0,0,0,0,0,0,0,-1,867,1177,0,0
-350,-153,0,0,0,0,0,0,0,0,0,-1,874,1177,0,0
-343,-153,0,0,0,0,0,0,0,0,0,-1,881,1177,0,0
-336,-153,0,0,0,0,0,0,0,0,0,-1,888,1177,0,0
-329,-153,0,0,0,0,0,0,0,0,0,-1,895,1177,0,0
-322,-153,0,0,0,0,0,0,0,0,0,-1,902,1177,0,0
-315,-153,0,0,0,0,0,0,0,0,0,-1,909,1177,0,0
-308,-153,0,0,0,0,0,0,0,0,0,-1,916,1177,0,0
-301,-153,0,0,0,0,0,0,0,0,0,-1,923,1177,0,0
-294,-153,0,0,0,0,0,0,0,0,0,-1,930,1177,0,0
-287,-153,0,0,0,0,0,0,0,0,0,-1,937,1177,0,0
-280,-153,0,0,0,0,0,0,0,0,0,-1,944,1177,0,0
-273,-153,0,0,0,0,0,0,0,0,0,-1,951,1177,0,0
-266,-153,0,0,0,0,0,0,0,0,0,-1,958,1177,0,0
-259,-153,0,0,0,0,0,0,0,0,0,-1,965,1177,0,0
-252,-153,0,0,0,0,0,0,0,0,0,-1,972,1177,0,0
-245,-153,0,0,0,0,0,0,0,0,0,-1,979,1177,0,0
-238,-153,0,0,0,0,0,0,0,0,0,-1,986,1177,0,0
-231,-153,0,0,0,0,0,0,0,0,0,-1,993,1177,0,0
-224,-153,0,0,0,0,0,0,0,0,0,-1,1000,1177,0,0
-217,-153,0,0,0,0,0,0,0,0,0,-1,1007,1177,0,0
-210,-153,0,0,0,0,0,0,0,0,0,-1,1014,1177,0,0
-203,-153,0,0,0,0,0,0,0,0,0,-1,1021,1177,0,0
-196,-153,0,0,0,0,0,0,0,0,0,-1,1028,1177,0,0
-189,-153,0,0,0,0,0,0,0,0,0,-1,1035,1177,0,0
-182,-153,0,0,0,0,0,0,0,0,0,-1,1042,1177,0,0
-175,-153,0,0,0,0,0,0,0,0,0,-1,1049,1177,0,0
-168,-153,0,0,0,0,0,0,0,0,0,-1,1056,1177,0,0
-161,-153,0,0,0,0,0,0,0,0,0,-1,1063,1177,0,0
-154,-153,0,0,0,0,0,0,0,0,0,-1,1070,1177,0,0
-147,-153,0,0,0,0,0,0,0,0,0,-1,1077,1177,0,0
-140,-153,0,0,0,0,0,0,0,0,0,-1,1084,1177,0,0
-133,-153,0,0,0,0,0,0,0,0,0,-1,1091,1177,0,0
-126,-153,0,0,0,0,0,0,0,0,0,-1,1098,1177,0,0
-119,-153,0,0,0,0,0,0,0,0,0,-1,1105,1177,0,0
-112,-153,0,0,0,0,0,0,0,0,0,-1,1112,1177,0,0
-105,-153,0,0,0,0,0,0,0,0,0,-1,1119,1177,0,0
-98,-153,0,0,0,0,0,0,0,0,0,-1,1126,1177,0,0
-91,-153,0,0,0,0,0,0,0,0,0,-1,1133,1177,0,0
-84,-153,0,0,0,0,0,0,0,0,0,-1,1140,1177,0,0
-77,-153,0,0,0,0,0,0,0,0,0,-1,1147,1177,0,0
-70,-153,0,0,0,0,0,0,0,0,0,-1,1154,1177,0,0
-63,-153,0,0,0,0,0,0,0,0,0,-1,1161,1177,0,0
-56,-153,0,0,0,0,0,0,0,0,0,-1,1168,1177,0,0
-49,-153,0,0,0,0,0,0,0,0,0,-1,1175,1177,0,0
-42,-153,0,0,0,0,0,0,0,0,0,-1,1182,1177,0,0
-35,-153,0,0,0,0,0,0,0,0,0,-1,1189,1177,0,0
-28,-153,0,0,0,0,0,0,0,0,0,-1,1196,1177,0,0
-21,-153,0,0,0,0,0,0,0,0,0,-1,1203,1177,0,0
-14,-153,0,0,0,0,0,0,0,0,0,-1,1210,1177,0,0
-7,-153,0,0,0,0,0,0,0,0,0,-1,1217,1177,0,0
0,-153,0,0,0,0,0,0,0,0,0,-1,1224,1177,0,0
7,-153,0,0,0,0,0,0,0,0,0,-1,1231,1177,0,0
14,-153,0,0,0,0,0,0,0,0,0,-1,1238,1177,0,0
21,-153,0,0,0,0,0,0,0,0,0,-1,1245,1177,0,0
28,-153,0,0,0,0,0,0,0,0,0,-1,1252,1177,0,0
35,-153,0,0,0,0,0,0,0,0,0,-1,1259,1177,0,0
42,-153,0,0,0,0,0,0,0,0,0,-1,1266,1177,0,0
49,-153,0,0,0,0,0,0,0,0,0,-1,1273,1177,0,0
56,-153,0,0,0,0,0,0,0,0,0,-1,1280,1177,0,0
63,-153,0,0,0,0,0,0,0,0,0,-1,1287,1177,0,0
70,-153,0,0,0,0,0,0,0,0,0,-1,1294,1177,0,0
77,-153,0,0,0,0,0,0,0,0,0,-1,1301,1177,0,0
84,-153,0,0,0,0,0,0,0,0,0,-1,1308,1177,0,0
91,-153,0,0,0,0,0,0,0,0,0,-1,1315,1177,0,0
98,-153,0,0,0,0,0,0,0,0,0,-1,1322,1177,0,0
105,-153,0,0,0,0,0,0,0,0,0,-1,1329,1177,0,0
112,-153,0,0,0,0,0,0,0,0,0,-1,1336,1177,0,0
119,-153,0,0,0,0,0,0,0,0,0,-1,1343,1177,0,0
126,-153,0,0,0,0,0,0,0,0,0,-1,1350,1177,0,0
133,-153,0,0,0,0,0,0,0,0,0,-1,1357,1177,0,0
140,-153,0,0,0,0,0,0,0,0,0,-1,1364,1177,0,0
147,-153,0,0,0,0,0,0,0,0,0,-1,1371,1177,0,0
154,-153,0,0,0,0,0,0,0,0,0,-1,1378,1177,0,0
161,-153,0,0,0,0,0,0,0,0,0,-1,1385,1177,0,0
168,-153,0,0,0,0,0,0,0,0,0,-1,1392,1177,0,0
175,-153,0,0,0,0,0,0,0,0,0,-1,1399,1177,0,0
182,-153,0,0,0,0,0,0,0,0,0,-1,1406,1177,0,0
189,-153,0,0,0,0,0,0,0,0,0,-1,1413,1177,0,0
196,-153,0,0,0,0,0,0,0,0,0,-1,1420,1177,0,0
203,-153,0,0,0,0,0,0,0,0,0,-1,1427,1177,0,0
210,-153,0,0,0,0,0,0,0,0,0,-1,1434,1177,0,0
217,-153,0,0,0,0,0,0,0,0,0,-1,1441,1177,0,0
224,-153,0,0,0,0,0,0,0,0,0,-1,1448,1177,0,0
231,-153,0,0,0,0,0,0,0,0,0,-1,1455,1177,0,0
238,-153,0,0,0,0,0,0,0,0,0,-1,1462,1177,0,0
245,-153,0,0,0,0,0,0,0,0,0,-1,1469,1177,0,0
252,-153,0,0,0,0,0,0,0,0,0,-1,1476,1177,0,0
259,-153,0,0,0,0,0,0,0,0,0,-1,1483,1177,0,0
266,-153,0,0,0,0,0,0,0,0,0,-1,1490,1177,0,0
273,-153,0,0,0,0,0,0,0,0,0,-1,1497,1177,0,0
280,-153,0,0,0,0,0,0,0,0,0,-1,1504,1177,0,0
287,-153,0,0,0,0,0,0,0,0,0,-1,1511,1177,0,0
294,-153,0,0,0,0,0,0,0,0,0,-1,1518,1177,0,0
301,-153,0,0,0,0,0,0,0,0,0,-1,1525,1177,0,0
308,-153,0,0,0,0,0,0,0,0,0,-1,1532,1177,0,0
315,-153,0,0,0,0,0,0,0,0,0,-1,1539,1177,0,0
322,-153,0,0,0,0,0,0,0,0,0,-1,1546,1177,0,0
329,-153,0,0,0,0,0,0,0,0,0,-1,1553,1177,0,0
336,-153,0,0,0,0,0,0,0,0,0,-1,1560,1177,0,0
343,-153,0,0,0,0,0,0,0,0,0,-1,1567,1177,0,0
350,-153,0,0,0,0,0,0,0,0,0,-1,1574,1177,0,0
357,-153,0,0,0,0,0,0,0,0,0,-1,1581,1177,0,0
364,-153,0,0,0,0,0,0,0,0,0,-1,1588,1177,0,0
371,-153,0,0,0,0,0,0,0,0,0,-1,1595,1177,0,0
378,-153,0,0,0,0,0,0,0,0,0,-1,1602,1177,0,0
385,-153,0,0,0,0,0,0,0,0,0,-1,1609,1177,0,0
392,-153,0,0,0,0,0,0,0,0,0,-1,1616,1177,0,0
399,-153,0,0,0,0,0,0,0,0,0,-1,1623,1177,0,0
406,-153,0,0,0,0,0,0,0,0,0,-1,1630,1177,0,0
413,-153,0,0,0,0,0,0,0,0,0,-1,1637,1177,0,0
420,-153,0,0,0,0,0,0,0,0,0,-1,1644,1177,0,0
427,-153,0,0,0,0,0,0,0,0,0,-1,1651,1177,0,0
434,-153,0,0,0,0,0,0,0,0,0,-1,1658,1177,0,0
441,-153,0,0,0,0,0,0,0,0,0,-1,1665,1177,0,0
448,-153,0,0,0,0,0,0,0,0,0,-1,1672,1177,0,0
455,-153,0,0,0,0,0,0,0,0,0,-1,1679,1177,0,0
462,-153,0,0,0,0,0,0,0,0,0,-1,1686,1177,0,0
469,-153,0,0,0,0,0,0,0,0,0,-1,1693,1177,0,0
476,-153,0,0,0,0,0,0,0,0,0,-1,1700,1177,0,0
483,-153,0,0,0,0,0,0,0,0,0,-1,1707,1177,0,0
490,-153,0,0,0,0,0,0,0,0,0,-1,1714,1177,0,0
497,-153,0,0,0,0,0,0,0,0,0,-1,1721,1177,0,0
504,-153,0,0,0,0,0,0,0,0,0,-1,1728,1177,0,0
511,-153,0,0,0,0,0,0,0,0,0,-1,1735,1177,0,0
518,-153,0,0,0,0,0,0,0,0,0,-1,1742,1177,0,0
525,-153,0,0,0,0,0,0,0,0,0,-1,1749,1177,0,0
532,-153,0,0,0,0,0,0,0,0,0,-1,1756,1177,0,0
539,-153,0,0,0,0,0,0,0,0,0,-1,1763,1177,0,0
546,-153,0,0,0,0,0,0,0,0,0,-1,1770,1177,0,0
553,-153,0,0,0,0,0,0,0,0,0,-1,1777,1177,0,0
560,-153,0,0,0,0,0,0,0,0,0,-1,1784,1177,0,0
567,-153,0,0,0,0,0,0,0,0,0,-1,1791,1177,0,0
574,-153,0,0,0,0,0,0,0,0,0,-1,1798,1177,0,0
581,-153,0,0,0,0,0,0,0,0,0,-1,1805,1177,0,0
588,-153,0,0,0,0,0,0,0,0,0,-1,1812,1177,0,0
595,-153,0,0,0,0,0,0,0,0,0,-1,1819,1177,0,0
602,-153,0,0,0,0,0,0,0,0,0,-1,1826,1177,0,0
609,-153,0,0,0,0,0,0,0,0,0,-1,1833,1177,0,0
616,-153,0,0,0,0,0,0,0,0,0,-1,1840,1177,0,0
623,-153,0,0,0,0,0,0,0,0,0,-1,1847,1177,0,0
630,-153,0,0,0,0,0,0,0,0,0,-1,1854,1177,0,0
637,-153,83.0583,2.28955,0.00268702,0.000403253,-0.00473082,0.00641181,-0.00332154,-0.666978,0.00571319,0.040295,1861,1177,83.0584,-2.28958
644,-153,83.1121,2.19958,0.00207042,0.000444647,-0.00334546,0.00470034,-0.00218527,-0.666217,0.00406284,0.0403689,1868,1177,83.1121,-2.19962
651,-153,83.1281,2.33179,0.00151661,0.000733416,-0.00244074,0.00359697,-0.00134694,-0.705855,0.00295126,0.0327114,1875,1177,83.1281,-2.33176
658,-153,83.1843,2.42542,0.00109164,0.00108514,-0.00180344,0.00289183,-0.000715055,-0.784497,0.00220523,0.0362315,1882,1177,83.1844,-2.4254
665,-153,83.2074,2.37183,0.000697878,0.00154908,-0.00132849,0.00251847,-0.000271518,-0.940415,0.00177642,0.0379292,1889,1177,83.2074,-2.37188
672,-153,83.0619,2.39233,0.000399231,0.00218657,-0.00103916,0.00266348,-7.76787e-05,-1.14053,0.00180211,0.038196,1896,1177,83.0619,-2.3923
679,-153,82.9867,2.36487,0.000492589,0.00237355,-0.000720891,0.00261805,0.000248085,-1.2438,0.00166883,0.0301382,1903,1177,82.9867,-2.36492
686,-153,83.0498,2.32446,0.00143657,0.00261033,-0.000710027,0.00294462,0.00110227,-1.13076,0.00171789,0.0189424,1910,1177,83.0498,-2.32451
693,-153,83.064,2.14124,0,0,0,0,0,0,0,-1,1917,1177,83.0639,-2.14119
700,-153,79.9266,2.01807,0,0,0,0,0,0,0,-1,1924,1177,79.9267,-2.01805
707,-153,29.6483,6.6842,0,0,0,0,0,0,0,-1,1931,1177,29.6483,-6.68415
714,-153,36.0046,6.78418,0,0,0,0,0,0,0,-1,1938,1177,36.0046,-6.78418
721,-153,36.4866,6.47595,0,0,0,0,0,0,0,-1,1945,1177,36.4866,-6.47593
728,-153,47.7305,7.37024,0,0,0,0,0,0,0,-1,1952,1177,47.7304,-7.37022
735,-153,71.3757,9.81726,0,0,0,0,0,0,0,-1,1959,1177,71.3757,-9.8172
742,-153,71.4762,9.1532,0.00247011,0.00174502,0.00142224,0.00357528,0.000639848,0.660601,0.00220146,0.0204399,1966,1177,71.4762,-9.15317
749,-153,71.4863,8.42151,0.00131651,0.00220463,0.00232722,0.00412978,-0.000608634,0.87967,0.00297688,0.0177612,1973,1177,71.4863,-8.42155
756,-153,71.428,7.65173,-0.000311758,0.00364109,0.00335432,0.00555796,-0.00222863,1.05162,0.00463054,0.0124603,1980,1177,71.4281,-7.65175
763,-153,71.3594,6.88745,-0.00177136,0.00533105,0.00460053,0.00759155,-0.00403186,1.11409,0.00681487,0.0121187,1987,1177,71.3593,-6.88749
770,-153,71.3506,6.13391,-0.00315354,0.0071404,0.006143,0.0100077,-0.00602079,1.1341,0.00934896,0.0136834,1994,1177,71.3507,-6.13395
777,-153,71.2737,5.35449,-0.00440406,0.00906422,0.00795124,0.0127498,-0.00808965,1.13675,0.0121315,0.0264461,2001,1177,71.2737,-5.3545
784,-153,71.1331,4.95398,-0.00529186,0.0107789,0.0104632,0.0159361,-0.0104491,1.11285,0.0153429,0.0460742,2008,1177,71.1331,-4.95401
791,-153,71.0186,4.57056,0,0,0,0,0,0,0,-1,2015,1177,71.0186,-4.57058
798,-153,71.4707,4.547,0,0,0,0,0,0,0,-1,2022,1177,71.4708,-4.54696
805,-153,71.2356,2.4613,0,0,0,0,0,0,0,-1,2029,1177,71.2356,-2.46136
812,-153,0,0,0,0,0,0,0,0,0,-1,2036,1177,0,0
-700,-160,0,0,0,0,0,0,0,0,0,-1,524,1184,0,0
-693,-160,0,0,0,0,0,0,0,0,0,-1,531,1184,0,0
-686,-160,-63.1508,-0.799072,-0.0968948,0.0665292,0.0798221,0.0990469,-0.129413,1.18395,0.132289,0.0457982,538,1184,-63.1508,0.799064
-679,-160,-64.0873,0.482178,-0.0831325,0.0600894,0.0663804,0.0861232,-0.109166,1.19704,0.113012,0.0457612,545,1184,-64.0873,-0.482199
-672,-160,-64.5998,0.774048,-0.0702392,0.0524769,0.0539851,0.0728453,-0.0906075,1.21001,0.0945551,0.0406574,552,1184,-64.5998,-0.774029
-665,-160,-64.9412,1.2373,-0.0584178,0.0446668,0.0428423,0.0601474,-0.0738984,1.22406,0.077527,0.0431916,559,1184,-64.9412,-1.2373
-658,-160,-65.8467,2.27576,0,0,0,0,0,0,0,-1,566,1184,-65.8467,-2.27579
-651,-160,-54.2263,5.10779,0,0,0,0,0,0,0,-1,573,1184,-54.2263,-5.10782
-644,-160,-54.1404,5.53821,-0.0292227,0.0218648,0.0149881,0.0259373,-0.0332952,1.30548,0.0342858,0.0406165,580,1184,-54.1404,-5.53826
-637,-160,-54.1534,5.95789,-0.0211618,0.0149742,0.00727325,0.0163832,-0.0225708,1.37945,0.0225845,0.0167511,587,1184,-54.1534,-5.95791
-630,-160,-54.2734,6.71411,-0.0140323,0.00811233,0.000681733,0.0081333,-0.0140533,1.54005,0.0129605,0.00987796,594,1184,-54.2735,-6.71406
-623,-160,-54.3372,7.50623,-0.00886108,0.00231326,-0.00449766,0.00389864,-0.0104465,-1.23191,0.00856491,0.0166527,601,1184,-54.3372,-7.50626
-616,-160,-54.3824,8.30457,-0.00664489,-0.00226664,-0.00640975,0.0023175,-0.011229,-0.949953,0.00836621,0.0152097,608,1184,-54.3824,-8.3046
-609,-160,-54.6398,9.04565,-0.00645898,-0.000805085,-0.00519897,0.00228581,-0.00954988,-1.03441,0.00724966,0.0322425,615,1184,-54.6398,-9.04569
-602,-160,-55.1042,9.6731,0,0,0,0,0,0,0,-1,622,1184,-55.1042,-9.67311
-595,-160,-33.0669,5.93445,0,0,0,0,0,0,0,-1,629,1184,-33.0669,-5.93446
-588,-160,-33.4845,5.66699,0,0,0,0,0,0,0,-1,636,1184,-33.4845,-5.66697
-581,-160,-33.1338,6.41174,0,0,0,0,0,0,0,-1,643,1184,-33.1338,-6.41176
-574,-160,-32.7831,7.15649,0,0,0,0,0,0,0,-1,650,1184,-32.7831,-7.15655
-567,-160,-29.5828,0.643921,0,0,0,0,0,0,0,-1,657,1184,-29.5828,-0.643968
-560,-160,-57.0784,0.200806,0,0,0,0,0,0,0,-1,664,1184,-57.0784,-0.200768
-553,-160,-66.0281,0.713257,0,0,0,0,0,0,0,-1,671,1184,-66.0281,-0.713198
-546,-160,-66.1131,0.40564,0,0,0,0,0,0,0,-1,678,1184,-66.1131,-0.405627
-539,-160,-65.9632,0.227783,0,0,0,0,0,0,0,-1,685,1184,-65.9632,-0.227779
-532,-160,-66.1653,1.2179,0.00211267,0.0077482,-0.00423185,0.0100146,-0.000153695,-1.07912,0.00672819,0.0468088,692,1184,-66.1653,-1.21795
-525,-160,-66.0198,1.10254,0.0021872,0.0106333,-0.0047373,0.0127566,6.3898e-05,-1.14943,0.00848317,0.0443345,699,1184,-66.0198,-1.10251
-518,-160,-65.8459,0.834229,0.00253333,0.013012,-0.00507858,0.0150694,0.000475915,-1.18589,0.00989146,0.0430241,706,1184,-65.8459,-0.83419
-511,-160,0,0,0,0,0,0,0,0,0,-1,713,1184,0,0
-504,-160,0,0,0,0,0,0,0,0,0,-1,720,1184,0,0
-497,-160,0,0,0,0,0,0,0,0,0,-1,727,1184,0,0
-490,-160,0,0,0,0,0,0,0,0,0,-1,734,1184,0,0
-483,-160,0,0,0,0,0,0,0,0,0,-1,741,1184,0,0
-476,-160,0,0,0,0,0,0,0,0,0,-1,748,1184,0,0
-469,-160,0,0,0,0,0,0,0,0,0,-1,755,1184,0,0
-462,-160,0,0,0,0,0,0,0,0,0,-1,762,1184,0,0
-455,-160,0,0,0,0,0,0,0,0,0,-1,769,1184,0,0
-448,-160,0,0,0,0,0,0,0,0,0,-1,776,1184,0,0
-441,-160,0,0,0,0,0,0,0,0,0,-1,783,1184,0,0
-434,-160,0,0,0,0,0,0,0,0,0,-1,790,1184,0,0
-427,-160,0,0,0,0,0,0,0,0,0,-1,797,1184,0,0
-420,-160,0,0,0,0,0,0,0,0,0,-1,804,1184,0,0
-413,-160,0,0,0,0,0,0,0,0,0,-1,811,1184,0,0
-406,-160,0,0,0,0,0,0,0,0,0,-1,818,1184,0,0
-399,-160,0,0,0,0,0,0,0,0,0,-1,825,1184,0,0
-392,-160,0,0,0,0,0,0,0,0,0,-1,832,1184,0,0
-385,-160,0,0,0,0,0,0,0,0,0,-1,839,1184,0,0
-378,-160,0,0,0,0,0,0,0,0,0,-1,846,1184,0,0
-371,-160,0,0,0,0,0,0,0,0,0,-1,853,1184,0,0
-364,-160,0,0,0,0,0,0,0,0,0,-1,860,1184,0,0
-357,-160,0,0,0,0,0,0,0,0,0,-1,867,1184,0,0
-350,-160,0,0,0,0,0,0,0,0,0,-1,874,1184,0,0
-343,-160,0,0,0,0,0,0,0,0,0,-1,881,1184,0,0
-336,-160,0,0,0,0,0,0,0,0,0,-1,888,1184,0,0
-329,-160,0,0,0,0,0,0,0,0,0,-1,895,1184,0,0
-322,-160,0,0,0,0,0,0,0,0,0,-1,902,1184,0,0
-315,-160,0,0,0,0,0,0,0,0,0,-1,909,1184,0,0
-308,-160,0,0,0,0,0,0,0,0,0,-1,916,1184,0,0
-301,-160,0,0,0,0,0,0,0,0,0,-1,923,1184,0,0
-294,-160,0,0,0,0,0,0,0,0,0,-1,930,1184,0,0
-287,-160,0,0,0,0,0,0,0,0,0,-1,937,1184,0,0
-280,-160,0,0,0,0,0,0,0,0,0,-1,944,1184,0,0
-273,-160,0,0,0,0,0,0,0,0,0,-1,951,1184,0,0
-266,-160,0,0,0,0,0,0,0,0,0,-1,958,1184,0,0
-259,-160,0,0,0,0,0,0,0,0,0,-1,965,1184,0,0
-252,-160,0,0,0,0,0,0,0,0,0,-1,972,1184,0,0
-245,-160,0,0,0,0,0,0,0,0,0,-1,979,1184,0,0
-238,-160,0,0,0,0,0,0,0,0,0,-1,986,1184,0,0
-231,-160,0,0,0,0,0,0,0,0,0,-1,993,1184,0,0
-224,-160,0,0,0,0,0,0,0,0,0,-1,1000,1184,0,0
-217,-160,0,0,0,0,0,0,0,0,0,-1,1007,1184,0,0
-210,-160,0,0,0,0,0,0,0,0,0,-1,1014,1184,0,0
-203,-160,0,0,0,0,0,0,0,0,0,-1,1021,1184,0,0
-196,-160,0,0,0,0,0,0,0,0,0,-1,1028,1184,0,0
-189,-160,0,0,0,0,0,0,0,0,0,-1,1035,1184,0,0
-182,-160,0,0,0,0,0,0,0,0,0,-1,1042,1184,0,0
-175,-160,0,0,0,0,0,0,0,0,0,-1,1049,1184,0,0
-168,-160,0,0,0,0,0,0,0,0,0,-1,1056,1184,0,0
-161,-160,0,0,0,0,0,0,0,0,0,-1,1063,1184,0,0
-154,-160,0,0,0,0,0,0,0,0,0,-1,1070,1184,0,0
-147,-160,0,0,0,0,0,0,0,0,0,-1,1077,1184,0,0
-140,-160,0,0,0,0,0,0,0,0,0,-1,1084,1184,0,0
-133,-160,0,0,0,0,0,0,0,0,0,-1,1091,1184,0,0
-126,-160,0,0,0,0,0,0,0,0,0,-1,1098,1184,0,0
-119,-160,0,0,0,0,0,0,0,0,0,-1,1105,1184,0,0
-112,-160,0,0,0,0,0,0,0,0,0,-1,1112,1184,0,0
-105,-160,0,0,0,0,0,0,0,0,0,-1,1119,1184,0,0
-98,-160,0,0,0,0,0,0,0,0,0,-1,1126,1184,0,0
-91,-160,0,0,0,0,0,0,0,0,0,-1,1133,1184,0,0
-84,-160,0,0,0,0,0,0,0,0,0,-1,1140,1184,0,0
-77,-160,0,0,0,0,0,0,0,0,0,-1,1147,1184,0,0
-70,-160,0,0,0,0,0,0,0,0,0,-1,1154,1184,0,0
-63,-160,0,0,0,0,0,0,0,0,0,-1,1161,1184,0,0
-56,-160,0,0,0,0,0,0,0,0,0,-1,1168,1184,0,0
-49,-160,0,0,0,0,0,0,0,0,0,-1,1175,1184,0,0
-42,-160,0,0,0,0,0,0,0,0,0,-1,1182,1184,0,0
-35,-160,0,0,0,0,0,0,0,0,0,-1,1189,1184,0,0
-28,-160,0,0,0,0,0,0,0,0,0,-1,1196,1184,0,0
-21,-160,0,0,0,0,0,0,0,0,0,-1,1203,1184,0,0
-14,-160,0,0,0,0,0,0,0,0,0,-1,1210,1184,0,0
-7,-160,0,0,0,0,0,0,0,0,0,-1,1217,1184,0,0
0,-160,0,0,0,0,0,0,0,0,0,-1,1224,1184,0,0
7,-160,0,0,0,0,0,0,0,0,0,-1,1231,1184,0,0
14,-160,0,0,0,0,0,0,0,0,0,-1,1238,1184,0,0
21,-160,0,0,0,0,0,0,0,0,0,-1,1245,1184,0,0
28,-160,0,0,0,0,0,0,0,0,0,-1,1252,1184,0,0
35,-160,0,0,0,0,0,0,0,0,0,-1,1259,1184,0,0
42,-160,0,0,0,0,0,0,0,0,0,-1,1266,1184,0,0
49,-160,0,0,0,0,0,0,0,0,0,-1,1273,1184,0,0
56,-160,0,0,0,0,0,0,0,0,0,-1,1280,1184,0,0
63,-160,0,0,0,0,0,0,0,0,0,-1,1287,1184,0,0
70,-160,0,0,0,0,0,0,0,0,0,-1,1294,1184,0,0
77,-160,0,0,0,0,0,0,0,0,0,-1,1301,1184,0,0
84,-160,0,0,0,0,0,0,0,0,0,-1,1308,1184,0,0
91,-160,0,0,0,0,0,0,0,0,0,-1,1315,1184,0,0
98,-160,0,0,0,0,0,0,0,0,0,-1,1322,1184,0,0
105,-160,0,0,0,0,0,0,0,0,0,-1,1329,1184,0,0
112,-160,0,0,0,0,0,0,0,0,0,-1,1336,1184,0,0
119,-160,0,0,0,0,0,0,0,0,0,-1,1343,1184,0,0
126,-160,0,0,0,0,0,0,0,0,0,-1,1350,1184,0,0
133,-160,0,0,0,0,0,0,0,0,0,-1,1357,1184,0,0
140,-160,0,0,0,0,0,0,0,0,0,-1,1364,1184,0,0
147,-160,0,0,0,0,0,0,0,0,0,-1,1371,1184,0,0
154,-160,0,0,0,0,0,0,0,0,0,-1,1378,1184,0,0
161,-160,0,0,0,0,0,0,0,0,0,-1,1385,1184,0,0
168,-160,0,0,0,0,0,0,0,0,0,-1,1392,1184,0,0
175,-160,0,0,0,0,0,0,0,0,0,-1,1399,1184,0,0
182,-160,0,0,0,0,0,0,0,0,0,-1,1406,1184,0,0
189,-160,0,0,0,0,0,0,0,0,0,-1,1413,1184,0,0
196,-160,0,0,0,0,0,0,0,0,0,-1,1420,1184,0,0
203,-160,0,0,0,0,0,0,0,0,0,-1,1427,1184,0,0
210,-160,0,0,0,0,0,0,0,0,0,-1,1434,1184,0,0
217,-160,0,0,0,0,0,0,0,0,0,-1,1441,1184,0,0
224,-160,0,0,0,0,0,0,0,0,0,-1,1448,1184,0,0
231,-160,0,0,0,0,0,0,0,0,0,-1,1455,1184,0,0
238,-160,0,0,0,0,0,0,0,0,0,-1,1462,1184,0,0
245,-160,0,0,0,0,0,0,0,0,0,-1,1469,1184,0,0
252,-160,0,0,0,0,0,0,0,0,0,-1,1476,1184,0,0
259,-160,0,0,0,0,0,0,0,0,0,-1,1483,1184,0,0
266,-160,0,0,0,0,0,0,0,0,0,-1,1490,1184,0,0
273,-160,0,0,0,0,0,0,0,0,0,-1,1497,1184,0,0
280,-160,0,0,0,0,0,0,0,0,0,-1,1504,1184,0,0
287,-160,0,0,0,0,0,0,0,0,0,-1,1511,1184,0,0
294,-160,0,0,0,0,0,0,0,0,0,-1,1518,1184,0,0
301,-160,0,0,0,0,0,0,0,0,0,-1,1525,1184,0,0
308,-160,0,0,0,0,0,0,0,0,0,-1,1532,1184,0,0
315,-160,0,0,0,0,0,0,0,0,0,-1,1539,1184,0,0
322,-160,0,0,0,0,0,0,0,0,0,-1,1546,1184,0,0
329,-160,0,0,0,0,0,0,0,0,0,-1,1553,1184,0,0
336,-160,0,0,0,0,0,0,0,0,0,-1,1560,1184,0,0
343,-160,0,0,0,0,0,0,0,0,0,-1,1567,1184,0,0
350,-160,0,0,0,0,0,0,0,0,0,-1,1574,1184,0,0
357,-160,0,0,0,0,0,0,0,0,0,-1,1581,1184,0,0
364,-160,0,0,0,0,0,0,0,0,0,-1,1588,1184,0,0
371,-160,0,0,0,0,0,0,0,0,0,-1,1595,1184,0,0
378,-160,0,0,0,0,0,0,0,0,0,-1,1602,1184,0,0
385,-160,0,0,0,0,0,0,0,0,0,-1,1609,1184,0,0
392,-160,0,0,0,0,0,0,0,0,0,-1,1616,1184,0,0
399,-160,0,0,0,0,0,0,0,0,0,-1,1623,1184,0,0
406,-160,0,0,0,0,0,0,0,0,0,-1,1630,1184,0,0
413,-160,0,0,0,0,0,0,0,0,0,-1,1637,1184,0,0
420,-160,0,0,0,0,0,0,0,0,0,-1,1644,1184,0,0
427,-160,0,0,0,0,0,0,0,0,0,-1,1651,1184,0,0
434,-160,0,0,0,0,0,0,0,0,0,-1,1658,1184,0,0
441,-160,0,0,0,0,0,0,0,0,0,-1,1665,1184,0,0
448,-160,0,0,0,0,0,0,0,0,0,-1,1672,1184,0,0
455,-160,0,0,0,0,0,0,0,0,0,-1,1679,1184,0,0
462,-160,0,0,0,0,0,0,0,0,0,-1,1686,1184,0,0
469,-160,0,0,0,0,0,0,0,0,0,-1,1693,1184,0,0
476,-160,0,0,0,0,0,0,0,0,0,-1,1700,1184,0,0
483,-160,0,0,0,0,0,0,0,0,0,-1,1707,1184,0,0
490,-160,0,0,0,0,0,0,0,0,0,-1,1714,1184,0,0
497,-160,0,0,0,0,0,0,0,0,0,-1,1721,1184,0,0
504,-160,0,0,0,0,0,0,0,0,0,-1,1728,1184,0,0
511,-160,0,0,0,0,0,0,0,0,0,-1,1735,1184,0,0
518,-160,0,0,0,0,0,0,0,0,0,-1,1742,1184,0,0
525,-160,0,0,0,0,0,0,0,0,0,-1,1749,1184,0,0
532,-160,0,0,0,0,0,0,0,0,0,-1,1756,1184,0,0
539,-160,0,0,0,0,0,0,0,0,0,-1,1763,1184,0,0
546,-160,0,0,0,0,0,0,0,0,0,-1,1770,1184,0,0
553,-160,0,0,0,0,0,0,0,0,0,-1,1777,1184,0,0
560,-160,0,0,0,0,0,0,0,0,0,-1,1784,1184,0,0
567,-160,0,0,0,0,0,0,0,0,0,-1,1791,1184,0,0
574,-160,0,0,0,0,0,0,0,0,0,-1,1798,1184,0,0
581,-160,0,0,0,0,0,0,0,0,0,-1,1805,1184,0,0
588,-160,0,0,0,0,0,0,0,0,0,-1,1812,1184,0,0
595,-160,0,0,0,0,0,0,0,0,0,-1,1819,1184,0,0
602,-160,0,0,0,0,0,0,0,0,0,-1,1826,1184,0,0
609,-160,0,0,0,0,0,0,0,0,0,-1,1833,1184,0,0
616,-160,0,0,0,0,0,0,0,0,0,-1,1840,1184,0,0
623,-160,0,0,0,0,0,0,0,0,0,-1,1847,1184,0,0
630,-160,0,0,0,0,0,0,0,0,0,-1,1854,1184,0,0
637,-160,82.978,2.38647,0.00264084,-0.000103693,-0.00425198,0.00573651,-0.00319936,-0.629307,0.00522798,0.0395784,1861,1184,82.978,-2.38643
644,-160,83.0229,2.20032,0.0021656,0.000103384,-0.00309676,0.0043984,-0.00212941,-0.624689,0.00384398,0.0419968,1868,1184,83.0229,-2.20028
651,-160,83.0752,2.31567,0.00169788,0.000525807,-0.00234437,0.00352835,-0.00130467,-0.662921,0.00288712,0.0394276,1875,1184,83.0752,-2.31564
658,-160,83.042,2.38684,0.00127981,0.00102124,-0.00181334,0.00296846,-0.00066742,-0.74981,0.00223492,0.0385041,1882,1184,83.042,-2.38679
665,-160,83.0624,2.2926,0.00086665,0.00166002,-0.00139653,0.00271511,-0.000188442,-0.923778,0.00187605,0.0397151,1889,1184,83.0624,-2.29261
672,-160,83.0282,2.30273,0.000573293,0.00251179,-0.00113374,0.00303411,5.09636e-05,-1.13907,0.00200597,0.035929,1896,1184,83.0282,-2.30275
679,-160,83.0146,2.34216,0.000636592,0.00287274,-0.000858735,0.00316446,0.000344873,-1.24332,0.00200459,0.0254229,1903,1184,83.0146,-2.34216
686,-160,83.0675,2.30359,0.00159533,0.00315508,-0.000898805,0.00356519,0.00118523,-1.14273,0.00209653,0.0163207,1910,1184,83.0675,-2.30354
693,-160,83.106,2.26843,0,0,0,0,0,0,0,-1,1917,1184,83.106,-2.26845
700,-160,42.8784,2.44617,0,0,0,0,0,0,0,-1,1924,1184,42.8785,-2.4462
707,-160,24.5115,6.27405,0,0,0,0,0,0,0,-1,1931,1184,24.5115,-6.27401
714,-160,35.6892,6.8905,0,0,0,0,0,0,0,-1,1938,1184,35.6892,-6.89048
721,-160,36.2388,6.37878,0,0,0,0,0,0,0,-1,1945,1184,36.2388,-6.37876
728,-160,52.2174,8.57385,0,0,0,0,0,0,0,-1,1952,1184,52.2174,-8.57381
735,-160,70.5594,9.97803,0,0,0,0,0,0,0,-1,1959,1184,70.5594,-9.978
742,-160,70.673,9.151,0.00274353,0.00226858,0.00125002,0.00377843,0.00123368,0.691528,0.00222482,0.0216001,1966,1184,70.673,-9.15098
749,-160,70.6946,8.40076,0.00165932,0.00260167,0.00210785,0.00429036,-2.93723e-05,0.895358,0.00287008,0.0187813,1973,1184,70.6946,-8.40079
756,-160,70.6482,7.6532,0.000164773,0.00375502,0.00311691,0.00555678,-0.00163699,1.04666,0.004354,0.0126235,1980,1184,70.6483,-7.65322
763,-160,70.5747,6.92957,-0.00120161,0.00516275,0.00438258,0.00739658,-0.00343545,1.09941,0.00639175,0.0132449,1987,1184,70.5747,-6.92955
770,-160,70.4526,6.09729,-0.00249379,0.00679853,0.00597009,0.00971734,-0.0054126,1.11606,0.00885235,0.03201,1994,1184,70.4526,-6.09725
777,-160,70.29,5.36292,-0.00359865,0.00865107,0.00780371,0.0124465,-0.00739406,1.11812,0.0115781,0.0417394,2001,1184,70.2901,-5.36296
784,-160,70.6055,4.79578,-0.00428398,0.0103261,0.0103383,0.0156798,-0.00963766,1.09297,0.0147551,0.0478575,2008,1184,70.6055,-4.79582
791,-160,70.5576,4.22485,0,0,0,0,0,0,0,-1,2015,1184,70.5575,-4.22489
798,-160,70.4492,1.04126,0,0,0,0,0,0,0,-1,2022,1184,70.4493,-1.04125
805,-160,70.6155,1.46606,0,0,0,0,0,0,0,-1,2029,1184,70.6154,-1.46608
812,-160,0,0,0,0,0,0,0,0,0,-1,2036,1184,0,0
-700,-167,0,0,0,0,0,0,0,0,0,-1,524,1191,0,0
-693,-167,0,0,0,0,0,0,0,0,0,-1,531,1191,0,0
-686,-167,-62.5459,-1.41101,-0.0945351,0.0728897,0.0781108,0.103672,-0.125317,1.1954,0.132404,0.0478039,538,1191,-62.5459,1.41103
-679,-167,-64.1197,0.352051,-0.0800009,0.0654648,0.0636675,0.0893944,-0.10393,1.21128,0.111721,0.04443,545,1191,-64.1197,-0.352018
-672,-167,-64.7752,0.326904,-0.0671089,0.0570594,0.0509872,0.0753129,-0.0853624,1.22701,0.0928264,0.0447894,552,1191,-64.7752,-0.326945
-665,-167,-64.7171,0.437744,-0.055569,0.0485568,0.0399624,0.0621258,-0.069138,1.24347,0.0758212,0.0466642,559,1191,-64.7171,-0.437685
-658,-167,-64.4813,0.588135,0,0,0,0,0,0,0,-1,566,1191,-64.4813,-0.588183
-651,-167,-53.2571,5.48584,0,0,0,0,0,0,0,-1,573,1191,-53.2571,-5.48584
-644,-167,-53.2432,5.75757,-0.0277746,0.0241444,0.0136727,0.027525,-0.0311552,1.32841,0.0339006,0.0449464,580,1191,-53.2432,-5.75751
-637,-167,-53.2986,5.99146,-0.0201517,0.0167051,0.00662086,0.0178583,-0.021305,1.39834,0.0226401,0.0215228,587,1191,-53.2986,-5.99143
-630,-167,-53.4444,6.72815,-0.0132957,0.00934637,0.00063308,0.00936406,-0.0133134,1.54287,0.0131588,0.01039,594,1191,-53.4444,-6.72814
-623,-167,-53.4954,7.49487,-0.00821507,0.00309553,-0.00401093,0.00437349,-0.00949302,-1.26235,0.00818569,0.015233,601,1191,-53.4954,-7.49493
-616,-167,-53.5258,8.32397,-0.00568914,-0.00228617,-0.00584723,0.00210211,-0.0100774,-0.926983,0.00751759,0.0194093,608,1191,-53.5258,-8.32396
-609,-167,-53.6174,9.20618,-0.00493409,-0.00208841,-0.00514698,0.00182878,-0.00885128,-0.920251,0.00659551,0.0237279,615,1191,-53.6175,-9.20615
-602,-167,-53.961,9.81653,-0.00373743,-0.00116587,-0.00461168,0.00233591,-0.00723922,-0.921351,0.00576476,0.0330316,622,1191,-53.961,-9.81655
-595,-167,-53.8502,10.2292,0,0,0,0,0,0,0,-1,629,1191,-53.8502,-10.2292
-588,-167,-42.7112,7.92004,0,0,0,0,0,0,0,-1,636,1191,-42.7112,-7.92007
-581,-167,-32.8646,6.30542,0,0,0,0,0,0,0,-1,643,1191,-32.8646,-6.30537
-574,-167,-32.4808,7.37524,0,0,0,0,0,0,0,-1,650,1191,-32.4808,-7.37525
-567,-167,-27.3643,2.55859,0,0,0,0,0,0,0,-1,657,1191,-27.3643,-2.55864
-560,-167,-48.2598,0.834839,0,0,0,0,0,0,0,-1,664,1191,-48.2598,-0.834822
-553,-167,-65.9132,0.508545,0,0,0,0,0,0,0,-1,671,1191,-65.9132,-0.50856
-546,-167,-66.0176,0.474731,0.00185494,0.000367283,-0.00264292,0.00385671,-0.00163449,-0.648225,0.00325573,0.0369826,678,1191,-66.0176,-0.474708
-539,-167,-66.0586,0.474487,0.00202769,0.00292404,-0.00334195,0.00584774,-0.000896006,-0.852054,0.00422892,0.0411486,685,1191,-66.0586,-0.474537
-532,-167,-66.0729,0.435425,0.00226021,0.00687579,-0.0040141,0.00919821,-6.22151e-05,-1.04629,0.00615298,0.0466247,692,1191,-66.0729,-0.435463
-525,-167,-65.9006,0.720459,0.0028012,0.0102618,-0.00451096,0.012385,0.000677956,-1.13087,0.00804021,0.0459794,699,1191,-65.9006,-0.720488
-518,-167,-65.8507,0.724854,0.00360916,0.01299,-0.00480844,0.0150168,0.00158236,-1.17189,0.00952767,0.0424596,706,1191,-65.8507,-0.724796
-511,-167,0,0,0,0,0,0,0,0,0,-1,713,1191,0,0
-504,-167,0,0,0,0,0,0,0,0,0,-1,720,1191,0,0
-497,-167,0,0,0,0,0,0,0,0,0,-1,727,1191,0,0
-490,-167,0,0,0,0,0,0,0,0,0,-1,734,1191,0,0
-483,-167,0,0,0,0,0,0,0,0,0,-1,741,1191,0,0
-476,-167,0,0,0,0,0,0,0,0,0,-1,748,1191,0,0
-469,-167,0,0,0,0,0,0,0,0,0,-1,755,1191,0,0
-462,-167,0,0,0,0,0,0,0,0,0,-1,762,1191,0,0
-455,-167,0,0,0,0,0,0,0,0,0,-1,769,1191,0,0
-448,-167,0,0,0,0,0,0,0,0,0,-1,776,1191,0,0
-441,-167,0,0,0,0,0,0,0,0,0,-1,783,1191,0,0
-434,-167,0,0,0,0,0,0,0,0,0,-1,790,1191,0,0
-427,-167,0,0,0,0,0,0,0,0,0,-1,797,1191,0,0
-420,-167,0,0,0,0,0,0,0,0,0,-1,804,1191,0,0
-413,-167,0,0,0,0,0,0,0,0,0,-1,811,1191,0,0
-406,-167,0,0,0,0,0,0,0,0,0,-1,818,1191,0,0
-399,-167,0,0,0,0,0,0,0,0,0,-1,825,1191,0,0
-392,-167,0,0,0,0,0,0,0,0,0,-1,832,1191,0,0
-385,-167,0,0,0,0,0,0,0,0,0,-1,839,1191,0,0
-378,-167,0,0,0,0,0,0,0,0,0,-1,846,1191,0,0
-371,-167,0,0,0,0,0,0,0,0,0,-1,853,1191,0,0
-364,-167,0,0,0,0,0,0,0,0,0,-1,860,1191,0,0
-357,-167,0,0,0,0,0,0,0,0,0,-1,867,1191,0,0
-350,-167,0,0,0,0,0,0,0,0,0,-1,874,1191,0,0
-343,-167,0,0,0,0,0,0,0,0,0,-1,881,1191,0,0
-336,-167,0,0,0,0,0,0,0,0,0,-1,888,1191,0,0
-329,-167,0,0,0,0,0,0,0,0,0,-1,895,1191,0,0
-322,-167,0,0,0,0,0,0,0,0,0,-1,902,1191,0,0
-315,-167,0,0,0,0,0,0,0,0,0,-1,909,1191,0,0
-308,-167,0,0,0,0,0,0,0,0,0,-1,916,1191,0,0
-301,-167,0,0,0,0,0,0,0,0,0,-1,923,1191,0,0
-294,-167,0,0,0,0,0,0,0,0,0,-1,930,1191,0,0
-287,-167,0,0,0,0,0,0,0,0,0,-1,937,1191,0,0
-280,-167,0,0,0,0,0,0,0,0,0,-1,944,1191,0,0
-273,-167,0,0,0,0,0,0,0,0,0,-1,951,1191,0,0
-266,-167,0,0,0,0,0,0,0,0,0,-1,958,1191,0,0
-259,-167,0,0,0,0,0,0,0,0,0,-1,965,1191,0,0
-252,-167,0,0,0,0,0,0,0,0,0,-1,972,1191,0,0
-245,-167,0,0,0,0,0,0,0,0,0,-1,979,1191,0,0
-238,-167,0,0,0,0,0,0,0,0,0,-1,986,1191,0,0
-231,-167,0,0,0,0,0,0,0,0,0,-1,993,1191,0,0
-224,-167,0,0,0,0,0,0,0,0,0,-1,1000,1191,0,0
-217,-167,0,0,0,0,0,0,0,0,0,-1,1007,1191,0,0
-210,-167,0,0,0,0,0,0,0,0,0,-1,1014,1191,0,0
-203,-167,0,0,0,0,0,0,0,0,0,-1,1021,1191,0,0
-196,-167,0,0,0,0,0,0,0,0,0,-1,1028,1191,0,0
-189,-167,0,0,0,0,0,0,0,0,0,-1,1035,1191,0,0
-182,-167,0,0,0,0,0,0,0,0,0,-1,1042,1191,0,0
-175,-167,0,0,0,0,0,0,0,0,0,-1,1049,1191,0,0
-168,-167,0,0,0,0,0,0,0,0,0,-1,1056,1191,0,0
-161,-167,0,0,0,0,0,0,0,0,0,-1,1063,1191,0,0
-154,-167,0,0,0,0,0,0,0,0,0,-1,1070,1191,0,0
-147,-167,0,0,0,0,0,0,0,0,0,-1,1077,1191,0,0
-140,-167,0,0,0,0,0,0,0,0,0,-1,1084,1191,0,0
-133,-167,0,0,0,0,0,0,0,0,0,-1,1091,1191,0,0
-126,-167,0,0,0,0,0,0,0,0,0,-1,1098,1191,0,0
-119,-167,0,0,0,0,0,0,0,0,0,-1,1105,1191,0,0
-112,-167,0,0,0,0,0,0,0,0,0,-1,1112,1191,0,0
-105,-167,0,0,0,0,0,0,0,0,0,-1,1119,1191,0,0
-98,-167,0,0,0,0,0,0,0,0,0,-1,1126,1191,0,0
-91,-167,0,0,0,0,0,0,0,0,0,-1,1133,1191,0,0
-84,-167,0,0,0,0,0,0,0,0,0,-1,1140,1191,0,0
-77,-167,0,0,0,0,0,0,0,0,0,-1,1147,1191,0,0
-70,-167,0,0,0,0,0,0,0,0,0,-1,1154,1191,0,0
-63,-167,0,0,0,0,0,0,0,0,0,-1,1161,1191,0,0
-56,-167,0,0,0,0,0,0,0,0,0,-1,1168,1191,0,0
-49,-167,0,0,0,0,0,0,0,0,0,-1,1175,1191,0,0
-42,-167,0,0,0,0,0,0,0,0,0,-1,1182,1191,0,0
-35,-167,0,0,0,0,0,0,0,0,0,-1,1189,1191,0,0
-28,-167,0,0,0,0,0,0,0,0,0,-1,1196,1191,0,0
-21,-167,0,0,0,0,0,0,0,0,0,-1,1203,1191,0,0
-14,-167,0,0,0,0,0,0,0,0,0,-1,1210,1191,0,0
-7,-167,0,0,0,0,0,0,0,0,0,-1,1217,1191,0,0
0,-167,0,0,0,0,0,0,0,0,0,-1,1224,1191,0,0
7,-167,0,0,0,0,0,0,0,0,0,-1,1231,1191,0,0
14,-167,0,0,0,0,0,0,0,0,0,-1,1238,1191,0,0
21,-167,0,0,0,0,0,0,0,0,0,-1,1245,1191,0,0
28,-167,0,0,0,0,0,0,0,0,0,-1,1252,1191,0,0
35,-167,0,0,0,0,0,0,0,0,0,-1,1259,1191,0,0
42,-167,0,0,0,0,0,0,0,0,0,-1,1266,1191,0,0
49,-167,0,0,0,0,0,0,0,0,0,-1,1273,1191,0,0
56,-167,0,0,0,0,0,0,0,0,0,-1,1280,1191,0,0
63,-167,0,0,0,0,0,0,0,0,0,-1,1287,1191,0,0
70,-167,0,0,0,0,0,0,0,0,0,-1,1294,1191,0,0
77,-167,0,0,0,0,0,0,0,0,0,-1,1301,1191,0,0
84,-167,0,0,0,0,0,0,0,0,0,-1,1308,1191,0,0
91,-167,0,0,0,0,0,0,0,0,0,-1,1315,1191,0,0
98,-167,0,0,0,0,0,0,0,0,0,-1,1322,1191,0,0
105,-167,0,0,0,0,0,0,0,0,0,-1,1329,1191,0,0
112,-167,0,0,0,0,0,0,0,0,0,-1,1336,1191,0,0
119,-167,0,0,0,0,0,0,0,0,0,-1,1343,1191,0,0
126,-167,0,0,0,0,0,0,0,0,0,-1,1350,1191,0,0
133,-167,0,0,0,0,0,0,0,0,0,-1,1357,1191,0,0
140,-167,0,0,0,0,0,0,0,0,0,-1,1364,1191,0,0
147,-167,0,0,0,0,0,0,0,0,0,-1,1371,1191,0,0
154,-167,0,0,0,0,0,0,0,0,0,-1,1378,1191,0,0
161,-167,0,0,0,0,0,0,0,0,0,-1,1385,1191,0,0
168,-167,0,0,0,0,0,0,0,0,0,-1,1392,1191,0,0
175,-167,0,0,0,0,0,0,0,0,0,-1,1399,1191,0,0
182,-167,0,0,0,0,0,0,0,0,0,-1,1406,1191,0,0
189,-167,0,0,0,0,0,0,0,0,0,-1,1413,1191,0,0
196,-167,0,0,0,0,0,0,0,0,0,-1,1420,1191,0,0
203,-167,0,0,0,0,0,0,0,0,0,-1,1427,1191,0,0
210,-167,0,0,0,0,0,0,0,0,0,-1,1434,1191,0,0
217,-167,0,0,0,0,0,0,0,0,0,-1,1441,1191,0,0
224,-167,0,0,0,0,0,0,0,0,0,-1,1448,1191,0,0
231,-167,0,0,0,0,0,0,0,0,0,-1,1455,1191,0,0
238,-167,0,0,0,0,0,0,0,0,0,-1,1462,1191,0,0
245,-167,0,0,0,0,0,0,0,0,0,-1,1469,1191,0,0
252,-167,0,0,0,0,0,0,0,0,0,-1,1476,1191,0,0
259,-167,0,0,0,0,0,0,0,0,0,-1,1483,1191,0,0
266,-167,0,0,0,0,0,0,0,0,0,-1,1490,1191,0,0
273,-167,0,0,0,0,0,0,0,0,0,-1,1497,1191,0,0
280,-167,0,0,0,0,0,0,0,0,0,-1,1504,1191,0,0
287,-167,0,0,0,0,0,0,0,0,0,-1,1511,1191,0,0
294,-167,0,0,0,0,0,0,0,0,0,-1,1518,1191,0,0
301,-167,0,0,0,0,0,0,0,0,0,-1,1525,1191,0,0
308,-167,0,0,0,0,0,0,0,0,0,-1,1532,1191,0,0
315,-167,0,0,0,0,0,0,0,0,0,-1,1539,1191,0,0
322,-167,0,0,0,0,0,0,0,0,0,-1,1546,1191,0,0
329,-167,0,0,0,0,0,0,0,0,0,-1,1553,1191,0,0
336,-167,0,0,0,0,0,0,0,0,0,-1,1560,1191,0,0
343,-167,0,0,0,0,0,0,0,0,0,-1,1567,1191,0,0
350,-167,0,0,0,0,0,0,0,0,0,-1,1574,1191,0,0
357,-167,0,0,0,0,0,0,0,0,0,-1,1581,1191,0,0
364,-167,0,0,0,0,0,0,0,0,0,-1,1588,1191,0,0
371,-167,0,0,0,0,0,0,0,0,0,-1,1595,1191,0,0
378,-167,0,0,0,0,0,0,0,0,0,-1,1602,1191,0,0
385,-167,0,0,0,0,0,0,0,0,0,-1,1609,1191,0,0
392,-167,0,0,0,0,0,0,0,0,0,-1,1616,1191,0,0
399,-167,0,0,0,0,0,0,0,0,0,-1,1623,1191,0,0
406,-167,0,0,0,0,0,0,0,0,0,-1,1630,1191,0,0
413,-167,0,0,0,0,0,0,0,0,0,-1,1637,1191,0,0
420,-167,0,0,0,0,0,0,0,0,0,-1,1644,1191,0,0
427,-167,0,0,0,0,0,0,0,0,0,-1,1651,1191,0,0
434,-167,0,0,0,0,0,0,0,0,0,-1,1658,1191,0,0
441,-167,0,0,0,0,0,0,0,0,0,-1,1665,1191,0,0
448,-167,0,0,0,0,0,0,0,0,0,-1,1672,1191,0,0
455,-167,0,0,0,0,0,0,0,0,0,-1,1679,1191,0,0
462,-167,0,0,0,0,0,0,0,0,0,-1,1686,1191,0,0
469,-167,0,0,0,0,0,0,0,0,0,-1,1693,1191,0,0
476,-167,0,0,0,0,0,0,0,0,0,-1,1700,1191,0,0
483,-167,0,0,0,0,0,0,0,0,0,-1,1707,1191,0,0
490,-167,0,0,0,0,0,0,0,0,0,-1,1714,1191,0,0
497,-167,0,0,0,0,0,0,0,0,0,-1,1721,1191,0,0
504,-167,0,0,0,0,0,0,0,0,0,-1,1728,1191,0,0
511,-167,0,0,0,0,0,0,0,0,0,-1,1735,1191,0,0
518,-167,0,0,0,0,0,0,0,0,0,-1,1742,1191,0,0
525,-167,0,0,0,0,0,0,0,0,0,-1,1749,1191,0,0
532,-167,0,0,0,0,0,0,0,0,0,-1,1756,1191,0,0
539,-167,0,0,0,0,0,0,0,0,0,-1,1763,1191,0,0
546,-167,0,0,0,0,0,0,0,0,0,-1,1770,1191,0,0
553,-167,0,0,0,0,0,0,0,0,0,-1,1777,1191,0,0
560,-167,0,0,0,0,0,0,0,0,0,-1,1784,1191,0,0
567,-167,0,0,0,0,0,0,0,0,0,-1,1791,1191,0,0
574,-167,0,0,0,0,0,0,0,0,0,-1,1798,1191,0,0
581,-167,0,0,0,0,0,0,0,0,0,-1,1805,1191,0,0
588,-167,0,0,0,0,0,0,0,0,0,-1,1812,1191,0,0
595,-167,0,0,0,0,0,0,0,0,0,-1,1819,1191,0,0
602,-167,0,0,0,0,0,0,0,0,0,-1,1826,1191,0,0
609,-167,0,0,0,0,0,0,0,0,0,-1,1833,1191,0,0
616,-167,0,0,0,0,0,0,0,0,0,-1,1840,1191,0,0
623,-167,0,0,0,0,0,0,0,0,0,-1,1847,1191,0,0
630,-167,0,0,0,0,0,0,0,0,0,-1,1854,1191,0,0
637,-167,82.7964,2.76563,0.00260749,-0.00060844,-0.00395444,0.00526838,-0.00326933,-0.592297,0.00497409,0.0412161,1861,1191,82.7964,-2.76561
644,-167,82.9612,2.1687,0.00226307,-0.00019274,-0.00300653,0.00428277,-0.00221245,-0.59153,0.00381299,0.0448238,1868,1191,82.9611,-2.16864
651,-167,83.0471,2.47473,0.00187463,0.000380276,-0.00237926,0.00362128,-0.00136637,-0.633256,0.0029761,0.0420725,1875,1191,83.0471,-2.47467
658,-167,83.0696,2.44324,0.00145652,0.00102315,-0.00191201,0.00316408,-0.000684412,-0.728975,0.00237069,0.0402965,1882,1191,83.0696,-2.44324
665,-167,83.0975,2.31531,0.000998412,0.00182694,-0.00150803,0.00297657,-0.000151226,-0.919443,0.00203666,0.0393755,1889,1191,83.0975,-2.31526
672,-167,83.0651,2.30005,0.000671707,0.00283796,-0.00121371,0.00338156,0.000128106,-1.1497,0.00221291,0.0304156,1896,1191,83.0651,-2.3001
679,-167,83.0334,2.30334,0.000650435,0.00334613,-0.000943621,0.00364362,0.000352952,-1.2654,0.00232039,0.0212535,1903,1191,83.0335,-2.30329
686,-167,83.0302,2.25867,0.00147922,0.0036388,-0.00103034,0.00405151,0.00106651,-1.18981,0.00242498,0.0442587,1910,1191,83.0302,-2.25866
693,-167,83.0426,2.22205,0,0,0,0,0,0,0,-1,1917,1191,83.0426,-2.22204
700,-167,28.0459,2.70508,0,0,0,0,0,0,0,-1,1924,1191,28.0459,-2.70513
707,-167,29.4708,7.10168,0,0,0,0,0,0,0,-1,1931,1191,29.4708,-7.10172
714,-167,35.9202,6.84668,0,0,0,0,0,0,0,-1,1938,1191,35.9202,-6.84664
721,-167,36.2072,6.38892,0,0,0,0,0,0,0,-1,1945,1191,36.2072,-6.38891
728,-167,63.7198,9.84265,0,0,0,0,0,0,0,-1,1952,1191,63.7199,-9.8427
735,-167,69.9865,10.1018,0,0,0,0,0,0,0,-1,1959,1191,69.9865,-10.1019
742,-167,69.9277,9.27539,0.00262942,0.0027727,0.00110013,0.00380352,0.0015986,0.817913,0.00220525,0.0176949,1966,1191,69.9277,-9.27541
749,-167,69.9008,8.44495,0.00173798,0.00288296,0.00192008,0.00431408,0.000306865,0.930281,0.00277942,0.0149011,1973,1191,69.9008,-8.44494
756,-167,69.8706,7.70642,0.000562341,0.00364083,0.00294261,0.00542246,-0.00121929,1.02637,0.00408255,0.0119181,1980,1191,69.8706,-7.70643
763,-167,69.7822,6.95142,-0.000542221,0.00468145,0.004265,0.0070708,-0.00293157,1.06014,0.00593741,0.0152501,1987,1191,69.7823,-6.95142
770,-167,69.709,6.18896,0,0,0,0,0,0,0,-1,1994,1191,69.709,-6.18894
777,-167,69.4939,5.34045,0,0,0,0,0,0,0,-1,2001,1191,69.4939,-5.3404
784,-167,70.1223,4.68616,0,0,0,0,0,0,0,-1,2008,1191,70.1224,-4.68616
791,-167,68.3406,3.34851,0,0,0,0,0,0,0,-1,2015,1191,68.3406,-3.34849
798,-167,69.564,0.295532,0,0,0,0,0,0,0,-1,2022,1191,69.564,-0.295551
805,-167,69.8687,0.582886,0,0,0,0,0,0,0,-1,2029,1191,69.8686,-0.582869
812,-167,0,0,0,0,0,0,0,0,0,-1,2036,1191,0,0
-700,-174,0,0,0,0,0,0,0,0,0,-1,524,1198,0,0
-693,-174,0,0,0,0,0,0,0,0,0,-1,531,1198,0,0
-686,-174,-61.9444,-2.24377,0,0,0,0,0,0,0,-1,538,1198,-61.9444,2.24381
-679,-174,-64.2039,-0.083252,0,0,0,0,0,0,0,-1,545,1198,-64.204,0.0832794
-672,-174,-65.0681,-0.366089,0,0,0,0,0,0,0,-1,552,1198,-65.0682,0.366117
-665,-174,-64.7921,-0.217896,-0.0537637,0.0531717,0.0373836,0.0649445,-0.0655365,1.26571,0.0753335,0.0480962,559,1198,-64.7921,0.217854
-658,-174,-64.5098,-0.0543213,-0.0438353,0.0441629,0.027978,0.0523049,-0.0519772,1.2876,0.0602074,0.0462931,566,1198,-64.5098,0.0542966
-651,-174,-52.5475,5.50049,0,0,0,0,0,0,0,-1,573,1198,-52.5476,-5.50045
-644,-174,-52.4553,5.74683,-0.027014,0.0270318,0.0125213,0.0297917,-0.029774,1.35384,0.0343903,0.046594,580,1198,-52.4553,-5.74679
-637,-174,-52.395,5.98572,-0.0197391,0.0190109,0.00612264,0.0199552,-0.0206835,1.41776,0.0234641,0.0291263,587,1198,-52.395,-5.98575
-630,-174,-52.5968,6.7666,-0.0130705,0.0111686,0.000694681,0.0111885,-0.0130904,1.54217,0.0140318,0.0146567,594,1198,-52.5968,-6.76666
-623,-174,-52.652,7.57397,-0.00795927,0.0044575,-0.00353701,0.00539436,-0.00889612,-1.31187,0.00833277,0.015281,601,1198,-52.652,-7.57398
-616,-174,-52.6596,8.40356,-0.00510093,-0.00147059,-0.00526979,0.00228788,-0.0088594,-0.951259,0.00679845,0.0208254,608,1198,-52.6596,-8.40355
-609,-174,-52.7579,9.21619,-0.00390498,-0.00294648,-0.00488192,0.00147966,-0.00833112,-0.834325,0.00610734,0.0249013,615,1198,-52.7579,-9.21624
-602,-174,-53.0089,9.90063,-0.0030665,-0.00209619,-0.00427321,0.00171932,-0.006882,-0.841923,0.0052557,0.0388054,622,1198,-53.0089,-9.90065
-595,-174,-52.4874,10.4403,0,0,0,0,0,0,0,-1,629,1198,-52.4874,-10.4403
-588,-174,-50.7786,10.7983,0,0,0,0,0,0,0,-1,636,1198,-50.7786,-10.7984
-581,-174,-51.1051,11.6198,0,0,0,0,0,0,0,-1,643,1198,-51.1051,-11.6197
-574,-174,-31.7448,7.09595,0,0,0,0,0,0,0,-1,650,1198,-31.7448,-7.09599
-567,-174,-26.6597,3.04041,0,0,0,0,0,0,0,-1,657,1198,-26.6597,-3.04039
-560,-174,-42.6953,1.07178,0,0,0,0,0,0,0,-1,664,1198,-42.6953,-1.07181
-553,-174,-65.8397,0.396362,0,0,0,0,0,0,0,-1,671,1198,-65.8397,-0.396398
-546,-174,-65.9188,0.54187,0.00067348,5.75876e-05,-0.0029258,0.0033075,-0.00257643,-0.732965,0.00340581,0.0397012,678,1198,-65.9187,-0.541903
-539,-174,-66.0088,0.701416,0.000934185,0.00110406,-0.00331699,0.0043372,-0.00229895,-0.798199,0.00389116,0.0355295,685,1198,-66.0088,-0.701381
-532,-174,-66.0229,0.775269,0.00174653,0.00530367,-0.0035852,0.00752722,-0.000477026,-1.01565,0.00518448,0.0450713,692,1198,-66.0229,-0.775277
-525,-174,-65.988,0.839966,0.00275674,0.00880997,-0.00363393,0.0105126,0.0010541,-1.13263,0.0066848,0.0450284,699,1198,-65.988,-0.840003
-518,-174,-66.0327,0.840576,0.00391155,0.0115573,-0.00343203,0.0128719,0.002597,-1.20501,0.00785993,0.0441817,706,1198,-66.0327,-0.840635
-511,-174,0,0,0,0,0,0,0,0,0,-1,713,1198,0,0
-504,-174,0,0,0,0,0,0,0,0,0,-1,720,1198,0,0
-497,-174,0,0,0,0,0,0,0,0,0,-1,727,1198,0,0
-490,-174,0,0,0,0,0,0,0,0,0,-1,734,1198,0,0
-483,-174,0,0,0,0,0,0,0,0,0,-1,741,1198,0,0
-476,-174,0,0,0,0,0,0,0,0,0,-1,748,1198,0,0
-469,-174,0,0,0,0,0,0,0,0,0,-1,755,1198,0,0
-462,-174,0,0,0,0,0,0,0,0,0,-1,762,1198,0,0
-455,-174,0,0,0,0,0,0,0,0,0,-1,769,1198,0,0
-448,-174,0,0,0,0,0,0,0,0,0,-1,776,1198,0,0
-441,-174,0,0,0,0,0,0,0,0,0,-1,783,1198,0,0
-434,-174,0,0,0,0,0,0,0,0,0,-1,790,1198,0,0
-427,-174,0,0,0,0,0,0,0,0,0,-1,797,1198,0,0
-420,-174,0,0,0,0,0,0,0,0,0,-1,804,1198,0,0
-413,-174,0,0,0,0,0,0,0,0,0,-1,811,1198,0,0
-406,-174,0,0,0,0,0,0,0,0,0,-1,818,1198,0,0
-399,-174,0,0,0,0,0,0,0,0,0,-1,825,1198,0,0
-392,-174,0,0,0,0,0,0,0,0,0,-1,832,1198,0,0
-385,-174,0,0,0,0,0,0,0,0,0,-1,839,1198,0,0
-378,-174,0,0,0,0,0,0,0,0,0,-1,846,1198,0,0
-371,-174,0,0,0,0,0,0,0,0,0,-1,853,1198,0,0
-364,-174,0,0,0,0,0,0,0,0,0,-1,860,1198,0,0
-357,-174,0,0,0,0,0,0,0,0,0,-1,867,1198,0,0
-350,-174,0,0,0,0,0,0,0,0,0,-1,874,1198,0,0
-343,-174,0,0,0,0,0,0,0,0,0,-1,881,1198,0,0
-336,-174,0,0,0,0,0,0,0,0,0,-1,888,1198,0,0
-329,-174,0,0,0,0,0,0,0,0,0,-1,895,1198,0,0
-322,-174,0,0,0,0,0,0,0,0,0,-1,902,1198,0,0
-315,-174,0,0,0,0,0,0,0,0,0,-1,909,1198,0,0
-308,-174,0,0,0,0,0,0,0,0,0,-1,916,1198,0,0
-301,-174,0,0,0,0,0,0,0,0,0,-1,923,1198,0,0
-294,-174,0,0,0,0,0,0,0,0,0,-1,930,1198,0,0
-287,-174,0,0,0,0,0,0,0,0,0,-1,937,1198,0,0
-280,-174,0,0,0,0,0,0,0,0,0,-1,944,1198,0,0
-273,-174,0,0,0,0,0,0,0,0,0,-1,951,1198,0,0
-266,-174,0,0,0,0,0,0,0,0,0,-1,958,1198,0,0
-259,-174,0,0,0,0,0,0,0,0,0,-1,965,1198,0,0
-252,-174,0,0,0,0,0,0,0,0,0,-1,972,1198,0,0
-245,-174,0,0,0,0,0,0,0,0,0,-1,979,1198,0,0
-238,-174,0,0,0,0,0,0,0,0,0,-1,986,1198,0,0
-231,-174,0,0,0,0,0,0,0,0,0,-1,993,1198,0,0
-224,-174,0,0,0,0,0,0,0,0,0,-1,1000,1198,0,0
-217,-174,0,0,0,0,0,0,0,0,0,-1,1007,1198,0,0
-210,-174,0,0,0,0,0,0,0,0,0,-1,1014,1198,0,0
-203,-174,0,0,0,0,0,0,0,0,0,-1,1021,1198,0,0
-196,-174,0,0,0,0,0,0,0,0,0,-1,1028,1198,0,0
-189,-174,0,0,0,0,0,0,0,0,0,-1,1035,1198,0,0
-182,-174,0,0,0,0,0,0,0,0,0,-1,1042,1198,0,0
-175,-174,0,0,0,0,0,0,0,0,0,-1,1049,1198,0,0
-168,-174,0,0,0,0,0,0,0,0,0,-1,1056,1198,0,0
-161,-174,0,0,0,0,0,0,0,0,0,-1,1063,1198,0,0
-154,-174,0,0,0,0,0,0,0,0,0,-1,1070,1198,0,0
-147,-174,0,0,0,0,0,0,0,0,0,-1,1077,1198,0,0
-140,-174,0,0,0,0,0,0,0,0,0,-1,1084,1198,0,0
-133,-174,0,0,0,0,0,0,0,0,0,-1,1091,1198,0,0
-126,-174,0,0,0,0,0,0,0,0,0,-1,1098,1198,0,0
-119,-174,0,0,0,0,0,0,0,0,0,-1,1105,1198,0,0
-112,-174,0,0,0,0,0,0,0,0,0,-1,1112,1198,0,0
-105,-174,0,0,0,0,0,0,0,0,0,-1,1119,1198,0,0
-98,-174,0,0,0,0,0,0,0,0,0,-1,1126,1198,0,0
-91,-174,0,0,0,0,0,0,0,0,0,-1,1133,1198,0,0
-84,-174,0,0,0,0,0,0,0,0,0,-1,1140,1198,0,0
-77,-174,0,0,0,0,0,0,0,0,0,-1,1147,1198,0,0
-70,-174,0,0,0,0,0,0,0,0,0,-1,1154,1198,0,0
-63,-174,0,0,0,0,0,0,0,0,0,-1,1161,1198,0,0
-56,-174,0,0,0,0,0,0,0,0,0,-1,1168,1198,0,0
-49,-174,0,0,0,0,0,0,0,0,0,-1,1175,1198,0,0
-42,-174,0,0,0,0,0,0,0,0,0,-1,1182,1198,0,0
-35,-174,0,0,0,0,0,0,0,0,0,-1,1189,1198,0,0
-28,-174,0,0,0,0,0,0,0,0,0,-1,1196,1198,0,0
-21,-174,0,0,0,0,0,0,0,0,0,-1,1203,1198,0,0
-14,-174,0,0,0,0,0,0,0,0,0,-1,1210,1198,0,0
-7,-174,0,0,0,0,0,0,0,0,0,-1,1217,1198,0,0
0,-174,0,0,0,0,0,0,0,0,0,-1,1224,1198,0,0
7,-174,0,0,0,0,0,0,0,0,0,-1,1231,1198,0,0
14,-174,0,0,0,0,0,0,0,0,0,-1,1238,1198,0,0
21,-174,0,0,0,0,0,0,0,0,0,-1,1245,1198,0,0
28,-174,0,0,0,0,0,0,0,0,0,-1,1252,1198,0,0
35,-174,0,0,0,0,0,0,0,0,0,-1,1259,1198,0,0
42,-174,0,0,0,0,0,0,0,0,0,-1,1266,1198,0,0
49,-174,0,0,0,0,0,0,0,0,0,-1,1273,1198,0,0
56,-174,0,0,0,0,0,0,0,0,0,-1,1280,1198,0,0
63,-174,0,0,0,0,0,0,0,0,0,-1,1287,1198,0,0
70,-174,0,0,0,0,0,0,0,0,0,-1,1294,1198,0,0
77,-174,0,0,0,0,0,0,0,0,0,-1,1301,1198,0,0
84,-174,0,0,0,0,0,0,0,0,0,-1,1308,1198,0,0
91,-174,0,0,0,0,0,0,0,0,0,-1,1315,1198,0,0
98,-174,0,0,0,0,0,0,0,0,0,-1,1322,1198,0,0
105,-174,0,0,0,0,0,0,0,0,0,-1,1329,1198,0,0
112,-174,0,0,0,0,0,0,0,0,0,-1,1336,1198,0,0
119,-174,0,0,0,0,0,0,0,0,0,-1,1343,1198,0,0
126,-174,0,0,0,0,0,0,0,0,0,-1,1350,1198,0,0
133,-174,0,0,0,0,0,0,0,0,0,-1,1357,1198,0,0
140,-174,0,0,0,0,0,0,0,0,0,-1,1364,1198,0,0
147,-174,0,0,0,0,0,0,0,0,0,-1,1371,1198,0,0
154,-174,0,0,0,0,0,0,0,0,0,-1,1378,1198,0,0
161,-174,0,0,0,0,0,0,0,0,0,-1,1385,1198,0,0
168,-174,0,0,0,0,0,0,0,0,0,-1,1392,1198,0,0
175,-174,0,0,0,0,0,0,0,0,0,-1,1399,1198,0,0
182,-174,0,0,0,0,0,0,0,0,0,-1,1406,1198,0,0
189,-174,0,0,0,0,0,0,0,0,0,-1,1413,1198,0,0
196,-174,0,0,0,0,0,0,0,0,0,-1,1420,1198,0,0
203,-174,0,0,0,0,0,0,0,0,0,-1,1427,1198,0,0
210,-174,0,0,0,0,0,0,0,0,0,-1,1434,1198,0,0
217,-174,0,0,0,0,0,0,0,0,0,-1,1441,1198,0,0
224,-174,0,0,0,0,0,0,0,0,0,-1,1448,1198,0,0
231,-174,0,0,0,0,0,0,0,0,0,-1,1455,1198,0,0
238,-174,0,0,0,0,0,0,0,0,0,-1,1462,1198,0,0
245,-174,0,0,0,0,0,0,0,0,0,-1,1469,1198,0,0
252,-174,0,0,0,0,0,0,0,0,0,-1,1476,1198,0,0
259,-174,0,0,0,0,0,0,0,0,0,-1,1483,1198,0,0
266,-174,0,0,0,0,0,0,0,0,0,-1,1490,1198,0,0
273,-174,0,0,0,0,0,0,0,0,0,-1,1497,1198,0,0
280,-174,0,0,0,0,0,0,0,0,0,-1,1504,1198,0,0
287,-174,0,0,0,0,0,0,0,0,0,-1,1511,1198,0,0
294,-174,0,0,0,0,0,0,0,0,0,-1,1518,1198,0,0
301,-174,0,0,0,0,0,0,0,0,0,-1,1525,1198,0,0
308,-174,0,0,0,0,0,0,0,0,0,-1,1532,1198,0,0
315,-174,0,0,0,0,0,0,0,0,0,-1,1539,1198,0,0
322,-174,0,0,0,0,0,0,0,0,0,-1,1546,1198,0,0
329,-174,0,0,0,0,0,0,0,0,0,-1,1553,1198,0,0
336,-174,0,0,0,0,0,0,0,0,0,-1,1560,1198,0,0
343,-174,0,0,0,0,0,0,0,0,0,-1,1567,1198,0,0
350,-174,0,0,0,0,0,0,0,0,0,-1,1574,1198,0,0
357,-174,0,0,0,0,0,0,0,0,0,-1,1581,1198,0,0
364,-174,0,0,0,0,0,0,0,0,0,-1,1588,1198,0,0
371,-174,0,0,0,0,0,0,0,0,0,-1,1595,1198,0,0
378,-174,0,0,0,0,0,0,0,0,0,-1,1602,1198,0,0
385,-174,0,0,0,0,0,0,0,0,0,-1,1609,1198,0,0
392,-174,0,0,0,0,0,0,0,0,0,-1,1616,1198,0,0
399,-174,0,0,0,0,0,0,0,0,0,-1,1623,1198,0,0
406,-174,0,0,0,0,0,0,0,0,0,-1,1630,1198,0,0
413,-174,0,0,0,0,0,0,0,0,0,-1,1637,1198,0,0
420,-174,0,0,0,0,0,0,0,0,0,-1,1644,1198,0,0
427,-174,0,0,0,0,0,0,0,0,0,-1,1651,1198,0,0
434,-174,0,0,0,0,0,0,0,0,0,-1,1658,1198,0,0
441,-174,0,0,0,0,0,0,0,0,0,-1,1665,1198,0,0
448,-174,0,0,0,0,0,0,0,0,0,-1,1672,1198,0,0
455,-174,0,0,0,0,0,0,0,0,0,-1,1679,1198,0,0
462,-174,0,0,0,0,0,0,0,0,0,-1,1686,1198,0,0
469,-174,0,0,0,0,0,0,0,0,0,-1,1693,1198,0,0
476,-174,0,0,0,0,0,0,0,0,0,-1,1700,1198,0,0
483,-174,0,0,0,0,0,0,0,0,0,-1,1707,1198,0,0
490,-174,0,0,0,0,0,0,0,0,0,-1,1714,1198,0,0
497,-174,0,0,0,0,0,0,0,0,0,-1,1721,1198,0,0
504,-174,0,0,0,0,0,0,0,0,0,-1,1728,1198,0,0
511,-174,0,0,0,0,0,0,0,0,0,-1,1735,1198,0,0
518,-174,0,0,0,0,0,0,0,0,0,-1,1742,1198,0,0
525,-174,0,0,0,0,0,0,0,0,0,-1,1749,1198,0,0
532,-174,0,0,0,0,0,0,0,0,0,-1,1756,1198,0,0
539,-174,0,0,0,0,0,0,0,0,0,-1,1763,1198,0,0
546,-174,0,0,0,0,0,0,0,0,0,-1,1770,1198,0,0
553,-174,0,0,0,0,0,0,0,0,0,-1,1777,1198,0,0
560,-174,0,0,0,0,0,0,0,0,0,-1,1784,1198,0,0
567,-174,0,0,0,0,0,0,0,0,0,-1,1791,1198,0,0
574,-174,0,0,0,0,0,0,0,0,0,-1,1798,1198,0,0
581,-174,0,0,0,0,0,0,0,0,0,-1,1805,1198,0,0
588,-174,0,0,0,0,0,0,0,0,0,-1,1812,1198,0,0
595,-174,0,0,0,0,0,0,0,0,0,-1,1819,1198,0,0
602,-174,0,0,0,0,0,0,0,0,0,-1,1826,1198,0,0
609,-174,0,0,0,0,0,0,0,0,0,-1,1833,1198,0,0
616,-174,0,0,0,0,0,0,0,0,0,-1,1840,1198,0,0
623,-174,0,0,0,0,0,0,0,0,0,-1,1847,1198,0,0
630,-174,0,0,0,0,0,0,0,0,0,-1,1854,1198,0,0
637,-174,82.7264,2.80359,0.00251206,-0.000708763,-0.00400872,0.00522175,-0.00341845,-0.594401,0.00502451,0.039917,1861,1198,82.7264,-2.80353
644,-174,82.7821,2.40833,0.00226663,-0.000174547,-0.00317277,0.0044455,-0.00235342,-0.601771,0.00398682,0.040494,1868,1198,82.7821,-2.40828
651,-174,83.0994,2.20044,0.00194751,0.000471868,-0.00260211,0.00391438,-0.00149501,-0.647251,0.00322555,0.0404427,1875,1198,83.0994,-2.20042
658,-174,83.0925,2.33582,0.00153832,0.00117388,-0.00212266,0.00348657,-0.000774364,-0.74258,0.00262091,0.0382636,1882,1198,83.0925,-2.33579
665,-174,83.0668,2.3678,0.00102024,0.00200564,-0.00164318,0.0032284,-0.000202515,-0.931055,0.00222285,0.0346567,1889,1198,83.0668,-2.3678
672,-174,83.0259,2.32056,0.000649813,0.00301387,-0.00124941,0.00355179,0.00011189,-1.16424,0.00233146,0.0277859,1896,1198,83.0259,-2.32052
679,-174,83.0333,2.27625,0.000571404,0.0035204,-0.000940802,0.00379497,0.00029683,-1.28683,0.00243707,0.0264278,1903,1198,83.0334,-2.27626
686,-174,83.0061,2.21326,0,0,0,0,0,0,0,-1,1910,1198,83.0061,-2.21329
693,-174,51.1324,2.57349,0,0,0,0,0,0,0,-1,1917,1198,51.1325,-2.57343
700,-174,25.4004,6.11792,0,0,0,0,0,0,0,-1,1924,1198,25.4004,-6.11797
707,-174,34.7908,7.34473,0,0,0,0,0,0,0,-1,1931,1198,34.7908,-7.34475
714,-174,40.1135,7.79871,0,0,0,0,0,0,0,-1,1938,1198,40.1135,-7.79875
721,-174,40.8693,7.59863,0,0,0,0,0,0,0,-1,1945,1198,40.8693,-7.59859
728,-174,68.7548,10.9059,0,0,0,0,0,0,0,-1,1952,1198,68.7548,-10.9059
735,-174,68.9585,10.1754,0.00252538,0.00348209,0.000699436,0.0038511,0.00215637,1.08532,0.00222875,0.0306309,1959,1198,68.9585,-10.1754
742,-174,69.1333,9.30396,0.00241215,0.00312633,0.00104433,0.00387293,0.00166555,0.950133,0.00224332,0.0220963,1966,1198,69.1333,-9.30392
749,-174,69.1135,8.51794,0.00168921,0.00307001,0.00186136,0.00436488,0.000394332,0.962989,0.00278779,0.0193134,1973,1198,69.1135,-8.51795
756,-174,69.0559,7.75171,0.00077227,0.00354422,0.00294321,0.00541146,-0.00109497,1.00545,0.00402262,0.011389,1980,1198,69.0559,-7.7517
763,-174,69.0051,6.97913,-0.000141084,0.00437237,0.00439564,0.00705674,-0.00282546,1.02255,0.00587724,0.0189701,1987,1198,69.0051,-6.97912
770,-174,69.0208,6.16565,0,0,0,0,0,0,0,-1,1994,1198,69.0208,-6.16561
777,-174,72.7517,-3.92542,0,0,0,0,0,0,0,-1,2001,1198,72.7517,3.92536
784,-174,72.8079,-3.6228,0,0,0,0,0,0,0,-1,2008,1198,72.8078,3.62276
791,-174,69.3472,2.32153,0,0,0,0,0,0,0,-1,2015,1198,69.3471,-2.32154
798,-174,66.9897,2.63074,0,0,0,0,0,0,0,-1,2022,1198,66.9896,-2.6307
805,-174,66.978,0.993896,0,0,0,0,0,0,0,-1,2029,1198,66.9779,-0.993879
812,-174,0,0,0,0,0,0,0,0,0,-1,2036,1198,0,0
-700,-181,0,0,0,0,0,0,0,0,0,-1,524,1205,0,0
-693,-181,0,0,0,0,0,0,0,0,0,-1,531,1205,0,0
-686,-181,-61.6745,-3.31396,0,0,0,0,0,0,0,-1,538,1205,-61.6745,3.31391
-679,-181,-62.2261,-2.51746,-0.0707332,0.0787928,0.0641729,0.102557,-0.0944977,1.21614,0.113801,0.0447826,545,1205,-62.2261,2.51749
-672,-181,-62.5027,-1.98682,-0.0571433,0.068491,0.0511653,0.0866916,-0.075344,1.22903,0.0936277,0.0445471,552,1205,-62.5027,1.98678
-665,-181,-64.8494,-0.951294,0,0,0,0,0,0,0,-1,559,1205,-64.8494,0.951301
-658,-181,-64.3136,-0.324097,-0.0368042,0.0488561,0.0307186,0.0587332,-0.0466813,1.2597,0.0609935,0.0424294,566,1205,-64.3136,0.324046
-651,-181,-64.7237,0.21936,0,0,0,0,0,0,0,-1,573,1205,-64.7236,-0.219419
-644,-181,-51.627,5.65601,0,0,0,0,0,0,0,-1,580,1205,-51.6269,-5.65602
-637,-181,-51.5488,6.02625,-0.0165223,0.0221191,0.00836736,0.0238532,-0.0182564,1.36645,0.0243834,0.0305737,587,1205,-51.5488,-6.02623
-630,-181,-51.7923,6.79736,-0.0111743,0.0137247,0.0025682,0.0139868,-0.0114364,1.46908,0.0147027,0.0157709,594,1205,-51.7923,-6.79739
-623,-181,-51.8696,7.62,-0.00713561,0.00636902,-0.00225752,0.0067364,-0.00750299,-1.40947,0.00822509,0.0160796,601,1205,-51.8696,-7.61997
-616,-181,-51.8787,8.45215,-0.00534237,-1.27398e-05,-0.00497023,0.00296199,-0.0083171,-1.03147,0.00675221,0.0156582,608,1205,-51.8787,-8.45214
-609,-181,-51.9332,9.29431,-0.00450274,-0.00323436,-0.00533423,0.00150325,-0.00924035,-0.844566,0.00671762,0.0149167,615,1205,-51.9332,-9.2943
-602,-181,-51.8898,10.1681,-0.0034566,-0.00290053,-0.0043086,0.001139,-0.00749613,-0.817619,0.00541714,0.0364105,622,1205,-51.8898,-10.1681
-595,-181,-51.5193,11.0654,0,0,0,0,0,0,0,-1,629,1205,-51.5193,-11.0654
-588,-181,-50.0011,10.821,0,0,0,0,0,0,0,-1,636,1205,-50.0011,-10.821
-581,-181,-50.2697,11.5571,0,0,0,0,0,0,0,-1,643,1205,-50.2696,-11.5571
-574,-181,-49.6119,12.3185,0,0,0,0,0,0,0,-1,650,1205,-49.6119,-12.3185
-567,-181,-25.8839,3.34485,0,0,0,0,0,0,0,-1,657,1205,-25.8839,-3.3449
-560,-181,-31.7396,1.63306,0,0,0,0,0,0,0,-1,664,1205,-31.7396,-1.63303
-553,-181,-57.8761,0.527832,0,0,0,0,0,0,0,-1,671,1205,-57.8761,-0.527787
-546,-181,-65.9213,0.593384,0,0,0,0,0,0,0,-1,678,1205,-65.9213,-0.59333
-539,-181,-66.025,0.709106,-0.00103636,3.98421e-05,-0.00365002,0.00319121,-0.00418773,-0.858583,0.00427316,0.0374132,685,1205,-66.0249,-0.709145
-532,-181,-66.0623,0.799438,0.000255348,0.00333371,-0.00341787,0.00554298,-0.00195393,-0.996963,0.00449064,0.0440596,692,1205,-66.0622,-0.79945
-525,-181,-65.9485,0.81897,0.00163742,0.0067327,-0.00293328,0.00807024,0.000299882,-1.14297,0.00528303,0.0433813,699,1205,-65.9485,-0.818919
-518,-181,-65.8893,0.702637,0.00303826,0.00933934,-0.00215449,0.0100056,0.00237203,-1.2709,0.00603708,0.0423478,706,1205,-65.8893,-0.702653
-511,-181,0,0,0,0,0,0,0,0,0,-1,713,1205,0,0
-504,-181,0,0,0,0,0,0,0,0,0,-1,720,1205,0,0
-497,-181,0,0,0,0,0,0,0,0,0,-1,727,1205,0,0
-490,-181,0,0,0,0,0,0,0,0,0,-1,734,1205,0,0
-483,-181,0,0,0,0,0,0,0,0,0,-1,741,1205,0,0
-476,-181,0,0,0,0,0,0,0,0,0,-1,748,1205,0,0
-469,-181,0,0,0,0,0,0,0,0,0,-1,755,1205,0,0
-462,-181,0,0,0,0,0,0,0,0,0,-1,762,1205,0,0
-455,-181,0,0,0,0,0,0,0,0,0,-1,769,1205,0,0
-448,-181,0,0,0,0,0,0,0,0,0,-1,776,1205,0,0
-441,-181,0,0,0,0,0,0,0,0,0,-1,783,1205,0,0
-434,-181,0,0,0,0,0,0,0,0,0,-1,790,1205,0,0
-427,-181,0,0,0,0,0,0,0,0,0,-1,797,1205,0,0
-420,-181,0,0,0,0,0,0,0,0,0,-1,804,1205,0,0
-413,-181,0,0,0,0,0,0,0,0,0,-1,811,1205,0,0
-406,-181,0,0,0,0,0,0,0,0,0,-1,818,1205,0,0
-399,-181,0,0,0,0,0,0,0,0,0,-1,825,1205,0,0
-392,-181,0,0,0,0,0,0,0,0,0,-1,832,1205,0,0
-385,-181,0,0,0,0,0,0,0,0,0,-1,839,1205,0,0
-378,-181,0,0,0,0,0,0,0,0,0,-1,846,1205,0,0
-371,-181,0,0,0,0,0,0,0,0,0,-1,853,1205,0,0
-364,-181,0,0,0,0,0,0,0,0,0,-1,860,1205,0,0
-357,-181,0,0,0,0,0,0,0,0,0,-1,867,1205,0,0
-350,-181,0,0,0,0,0,0,0,0,0,-1,874,1205,0,0
-343,-181,0,0,0,0,0,0,0,0,0,-1,881,1205,0,0
-336,-181,0,0,0,0,0,0,0,0,0,-1,888,1205,0,0
-329,-181,0,0,0,0,0,0,0,0,0,-1,895,1205,0,0
-322,-181,0,0,0,0,0,0,0,0,0,-1,902,1205,0,0
-315,-181,0,0,0,0,0,0,0,0,0,-1,909,1205,0,0
-308,-181,0,0,0,0,0,0,0,0,0,-1,916,1205,0,0
-301,-181,0,0,0,0,0,0,0,0,0,-1,923,1205,0,0
-294,-181,0,0,0,0,0,0,0,0,0,-1,930,1205,0,0
-287,-181,0,0,0,0,0,0,0,0,0,-1,937,1205,0,0
-280,-181,0,0,0,0,0,0,0,0,0,-1,944,1205,0,0
-273,-181,0,0,0,0,0,0,0,0,0,-1,951,1205,0,0
-266,-181,0,0,0,0,0,0,0,0,0,-1,958,1205,0,0
-259,-181,0,0,0,0,0,0,0,0,0,-1,965,1205,0,0
-252,-181,0,0,0,0,0,0,0,0,0,-1,972,1205,0,0
-245,-181,0,0,0,0,0,0,0,0,0,-1,979,1205,0,0
-238,-181,0,0,0,0,0,0,0,0,0,-1,986,1205,0,0
-231,-181,0,0,0,0,0,0,0,0,0,-1,993,1205,0,0
-224,-181,0,0,0,0,0,0,0,0,0,-1,1000,1205,0,0
-217,-181,0,0,0,0,0,0,0,0,0,-1,1007,1205,0,0
-210,-181,0,0,0,0,0,0,0,0,0,-1,1014,1205,0,0
-203,-181,0,0,0,0,0,0,0,0,0,-1,1021,1205,0,0
-196,-181,0,0,0,0,0,0,0,0,0,-1,1028,1205,0,0
-189,-181,0,0,0,0,0,0,0,0,0,-1,1035,1205,0,0
-182,-181,0,0,0,0,0,0,0,0,0,-1,1042,1205,0,0
-175,-181,0,0,0,0,0,0,0,0,0,-1,1049,1205,0,0
-168,-181,0,0,0,0,0,0,0,0,0,-1,1056,1205,0,0
-161,-181,0,0,0,0,0,0,0,0,0,-1,1063,1205,0,0
-154,-181,0,0,0,0,0,0,0,0,0,-1,1070,1205,0,0
-147,-181,0,0,0,0,0,0,0,0,0,-1,1077,1205,0,0
-140,-181,0,0,0,0,0,0,0,0,0,-1,1084,1205,0,0
-133,-181,0,0,0,0,0,0,0,0,0,-1,1091,1205,0,0
-126,-181,0,0,0,0,0,0,0,0,0,-1,1098,1205,0,0
-119,-181,0,0,0,0,0,0,0,0,0,-1,1105,1205,0,0
-112,-181,0,0,0,0,0,0,0,0,0,-1,1112,1205,0,0
-105,-181,0,0,0,0,0,0,0,0,0,-1,1119,1205,0,0
-98,-181,0,0,0,0,0,0,0,0,0,-1,1126,1205,0,0
-91,-181,0,0,0,0,0,0,0,0,0,-1,1133,1205,0,0
-84,-181,0,0,0,0,0,0,0,0,0,-1,1140,1205,0,0
-77,-181,0,0,0,0,0,0,0,0,0,-1,1147,1205,0,0
-70,-181,0,0,0,0,0,0,0,0,0,-1,1154,1205,0,0
-63,-181,0,0,0,0,0,0,0,0,0,-1,1161,1205,0,0
-56,-181,0,0,0,0,0,0,0,0,0,-1,1168,1205,0,0
-49,-181,0,0,0,0,0,0,0,0,0,-1,1175,1205,0,0
-42,-181,0,0,0,0,0,0,0,0,0,-1,1182,1205,0,0
-35,-181,0,0,0,0,0,0,0,0,0,-1,1189,1205,0,0
-28,-181,0,0,0,0,0,0,0,0,0,-1,1196,1205,0,0
-21,-181,0,0,0,0,0,0,0,0,0,-1,1203,1205,0,0
-14,-181,0,0,0,0,0,0,0,0,0,-1,1210,1205,0,0
-7,-181,0,0,0,0,0,0,0,0,0,-1,1217,1205,0,0
0,-181,0,0,0,0,0,0,0,0,0,-1,1224,1205,0,0
7,-181,0,0,0,0,0,0,0,0,0,-1,1231,1205,0,0
14,-181,0,0,0,0,0,0,0,0,0,-1,1238,1205,0,0
21,-181,0,0,0,0,0,0,0,0,0,-1,1245,1205,0,0
28,-181,0,0,0,0,0,0,0,0,0,-1,1252,1205,0,0
35,-181,0,0,0,0,0,0,0,0,0,-1,1259,1205,0,0
42,-181,0,0,0,0,0,0,0,0,0,-1,1266,1205,0,0
49,-181,0,0,0,0,0,0,0,0,0,-1,1273,1205,0,0
56,-181,0,0,0,0,0,0,0,0,0,-1,1280,1205,0,0
63,-181,0,0,0,0,0,0,0,0,0,-1,1287,1205,0,0
70,-181,0,0,0,0,0,0,0,0,0,-1,1294,1205,0,0
77,-181,0,0,0,0,0,0,0,0,0,-1,1301,1205,0,0
84,-181,0,0,0,0,0,0,0,0,0,-1,1308,1205,0,0
91,-181,0,0,0,0,0,0,0,0,0,-1,1315,1205,0,0
98,-181,0,0,0,0,0,0,0,0,0,-1,1322,1205,0,0
105,-181,0,0,0,0,0,0,0,0,0,-1,1329,1205,0,0
112,-181,0,0,0,0,0,0,0,0,0,-1,1336,1205,0,0
119,-181,0,0,0,0,0,0,0,0,0,-1,1343,1205,0,0
126,-181,0,0,0,0,0,0,0,0,0,-1,1350,1205,0,0
133,-181,0,0,0,0,0,0,0,0,0,-1,1357,1205,0,0
140,-181,0,0,0,0,0,0,0,0,0,-1,1364,1205,0,0
147,-181,0,0,0,0,0,0,0,0,0,-1,1371,1205,0,0
154,-181,0,0,0,0,0,0,0,0,0,-1,1378,1205,0,0
161,-181,0,0,0,0,0,0,0,0,0,-1,1385,1205,0,0
168,-181,0,0,0,0,0,0,0,0,0,-1,1392,1205,0,0
175,-181,0,0,0,0,0,0,0,0,0,-1,1399,1205,0,0
182,-181,0,0,0,0,0,0,0,0,0,-1,1406,1205,0,0
189,-181,0,0,0,0,0,0,0,0,0,-1,1413,1205,0,0
196,-181,0,0,0,0,0,0,0,0,0,-1,1420,1205,0,0
203,-181,0,0,0,0,0,0,0,0,0,-1,1427,1205,0,0
210,-181,0,0,0,0,0,0,0,0,0,-1,1434,1205,0,0
217,-181,0,0,0,0,0,0,0,0,0,-1,1441,1205,0,0
224,-181,0,0,0,0,0,0,0,0,0,-1,1448,1205,0,0
231,-181,0,0,0,0,0,0,0,0,0,-1,1455,1205,0,0
238,-181,0,0,0,0,0,0,0,0,0,-1,1462,1205,0,0
245,-181,0,0,0,0,0,0,0,0,0,-1,1469,1205,0,0
252,-181,0,0,0,0,0,0,0,0,0,-1,1476,1205,0,0
259,-181,0,0,0,0,0,0,0,0,0,-1,1483,1205,0,0
266,-181,0,0,0,0,0,0,0,0,0,-1,1490,1205,0,0
273,-181,0,0,0,0,0,0,0,0,0,-1,1497,1205,0,0
280,-181,0,0,0,0,0,0,0,0,0,-1,1504,1205,0,0
287,-181,0,0,0,0,0,0,0,0,0,-1,1511,1205,0,0
294,-181,0,0,0,0,0,0,0,0,0,-1,1518,1205,0,0
301,-181,0,0,0,0,0,0,0,0,0,-1,1525,1205,0,0
308,-181,0,0,0,0,0,0,0,0,0,-1,1532,1205,0,0
315,-181,0,0,0,0,0,0,0,0,0,-1,1539,1205,0,0
322,-181,0,0,0,0,0,0,0,0,0,-1,1546,1205,0,0
329,-181,0,0,0,0,0,0,0,0,0,-1,1553,1205,0,0
336,-181,0,0,0,0,0,0,0,0,0,-1,1560,1205,0,0
343,-181,0,0,0,0,0,0,0,0,0,-1,1567,1205,0,0
350,-181,0,0,0,0,0,0,0,0,0,-1,1574,1205,0,0
357,-181,0,0,0,0,0,0,0,0,0,-1,1581,1205,0,0
364,-181,0,0,0,0,0,0,0,0,0,-1,1588,1205,0,0
371,-181,0,0,0,0,0,0,0,0,0,-1,1595,1205,0,0
378,-181,0,0,0,0,0,0,0,0,0,-1,1602,1205,0,0
385,-181,0,0,0,0,0,0,0,0,0,-1,1609,1205,0,0
392,-181,0,0,0,0,0,0,0,0,0,-1,1616,1205,0,0
399,-181,0,0,0,0,0,0,0,0,0,-1,1623,1205,0,0
406,-181,0,0,0,0,0,0,0,0,0,-1,1630,1205,0,0
413,-181,0,0,0,0,0,0,0,0,0,-1,1637,1205,0,0
420,-181,0,0,0,0,0,0,0,0,0,-1,1644,1205,0,0
427,-181,0,0,0,0,0,0,0,0,0,-1,1651,1205,0,0
434,-181,0,0,0,0,0,0,0,0,0,-1,1658,1205,0,0
441,-181,0,0,0,0,0,0,0,0,0,-1,1665,1205,0,0
448,-181,0,0,0,0,0,0,0,0,0,-1,1672,1205,0,0
455,-181,0,0,0,0,0,0,0,0,0,-1,1679,1205,0,0
462,-181,0,0,0,0,0,0,0,0,0,-1,1686,1205,0,0
469,-181,0,0,0,0,0,0,0,0,0,-1,1693,1205,0,0
476,-181,0,0,0,0,0,0,0,0,0,-1,1700,1205,0,0
483,-181,0,0,0,0,0,0,0,0,0,-1,1707,1205,0,0
490,-181,0,0,0,0,0,0,0,0,0,-1,1714,1205,0,0
497,-181,0,0,0,0,0,0,0,0,0,-1,1721,1205,0,0
504,-181,0,0,0,0,0,0,0,0,0,-1,1728,1205,0,0
511,-181,0,0,0,0,0,0,0,0,0,-1,1735,1205,0,0
518,-181,0,0,0,0,0,0,0,0,0,-1,1742,1205,0,0
525,-181,0,0,0,0,0,0,0,0,0,-1,1749,1205,0,0
532,-181,0,0,0,0,0,0,0,0,0,-1,1756,1205,0,0
539,-181,0,0,0,0,0,0,0,0,0,-1,1763,1205,0,0
546,-181,0,0,0,0,0,0,0,0,0,-1,1770,1205,0,0
553,-181,0,0,0,0,0,0,0,0,0,-1,1777,1205,0,0
560,-181,0,0,0,0,0,0,0,0,0,-1,1784,1205,0,0
567,-181,0,0,0,0,0,0,0,0,0,-1,1791,1205,0,0
574,-181,0,0,0,0,0,0,0,0,0,-1,1798,1205,0,0
581,-181,0,0,0,0,0,0,0,0,0,-1,1805,1205,0,0
588,-181,0,0,0,0,0,0,0,0,0,-1,1812,1205,0,0
595,-181,0,0,0,0,0,0,0,0,0,-1,1819,1205,0,0
602,-181,0,0,0,0,0,0,0,0,0,-1,1826,1205,0,0
609,-181,0,0,0,0,0,0,0,0,0,-1,1833,1205,0,0
616,-181,0,0,0,0,0,0,0,0,0,-1,1840,1205,0,0
623,-181,0,0,0,0,0,0,0,0,0,-1,1847,1205,0,0
630,-181,83.0103,2.52246,0.00200472,-0.00076195,-0.00482242,0.00563829,-0.00439552,-0.645721,0.00580781,0.0380945,1854,1205,83.0103,-2.52245
637,-181,82.9539,2.50403,0.00210808,-0.000419228,-0.00394881,0.0049905,-0.00330165,-0.630543,0.00482046,0.0358206,1861,1205,82.9539,-2.504
644,-181,82.8967,2.39197,0.00201241,7.68044e-05,-0.00325337,0.00443888,-0.00234967,-0.640828,0.00398076,0.0374944,1868,1205,82.8967,-2.392
651,-181,83.074,2.31067,0.00180243,0.000709773,-0.0027635,0.00407309,-0.00156088,-0.687809,0.00335883,0.0377053,1875,1205,83.0739,-2.31071
658,-181,83.0781,2.33569,0.00143491,0.00141054,-0.00226412,0.00368688,-0.000841431,-0.782708,0.00278116,0.0347433,1882,1205,83.0781,-2.33573
665,-181,83.0002,2.42102,0.00091762,0.00216211,-0.00169934,0.00334954,-0.000269819,-0.9609,0.00232819,0.0319835,1889,1205,83.0002,-2.42101
672,-181,83.0096,2.34705,0.000609868,0.00304035,-0.00123091,0.00355483,9.53834e-05,-1.17489,0.00233874,0.0244922,1896,1205,83.0096,-2.34707
679,-181,83.0382,2.23914,0.000540913,0.00342764,-0.000915764,0.00369364,0.000274914,-1.28811,0.0023761,0.0474623,1903,1205,83.0382,-2.23911
686,-181,83.0759,2.0979,0,0,0,0,0,0,0,-1,1910,1205,83.076,-2.0979
693,-181,36.1301,2.91016,0,0,0,0,0,0,0,-1,1917,1205,36.1302,-2.9102
700,-181,29.5845,6.58398,0,0,0,0,0,0,0,-1,1924,1205,29.5844,-6.58395
707,-181,55.4949,10.6722,0,0,0,0,0,0,0,-1,1931,1205,55.4949,-10.6722
714,-181,55.6268,10.3521,0,0,0,0,0,0,0,-1,1938,1205,55.6268,-10.3521
721,-181,51.2217,9.59631,0,0,0,0,0,0,0,-1,1945,1205,51.2217,-9.59637
728,-181,68.3713,10.9026,0,0,0,0,0,0,0,-1,1952,1205,68.3714,-10.9026
735,-181,68.3447,10.1206,0.00221699,0.0037062,0.000666646,0.00396102,0.00196217,1.20569,0.00228693,0.0210593,1959,1205,68.3447,-10.1206
742,-181,68.3123,9.38696,0.00212969,0.00324211,0.00102284,0.00385019,0.00152161,1.03443,0.00223912,0.0187075,1966,1205,68.3123,-9.38694
749,-181,68.2666,8.57629,0.00167448,0.00303355,0.00181489,0.00429195,0.000416074,0.96453,0.00273318,0.0173189,1973,1205,68.2666,-8.57635
756,-181,68.2412,7.76794,0.00113145,0.00331162,0.00288259,0.00530335,-0.000860279,0.966168,0.00385446,0.0120721,1980,1205,68.2411,-7.76791
763,-181,68.2537,6.96436,0.000541252,0.00399012,0.00438919,0.00698147,-0.00245011,0.972575,0.00565093,0.0192646,1987,1205,68.2536,-6.96434
770,-181,68.3494,6.16248,0,0,0,0,0,0,0,-1,1994,1205,68.3495,-6.16242
777,-181,69.6453,-1.67188,0,0,0,0,0,0,0,-1,2001,1205,69.6452,1.6719
784,-181,72.6182,-4.63086,0,0,0,0,0,0,0,-1,2008,1205,72.6181,4.63082
791,-181,69.3733,0.442383,0,0,0,0,0,0,0,-1,2015,1205,69.3733,-0.442431
798,-181,66.1357,-1.15442,0,0,0,0,0,0,0,-1,2022,1205,66.1358,1.15445
805,-181,0,0,0,0,0,0,0,0,0,-1,2029,1205,0,0
812,-181,0,0,0,0,0,0,0,0,0,-1,2036,1205,0,0
-700,-188,0,0,0,0,0,0,0,0,0,-1,524,1212,0,0
-693,-188,0,0,0,0,0,0,0,0,0,-1,531,1212,0,0
-686,-188,0,0,0,0,0,0,0,0,0,-1,538,1212,0,0
-679,-188,-61.9966,-3.56213,-0.0594724,0.0837651,0.0702792,0.112488,-0.0881951,1.18282,0.116147,0.0444092,545,1212,-61.9966,3.56209
-672,-188,-63.3217,-1.32251,-0.0452376,0.074343,0.0577443,0.0976748,-0.0685694,1.1868,0.0964702,0.0477272,552,1212,-63.3217,1.32246
-665,-188,-63.6803,-1.01843,0,0,0,0,0,0,0,-1,559,1212,-63.6803,1.01849
-658,-188,-64.0462,-0.793335,0,0,0,0,0,0,0,-1,566,1212,-64.0462,0.793279
-651,-188,-64.4613,-0.536133,0,0,0,0,0,0,0,-1,573,1212,-64.4613,0.536137
-644,-188,-50.9366,5.42029,0,0,0,0,0,0,0,-1,580,1212,-50.9366,-5.42028
-637,-188,-50.9127,6.12244,-0.0112297,0.0261364,0.013057,0.0302468,-0.0153401,1.26581,0.0267845,0.0277156,587,1212,-50.9127,-6.12245
-630,-188,-50.954,6.8512,-0.00772725,0.0170617,0.00633496,0.0185868,-0.00925235,1.33455,0.0163713,0.0118196,594,1212,-50.954,-6.85119
-623,-188,-50.9952,7.67896,-0.00515774,0.0088612,0.000438352,0.00887489,-0.00517143,1.53957,0.00820307,0.0117024,601,1212,-50.9952,-7.6789
-616,-188,-51.0252,8.49915,-0.00479941,0.0018596,-0.00378426,0.00357056,-0.00651036,-1.14618,0.00590214,0.01126,608,1212,-51.0252,-8.4991
-609,-188,-51.0512,9.33337,-0.00504692,-0.00304149,-0.00574981,0.00179238,-0.0098808,-0.871725,0.0072588,0.0134933,615,1212,-51.0512,-9.33338
-602,-188,-50.9736,10.2363,-0.00404268,-0.00349528,-0.00491418,0.00115282,-0.00869077,-0.813217,0.00621387,0.0346732,622,1212,-50.9737,-10.2363
-595,-188,-50.8675,11.3655,0,0,0,0,0,0,0,-1,629,1212,-50.8675,-11.3655
-588,-188,-49.2526,10.9149,0,0,0,0,0,0,0,-1,636,1212,-49.2526,-10.9149
-581,-188,-49.3414,11.6281,0,0,0,0,0,0,0,-1,643,1212,-49.3414,-11.628
-574,-188,-49.366,12.2919,0,0,0,0,0,0,0,-1,650,1212,-49.3661,-12.2918
-567,-188,-19.5786,4.10388,0,0,0,0,0,0,0,-1,657,1212,-19.5785,-4.10383
-560,-188,-23.9507,0.416626,0,0,0,0,0,0,0,-1,664,1212,-23.9508,-0.416602
-553,-188,-49.2368,1.03101,0,0,0,0,0,0,0,-1,671,1212,-49.2367,-1.03099
-546,-188,-65.8765,0.589111,0,0,0,0,0,0,0,-1,678,1212,-65.8765,-0.589172
-539,-188,-65.933,0.616943,-0.00250107,0.000109237,-0.00405893,0.00306769,-0.00545952,-0.940953,0.00498733,0.0361593,685,1212,-65.933,-0.61697
-532,-188,-65.888,0.612549,-0.001677,0.00153279,-0.00355528,0.00382863,-0.00397284,-0.997412,0.00450443,0.0405245,692,1212,-65.888,-0.612574
-525,-188,-65.7784,0.547119,-0.00019915,0.00440261,-0.00256774,0.00554953,-0.00134607,-1.15072,0.00422055,0.0407018,699,1212,-65.7785,-0.547121
-518,-188,-65.6769,0.447754,0.0014657,0.0070232,-0.00123782,0.00728643,0.00120247,-1.36126,0.00451055,0.0414233,706,1212,-65.6769,-0.447779
-511,-188,-65.7083,0.447632,0.00303487,0.0088255,0.000413652,0.0088549,0.00300547,1.49984,0.00519953,0.0383043,713,1212,-65.7082,-0.44761
-504,-188,0,0,0,0,0,0,0,0,0,-1,720,1212,0,0
-497,-188,0,0,0,0,0,0,0,0,0,-1,727,1212,0,0
-490,-188,0,0,0,0,0,0,0,0,0,-1,734,1212,0,0
-483,-188,0,0,0,0,0,0,0,0,0,-1,741,1212,0,0
-476,-188,0,0,0,0,0,0,0,0,0,-1,748,1212,0,0
-469,-188,0,0,0,0,0,0,0,0,0,-1,755,1212,0,0
-462,-188,0,0,0,0,0,0,0,0,0,-1,762,1212,0,0
-455,-188,0,0,0,0,0,0,0,0,0,-1,769,1212,0,0
-448,-188,0,0,0,0,0,0,0,0,0,-1,776,1212,0,0
-441,-188,0,0,0,0,0,0,0,0,0,-1,783,1212,0,0
-434,-188,0,0,0,0,0,0,0,0,0,-1,790,1212,0,0
-427,-188,0,0,0,0,0,0,0,0,0,-1,797,1212,0,0
-420,-188,0,0,0,0,0,0,0,0,0,-1,804,1212,0,0
-413,-188,0,0,0,0,0,0,0,0,0,-1,811,1212,0,0
-406,-188,0,0,0,0,0,0,0,0,0,-1,818,1212,0,0
-399,-188,0,0,0,0,0,0,0,0,0,-1,825,1212,0,0
-392,-188,0,0,0,0,0,0,0,0,0,-1,832,1212,0,0
-385,-188,0,0,0,0,0,0,0,0,0,-1,839,1212,0,0
-378,-188,0,0,0,0,0,0,0,0,0,-1,846,1212,0,0
-371,-188,0,0,0,0,0,0,0,0,0,-1,853,1212,0,0
-364,-188,0,0,0,0,0,0,0,0,0,-1,860,1212,0,0
-357,-188,0,0,0,0,0,0,0,0,0,-1,867,1212,0,0
-350,-188,0,0,0,0,0,0,0,0,0,-1,874,1212,0,0
-343,-188,0,0,0,0,0,0,0,0,0,-1,881,1212,0,0
-336,-188,0,0,0,0,0,0,0,0,0,-1,888,1212,0,0
-329,-188,0,0,0,0,0,0,0,0,0,-1,895,1212,0,0
-322,-188,0,0,0,0,0,0,0,0,0,-1,902,1212,0,0
-315,-188,0,0,0,0,0,0,0,0,0,-1,909,1212,0,0
-308,-188,0,0,0,0,0,0,0,0,0,-1,916,1212,0,0
-301,-188,0,0,0,0,0,0,0,0,0,-1,923,1212,0,0
-294,-188,0,0,0,0,0,0,0,0,0,-1,930,1212,0,0
-287,-188,0,0,0,0,0,0,0,0,0,-1,937,1212,0,0
-280,-188,0,0,0,0,0,0,0,0,0,-1,944,1212,0,0
-273,-188,0,0,0,0,0,0,0,0,0,-1,951,1212,0,0
-266,-188,0,0,0,0,0,0,0,0,0,-1,958,1212,0,0
-259,-188,0,0,0,0,0,0,0,0,0,-1,965,1212,0,0
-252,-188,0,0,0,0,0,0,0,0,0,-1,972,1212,0,0
-245,-188,0,0,0,0,0,0,0,0,0,-1,979,1212,0,0
-238,-188,0,0,0,0,0,0,0,0,0,-1,986,1212,0,0
-231,-188,0,0,0,0,0,0,0,0,0,-1,993,1212,0,0
-224,-188,0,0,0,0,0,0,0,0,0,-1,1000,1212,0,0
-217,-188,0,0,0,0,0,0,0,0,0,-1,1007,1212,0,0
-210,-188,0,0,0,0,0,0,0,0,0,-1,1014,1212,0,0
-203,-188,0,0,0,0,0,0,0,0,0,-1,1021,1212,0,0
-196,-188,0,0,0,0,0,0,0,0,0,-1,1028,1212,0,0
-189,-188,0,0,0,0,0,0,0,0,0,-1,1035,1212,0,0
-182,-188,0,0,0,0,0,0,0,0,0,-1,1042,1212,0,0
-175,-188,0,0,0,0,0,0,0,0,0,-1,1049,1212,0,0
-168,-188,0,0,0,0,0,0,0,0,0,-1,1056,1212,0,0
-161,-188,0,0,0,0,0,0,0,0,0,-1,1063,1212,0,0
-154,-188,0,0,0,0,0,0,0,0,0,-1,1070,1212,0,0
-147,-188,0,0,0,0,0,0,0,0,0,-1,1077,1212,0,0
-140,-188,0,0,0,0,0,0,0,0,0,-1,1084,1212,0,0
-133,-188,0,0,0,0,0,0,0,0,0,-1,1091,1212,0,0
-126,-188,0,0,0,0,0,0,0,0,0,-1,1098,1212,0,0
-119,-188,0,0,0,0,0,0,0,0,0,-1,1105,1212,0,0
-112,-188,0,0,0,0,0,0,0,0,0,-1,1112,1212,0,0
-105,-188,0,0,0,0,0,0,0,0,0,-1,1119,1212,0,0
-98,-188,0,0,0,0,0,0,0,0,0,-1,1126,1212,0,0
-91,-188,0,0,0,0,0,0,0,0,0,-1,1133,1212,0,0
-84,-188,0,0,0,0,0,0,0,0,0,-1,1140,1212,0,0
-77,-188,0,0,0,0,0,0,0,0,0,-1,1147,1212,0,0
-70,-188,0,0,0,0,0,0,0,0,0,-1,1154,1212,0,0
-63,-188,0,0,0,0,0,0,0,0,0,-1,1161,1212,0,0
-56,-188,0,0,0,0,0,0,0,0,0,-1,1168,1212,0,0
-49,-188,0,0,0,0,0,0,0,0,0,-1,1175,1212,0,0
-42,-188,0,0,0,0,0,0,0,0,0,-1,1182,1212,0,0
-35,-188,0,0,0,0,0,0,0,0,0,-1,1189,1212,0,0
-28,-188,0,0,0,0,0,0,0,0,0,-1,1196,1212,0,0
-21,-188,0,0,0,0,0,0,0,0,0,-1,1203,1212,0,0
-14,-188,0,0,0,0,0,0,0,0,0,-1,1210,1212,0,0
-7,-188,0,0,0,0,0,0,0,0,0,-1,1217,1212,0,0
0,-188,0,0,0,0,0,0,0,0,0,-1,1224,1212,0,0
7,-188,0,0,0,0,0,0,0,0,0,-1,1231,1212,0,0
14,-188,0,0,0,0,0,0,0,0,0,-1,1238,1212,0,0
21,-188,0,0,0,0,0,0,0,0,0,-1,1245,1212,0,0
28,-188,0,0,0,0,0,0,0,0,0,-1,1252,1212,0,0
35,-188,0,0,0,0,0,0,0,0,0,-1,1259,1212,0,0
42,-188,0,0,0,0,0,0,0,0,0,-1,1266,1212,0,0
49,-188,0,0,0,0,0,0,0,0,0,-1,1273,1212,0,0
56,-188,0,0,0,0,0,0,0,0,0,-1,1280,1212,0,0
63,-188,0,0,0,0,0,0,0,0,0,-1,1287,1212,0,0
70,-188,0,0,0,0,0,0,0,0,0,-1,1294,1212,0,0
77,-188,0,0,0,0,0,0,0,0,0,-1,1301,1212,0,0
84,-188,0,0,0,0,0,0,0,0,0,-1,1308,1212,0,0
91,-188,0,0,0,0,0,0,0,0,0,-1,1315,1212,0,0
98,-188,0,0,0,0,0,0,0,0,0,-1,1322,1212,0,0
105,-188,0,0,0,0,0,0,0,0,0,-1,1329,1212,0,0
112,-188,0,0,0,0,0,0,0,0,0,-1,1336,1212,0,0
119,-188,0,0,0,0,0,0,0,0,0,-1,1343,1212,0,0
126,-188,0,0,0,0,0,0,0,0,0,-1,1350,1212,0,0
133,-188,0,0,0,0,0,0,0,0,0,-1,1357,1212,0,0
140,-188,0,0,0,0,0,0,0,0,0,-1,1364,1212,0,0
147,-188,0,0,0,0,0,0,0,0,0,-1,1371,1212,0,0
154,-188,0,0,0,0,0,0,0,0,0,-1,1378,1212,0,0
161,-188,0,0,0,0,0,0,0,0,0,-1,1385,1212,0,0
168,-188,0,0,0,0,0,0,0,0,0,-1,1392,1212,0,0
175,-188,0,0,0,0,0,0,0,0,0,-1,1399,1212,0,0
182,-188,0,0,0,0,0,0,0,0,0,-1,1406,1212,0,0
189,-188,0,0,0,0,0,0,0,0,0,-1,1413,1212,0,0
196,-188,0,0,0,0,0,0,0,0,0,-1,1420,1212,0,0
203,-188,0,0,0,0,0,0,0,0,0,-1,1427,1212,0,0
210,-188,0,0,0,0,0,0,0,0,0,-1,1434,1212,0,0
217,-188,0,0,0,0,0,0,0,0,0,-1,1441,1212,0,0
224,-188,0,0,0,0,0,0,0,0,0,-1,1448,1212,0,0
231,-188,0,0,0,0,0,0,0,0,0,-1,1455,1212,0,0
238,-188,0,0,0,0,0,0,0,0,0,-1,1462,1212,0,0
245,-188,0,0,0,0,0,0,0,0,0,-1,1469,1212,0,0
252,-188,0,0,0,0,0,0,0,0,0,-1,1476,1212,0,0
259,-188,0,0,0,0,0,0,0,0,0,-1,1483,1212,0,0
266,-188,0,0,0,0,0,0,0,0,0,-1,1490,1212,0,0
273,-188,0,0,0,0,0,0,0,0,0,-1,1497,1212,0,0
280,-188,0,0,0,0,0,0,0,0,0,-1,1504,1212,0,0
287,-188,0,0,0,0,0,0,0,0,0,-1,1511,1212,0,0
294,-188,0,0,0,0,0,0,0,0,0,-1,1518,1212,0,0
301,-188,0,0,0,0,0,0,0,0,0,-1,1525,1212,0,0
308,-188,0,0,0,0,0,0,0,0,0,-1,1532,1212,0,0
315,-188,0,0,0,0,0,0,0,0,0,-1,1539,1212,0,0
322,-188,0,0,0,0,0,0,0,0,0,-1,1546,1212,0,0
329,-188,0,0,0,0,0,0,0,0,0,-1,1553,1212,0,0
336,-188,0,0,0,0,0,0,0,0,0,-1,1560,1212,0,0
343,-188,0,0,0,0,0,0,0,0,0,-1,1567,1212,0,0
350,-188,0,0,0,0,0,0,0,0,0,-1,1574,1212,0,0
357,-188,0,0,0,0,0,0,0,0,0,-1,1581,1212,0,0
364,-188,0,0,0,0,0,0,0,0,0,-1,1588,1212,0,0
371,-188,0,0,0,0,0,0,0,0,0,-1,1595,1212,0,0
378,-188,0,0,0,0,0,0,0,0,0,-1,1602,1212,0,0
385,-188,0,0,0,0,0,0,0,0,0,-1,1609,1212,0,0
392,-188,0,0,0,0,0,0,0,0,0,-1,1616,1212,0,0
399,-188,0,0,0,0,0,0,0,0,0,-1,1623,1212,0,0
406,-188,0,0,0,0,0,0,0,0,0,-1,1630,1212,0,0
413,-188,0,0,0,0,0,0,0,0,0,-1,1637,1212,0,0
420,-188,0,0,0,0,0,0,0,0,0,-1,1644,1212,0,0
427,-188,0,0,0,0,0,0,0,0,0,-1,1651,1212,0,0
434,-188,0,0,0,0,0,0,0,0,0,-1,1658,1212,0,0
441,-188,0,0,0,0,0,0,0,0,0,-1,1665,1212,0,0
448,-188,0,0,0,0,0,0,0,0,0,-1,1672,1212,0,0
455,-188,0,0,0,0,0,0,0,0,0,-1,1679,1212,0,0
462,-188,0,0,0,0,0,0,0,0,0,-1,1686,1212,0,0
469,-188,0,0,0,0,0,0,0,0,0,-1,1693,1212,0,0
476,-188,0,0,0,0,0,0,0,0,0,-1,1700,1212,0,0
483,-188,0,0,0,0,0,0,0,0,0,-1,1707,1212,0,0
490,-188,0,0,0,0,0,0,0,0,0,-1,1714,1212,0,0
497,-188,0,0,0,0,0,0,0,0,0,-1,1721,1212,0,0
504,-188,0,0,0,0,0,0,0,0,0,-1,1728,1212,0,0
511,-188,0,0,0,0,0,0,0,0,0,-1,1735,1212,0,0
518,-188,0,0,0,0,0,0,0,0,0,-1,1742,1212,0,0
525,-188,0,0,0,0,0,0,0,0,0,-1,1749,1212,0,0
532,-188,0,0,0,0,0,0,0,0,0,-1,1756,1212,0,0
539,-188,0,0,0,0,0,0,0,0,0,-1,1763,1212,0,0
546,-188,0,0,0,0,0,0,0,0,0,-1,1770,1212,0,0
553,-188,0,0,0,0,0,0,0,0,0,-1,1777,1212,0,0
560,-188,0,0,0,0,0,0,0,0,0,-1,1784,1212,0,0
567,-188,0,0,0,0,0,0,0,0,0,-1,1791,1212,0,0
574,-188,0,0,0,0,0,0,0,0,0,-1,1798,1212,0,0
581,-188,0,0,0,0,0,0,0,0,0,-1,1805,1212,0,0
588,-188,0,0,0,0,0,0,0,0,0,-1,1812,1212,0,0
595,-188,0,0,0,0,0,0,0,0,0,-1,1819,1212,0,0
602,-188,0,0,0,0,0,0,0,0,0,-1,1826,1212,0,0
609,-188,0,0,0,0,0,0,0,0,0,-1,1833,1212,0,0
616,-188,0,0,0,0,0,0,0,0,0,-1,1840,1212,0,0
623,-188,0,0,0,0,0,0,0,0,0,-1,1847,1212,0,0
630,-188,83.1151,2.32898,0.00122676,-0.000217938,-0.00435316,0.00491709,-0.00390827,-0.703179,0.00510641,0.0404127,1854,1212,83.1151,-2.32897
637,-188,83.0286,2.25208,0.00148445,7.79438e-05,-0.00368789,0.00453554,-0.00297314,-0.691183,0.00436631,0.040465,1861,1212,83.0285,-2.25207
644,-188,83.0255,2.37329,0.00153759,0.000548547,-0.00315216,0.00423378,-0.00214765,-0.707591,0.00374937,0.0362291,1868,1212,83.0256,-2.37326
651,-188,83.0844,2.34692,0.00145801,0.00113601,-0.00275489,0.0040566,-0.00146258,-0.756211,0.00330173,0.0318148,1875,1212,83.0843,-2.34689
658,-188,83.0482,2.36182,0.00110362,0.00176528,-0.00217903,0.00363845,-0.000769551,-0.860736,0.0027187,0.0328455,1882,1212,83.0482,-2.36176
665,-188,82.9342,2.39502,0.00057328,0.0023437,-0.00154647,0.0032404,-0.000323412,-1.04534,0.00227574,0.0294872,1889,1212,82.9342,-2.39505
672,-188,82.9945,2.29089,0.000353315,0.00301615,-0.00105582,0.00338398,-1.45085e-05,-1.23557,0.00226084,0.0254715,1896,1212,82.9945,-2.29093
679,-188,83.0299,2.20129,0,0,0,0,0,0,0,-1,1903,1212,83.0299,-2.20133
686,-188,60.1007,2.41321,0,0,0,0,0,0,0,-1,1910,1212,60.1007,-2.41325
693,-188,35.9054,2.18042,0,0,0,0,0,0,0,-1,1917,1212,35.9054,-2.18038
700,-188,54.452,11.2678,0,0,0,0,0,0,0,-1,1924,1212,54.452,-11.2678
707,-188,68.0297,13.5776,0,0,0,0,0,0,0,-1,1931,1212,68.0296,-13.5776
714,-188,54.7506,10.1539,0,0,0,0,0,0,0,-1,1938,1212,54.7507,-10.1539
721,-188,61.637,10.8645,0,0,0,0,0,0,0,-1,1945,1212,61.6369,-10.8645
728,-188,67.6427,10.9692,0,0,0,0,0,0,0,-1,1952,1212,67.6428,-10.9692
735,-188,67.5415,10.1956,0.00174185,0.00367916,0.000832823,0.00398795,0.00143305,1.21573,0.00233262,0.0153151,1959,1212,67.5415,-10.1955
742,-188,67.4769,9.40173,0.00174329,0.00306472,0.00119741,0.00377161,0.00103641,1.03751,0.00224996,0.0155386,1966,1212,67.477,-9.40174
749,-188,67.4517,8.62366,0.00158314,0.00271417,0.00191697,0.0041473,0.000150009,0.928831,0.00271624,0.0148834,1973,1212,67.4517,-8.6236
756,-188,67.4463,7.80725,0.00140263,0.00281751,0.00294315,0.00513705,-0.000916907,0.903345,0.00376771,0.0133343,1980,1212,67.4462,-7.80728
763,-188,67.4475,6.98145,0.00111426,0.00337378,0.00451375,0.00689701,-0.00240897,0.908025,0.0055772,0.0202144,1987,1212,67.4476,-6.98147
770,-188,67.4817,6.15979,0,0,0,0,0,0,0,-1,1994,1212,67.4817,-6.15976
777,-188,61.4719,4.67664,0,0,0,0,0,0,0,-1,2001,1212,61.4719,-4.67659
784,-188,69.1482,-1.87268,0,0,0,0,0,0,0,-1,2008,1212,69.1481,1.87266
791,-188,68.3596,-0.192261,0,0,0,0,0,0,0,-1,2015,1212,68.3596,0.192286
798,-188,67.5286,1.23303,0,0,0,0,0,0,0,-1,2022,1212,67.5285,-1.23298
805,-188,0,0,0,0,0,0,0,0,0,-1,2029,1212,0,0
812,-188,0,0,0,0,0,0,0,0,0,-1,2036,1212,0,0
-700,-195,0,0,0,0,0,0,0,0,0,-1,524,1219,0,0
-693,-195,0,0,0,0,0,0,0,0,0,-1,531,1219,0,0
-686,-195,0,0,0,0,0,0,0,0,0,-1,538,1219,0,0
-679,-195,-61.7382,-4.58606,0,0,0,0,0,0,0,-1,545,1219,-61.7382,4.58612
-672,-195,-63.0811,-1.54932,0,0,0,0,0,0,0,-1,552,1219,-63.0811,1.54931
-665,-195,-63.5276,-1.40674,0,0,0,0,0,0,0,-1,559,1219,-63.5276,1.40672
-658,-195,-63.8177,-1.2533,0,0,0,0,0,0,0,-1,566,1219,-63.8177,1.25326
-651,-195,-64.236,-0.989014,0,0,0,0,0,0,0,-1,573,1219,-64.236,0.989023
-644,-195,-49.7862,5.41455,0,0,0,0,0,0,0,-1,580,1219,-49.7862,-5.41458
-637,-195,-49.9286,6.12256,-0.00169771,0.031119,0.0207997,0.0412033,-0.011782,1.11936,0.0321246,0.0283908,587,1219,-49.9286,-6.12254
-630,-195,-50.081,6.88501,-0.000765177,0.0210985,0.0125085,0.0267789,-0.00644561,1.14452,0.0203444,0.00992369,594,1219,-50.081,-6.88497
-623,-195,-50.1337,7.70935,-0.00042979,0.011887,0.00492824,0.0136161,-0.00215894,1.23335,0.00987605,0.00838824,601,1219,-50.1337,-7.70936
-616,-195,-50.181,8.55554,-0.00248491,0.00406242,-0.0013795,0.0043412,-0.0027637,-1.37139,0.00413558,0.0102273,608,1219,-50.1809,-8.55559
-609,-195,-50.1986,9.43274,-0.00567651,-0.0024795,-0.00595704,0.00208978,-0.0102458,-0.91648,0.0076232,0.0188196,615,1219,-50.1986,-9.43272
-602,-195,-50.2039,10.218,-0.00645939,-0.00381456,-0.00653668,0.00153213,-0.0118061,-0.885204,0.00842798,0.0266872,622,1219,-50.2039,-10.2181
-595,-195,-50.257,11.0825,0,0,0,0,0,0,0,-1,629,1219,-50.2569,-11.0825
-588,-195,-50.4976,12.0021,0,0,0,0,0,0,0,-1,636,1219,-50.4976,-12.0021
-581,-195,-48.3543,11.682,0,0,0,0,0,0,0,-1,643,1219,-48.3543,-11.6821
-574,-195,-48.5243,12.2686,0,0,0,0,0,0,0,-1,650,1219,-48.5243,-12.2686
-567,-195,-20.6388,3.78369,0,0,0,0,0,0,0,-1,657,1219,-20.6388,-3.78369
-560,-195,-20.878,2.10388,0,0,0,0,0,0,0,-1,664,1219,-20.878,-2.10385
-553,-195,-41.595,0.613281,0,0,0,0,0,0,0,-1,671,1219,-41.595,-0.61334
-546,-195,-63.8136,0.917603,0,0,0,0,0,0,0,-1,678,1219,-63.8136,-0.917637
-539,-195,-65.8396,0.543335,0,0,0,0,0,0,0,-1,685,1219,-65.8396,-0.543335
-532,-195,-65.8744,0.497437,-0.00273264,0.000709279,-0.00332945,0.00273624,-0.00475961,-1.02393,0.00437997,0.0336707,692,1219,-65.8744,-0.497414
-525,-195,-65.84,0.410034,-0.00228058,0.00222104,-0.00239117,0.00325411,-0.00331365,-1.16298,0.00379195,0.0385635,699,1219,-65.84,-0.410063
-518,-195,-65.7993,0.503052,-0.00104589,0.00432517,-0.000924701,0.00447991,-0.00120063,-1.40499,0.00345703,0.0426994,706,1219,-65.7993,-0.503047
-511,-195,-65.7292,0.553589,0.000529701,0.00614699,0.00118602,0.00638713,0.000289555,1.37102,0.00416493,0.0402976,713,1219,-65.7292,-0.553575
-504,-195,0,0,0,0,0,0,0,0,0,-1,720,1219,0,0
-497,-195,0,0,0,0,0,0,0,0,0,-1,727,1219,0,0
-490,-195,0,0,0,0,0,0,0,0,0,-1,734,1219,0,0
-483,-195,0,0,0,0,0,0,0,0,0,-1,741,1219,0,0
-476,-195,0,0,0,0,0,0,0,0,0,-1,748,1219,0,0
-469,-195,0,0,0,0,0,0,0,0,0,-1,755,1219,0,0
-462,-195,0,0,0,0,0,0,0,0,0,-1,762,1219,0,0
-455,-195,0,0,0,0,0,0,0,0,0,-1,769,1219,0,0
-448,-195,0,0,0,0,0,0,0,0,0,-1,776,1219,0,0
-441,-195,0,0,0,0,0,0,0,0,0,-1,783,1219,0,0
-434,-195,0,0,0,0,0,0,0,0,0,-1,790,1219,0,0
-427,-195,0,0,0,0,0,0,0,0,0,-1,797,1219,0,0
-420,-195,0,0,0,0,0,0,0,0,0,-1,804,1219,0,0
-413,-195,0,0,0,0,0,0,0,0,0,-1,811,1219,0,0
-406,-195,0,0,0,0,0,0,0,0,0,-1,818,1219,0,0
-399,-195,0,0,0,0,0,0,0,0,0,-1,825,1219,0,0
-392,-195,0,0,0,0,0,0,0,0,0,-1,832,1219,0,0
-385,-195,0,0,0,0,0,0,0,0,0,-1,839,1219,0,0
-378,-195,0,0,0,0,0,0,0,0,0,-1,846,1219,0,0
-371,-195,0,0,0,0,0,0,0,0,0,-1,853,1219,0,0
-364,-195,0,0,0,0,0,0,0,0,0,-1,860,1219,0,0
-357,-195,0,0,0,0,0,0,0,0,0,-1,867,1219,0,0
-350,-195,0,0,0,0,0,0,0,0,0,-1,874,1219,0,0
-343,-195,0,0,0,0,0,0,0,0,0,-1,881,1219,0,0
-336,-195,0,0,0,0,0,0,0,0,0,-1,888,1219,0,0
-329,-195,0,0,0,0,0,0,0,0,0,-1,895,1219,0,0
-322,-195,0,0,0,0,0,0,0,0,0,-1,902,1219,0,0
-315,-195,0,0,0,0,0,0,0,0,0,-1,909,1219,0,0
-308,-195,0,0,0,0,0,0,0,0,0,-1,916,1219,0,0
-301,-195,0,0,0,0,0,0,0,0,0,-1,923,1219,0,0
-294,-195,0,0,0,0,0,0,0,0,0,-1,930,1219,0,0
-287,-195,0,0,0,0,0,0,0,0,0,-1,937,1219,0,0
-280,-195,0,0,0,0,0,0,0,0,0,-1,944,1219,0,0
-273,-195,0,0,0,0,0,0,0,0,0,-1,951,1219,0,0
-266,-195,0,0,0,0,0,0,0,0,0,-1,958,1219,0,0
-259,-195,0,0,0,0,0,0,0,0,0,-1,965,1219,0,0
-252,-195,0,0,0,0,0,0,0,0,0,-1,972,1219,0,0
-245,-195,0,0,0,0,0,0,0,0,0,-1,979,1219,0,0
-238,-195,0,0,0,0,0,0,0,0,0,-1,986,1219,0,0
-231,-195,0,0,0,0,0,0,0,0,0,-1,993,1219,0,0
-224,-195,0,0,0,0,0,0,0,0,0,-1,1000,1219,0,0
-217,-195,0,0,0,0,0,0,0,0,0,-1,1007,1219,0,0
-210,-195,0,0,0,0,0,0,0,0,0,-1,1014,1219,0,0
-203,-195,0,0,0,0,0,0,0,0,0,-1,1021,1219,0,0
-196,-195,0,0,0,0,0,0,0,0,0,-1,1028,1219,0,0
-189,-195,0,0,0,0,0,0,0,0,0,-1,1035,1219,0,0
-182,-195,0,0,0,0,0,0,0,0,0,-1,1042,1219,0,0
-175,-195,0,0,0,0,0,0,0,0,0,-1,1049,1219,0,0
-168,-195,0,0,0,0,0,0,0,0,0,-1,1056,1219,0,0
-161,-195,0,0,0,0,0,0,0,0,0,-1,1063,1219,0,0
-154,-195,0,0,0,0,0,0,0,0,0,-1,1070,1219,0,0
-147,-195,0,0,0,0,0,0,0,0,0,-1,1077,1219,0,0
-140,-195,0,0,0,0,0,0,0,0,0,-1,1084,1219,0,0
-133,-195,0,0,0,0,0,0,0,0,0,-1,1091,1219,0,0
-126,-195,0,0,0,0,0,0,0,0,0,-1,1098,1219,0,0
-119,-195,0,0,0,0,0,0,0,0,0,-1,1105,1219,0,0
-112,-195,0,0,0,0,0,0,0,0,0,-1,1112,1219,0,0
-105,-195,0,0,0,0,0,0,0,0,0,-1,1119,1219,0,0
-98,-195,0,0,0,0,0,0,0,0,0,-1,1126,1219,0,0
-91,-195,0,0,0,0,0,0,0,0,0,-1,1133,1219,0,0
-84,-195,0,0,0,0,0,0,0,0,0,-1,1140,1219,0,0
-77,-195,0,0,0,0,0,0,0,0,0,-1,1147,1219,0,0
-70,-195,0,0,0,0,0,0,0,0,0,-1,1154,1219,0,0
-63,-195,0,0,0,0,0,0,0,0,0,-1,1161,1219,0,0
-56,-195,0,0,0,0,0,0,0,0,0,-1,1168,1219,0,0
-49,-195,0,0,0,0,0,0,0,0,0,-1,1175,1219,0,0
-42,-195,0,0,0,0,0,0,0,0,0,-1,1182,1219,0,0
-35,-195,0,0,0,0,0,0,0,0,0,-1,1189,1219,0,0
-28,-195,0,0,0,0,0,0,0,0,0,-1,1196,1219,0,0
-21,-195,0,0,0,0,0,0,0,0,0,-1,1203,1219,0,0
-14,-195,0,0,0,0,0,0,0,0,0,-1,1210,1219,0,0
-7,-195,0,0,0,0,0,0,0,0,0,-1,1217,1219,0,0
0,-195,0,0,0,0,0,0,0,0,0,-1,1224,1219,0,0
7,-195,0,0,0,0,0,0,0,0,0,-1,1231,1219,0,0
14,-195,0,0,0,0,0,0,0,0,0,-1,1238,1219,0,0
21,-195,0,0,0,0,0,0,0,0,0,-1,1245,1219,0,0
28,-195,0,0,0,0,0,0,0,0,0,-1,1252,1219,0,0
35,-195,0,0,0,0,0,0,0,0,0,-1,1259,1219,0,0
42,-195,0,0,0,0,0,0,0,0,0,-1,1266,1219,0,0
49,-195,0,0,0,0,0,0,0,0,0,-1,1273,1219,0,0
56,-195,0,0,0,0,0,0,0,0,0,-1,1280,1219,0,0
63,-195,0,0,0,0,0,0,0,0,0,-1,1287,1219,0,0
70,-195,0,0,0,0,0,0,0,0,0,-1,1294,1219,0,0
77,-195,0,0,0,0,0,0,0,0,0,-1,1301,1219,0,0
84,-195,0,0,0,0,0,0,0,0,0,-1,1308,1219,0,0
91,-195,0,0,0,0,0,0,0,0,0,-1,1315,1219,0,0
98,-195,0,0,0,0,0,0,0,0,0,-1,1322,1219,0,0
105,-195,0,0,0,0,0,0,0,0,0,-1,1329,1219,0,0
112,-195,0,0,0,0,0,0,0,0,0,-1,1336,1219,0,0
119,-195,0,0,0,0,0,0,0,0,0,-1,1343,1219,0,0
126,-195,0,0,0,0,0,0,0,0,0,-1,1350,1219,0,0
133,-195,0,0,0,0,0,0,0,0,0,-1,1357,1219,0,0
140,-195,0,0,0,0,0,0,0,0,0,-1,1364,1219,0,0
147,-195,0,0,0,0,0,0,0,0,0,-1,1371,1219,0,0
154,-195,0,0,0,0,0,0,0,0,0,-1,1378,1219,0,0
161,-195,0,0,0,0,0,0,0,0,0,-1,1385,1219,0,0
168,-195,0,0,0,0,0,0,0,0,0,-1,1392,1219,0,0
175,-195,0,0,0,0,0,0,0,0,0,-1,1399,1219,0,0
182,-195,0,0,0,0,0,0,0,0,0,-1,1406,1219,0,0
189,-195,0,0,0,0,0,0,0,0,0,-1,1413,1219,0,0
196,-195,0,0,0,0,0,0,0,0,0,-1,1420,1219,0,0
203,-195,0,0,0,0,0,0,0,0,0,-1,1427,1219,0,0
210,-195,0,0,0,0,0,0,0,0,0,-1,1434,1219,0,0
217,-195,0,0,0,0,0,0,0,0,0,-1,1441,1219,0,0
224,-195,0,0,0,0,0,0,0,0,0,-1,1448,1219,0,0
231,-195,0,0,0,0,0,0,0,0,0,-1,1455,1219,0,0
238,-195,0,0,0,0,0,0,0,0,0,-1,1462,1219,0,0
245,-195,0,0,0,0,0,0,0,0,0,-1,1469,1219,0,0
252,-195,0,0,0,0,0,0,0,0,0,-1,1476,1219,0,0
259,-195,0,0,0,0,0,0,0,0,0,-1,1483,1219,0,0
266,-195,0,0,0,0,0,0,0,0,0,-1,1490,1219,0,0
273,-195,0,0,0,0,0,0,0,0,0,-1,1497,1219,0,0
280,-195,0,0,0,0,0,0,0,0,0,-1,1504,1219,0,0
287,-195,0,0,0,0,0,0,0,0,0,-1,1511,1219,0,0
294,-195,0,0,0,0,0,0,0,0,0,-1,1518,1219,0,0
301,-195,0,0,0,0,0,0,0,0,0,-1,1525,1219,0,0
308,-195,0,0,0,0,0,0,0,0,0,-1,1532,1219,0,0
315,-195,0,0,0,0,0,0,0,0,0,-1,1539,1219,0,0
322,-195,0,0,0,0,0,0,0,0,0,-1,1546,1219,0,0
329,-195,0,0,0,0,0,0,0,0,0,-1,1553,1219,0,0
336,-195,0,0,0,0,0,0,0,0,0,-1,1560,1219,0,0
343,-195,0,0,0,0,0,0,0,0,0,-1,1567,1219,0,0
350,-195,0,0,0,0,0,0,0,0,0,-1,1574,1219,0,0
357,-195,0,0,0,0,0,0,0,0,0,-1,1581,1219,0,0
364,-195,0,0,0,0,0,0,0,0,0,-1,1588,1219,0,0
371,-195,0,0,0,0,0,0,0,0,0,-1,1595,1219,0,0
378,-195,0,0,0,0,0,0,0,0,0,-1,1602,1219,0,0
385,-195,0,0,0,0,0,0,0,0,0,-1,1609,1219,0,0
392,-195,0,0,0,0,0,0,0,0,0,-1,1616,1219,0,0
399,-195,0,0,0,0,0,0,0,0,0,-1,1623,1219,0,0
406,-195,0,0,0,0,0,0,0,0,0,-1,1630,1219,0,0
413,-195,0,0,0,0,0,0,0,0,0,-1,1637,1219,0,0
420,-195,0,0,0,0,0,0,0,0,0,-1,1644,1219,0,0
427,-195,0,0,0,0,0,0,0,0,0,-1,1651,1219,0,0
434,-195,0,0,0,0,0,0,0,0,0,-1,1658,1219,0,0
441,-195,0,0,0,0,0,0,0,0,0,-1,1665,1219,0,0
448,-195,0,0,0,0,0,0,0,0,0,-1,1672,1219,0,0
455,-195,0,0,0,0,0,0,0,0,0,-1,1679,1219,0,0
462,-195,0,0,0,0,0,0,0,0,0,-1,1686,1219,0,0
469,-195,0,0,0,0,0,0,0,0,0,-1,1693,1219,0,0
476,-195,0,0,0,0,0,0,0,0,0,-1,1700,1219,0,0
483,-195,0,0,0,0,0,0,0,0,0,-1,1707,1219,0,0
490,-195,0,0,0,0,0,0,0,0,0,-1,1714,1219,0,0
497,-195,0,0,0,0,0,0,0,0,0,-1,1721,1219,0,0
504,-195,0,0,0,0,0,0,0,0,0,-1,1728,1219,0,0
511,-195,0,0,0,0,0,0,0,0,0,-1,1735,1219,0,0
518,-195,0,0,0,0,0,0,0,0,0,-1,1742,1219,0,0
525,-195,0,0,0,0,0,0,0,0,0,-1,1749,1219,0,0
532,-195,0,0,0,0,0,0,0,0,0,-1,1756,1219,0,0
539,-195,0,0,0,0,0,0,0,0,0,-1,1763,1219,0,0
546,-195,0,0,0,0,0,0,0,0,0,-1,1770,1219,0,0
553,-195,0,0,0,0,0,0,0,0,0,-1,1777,1219,0,0
560,-195,0,0,0,0,0,0,0,0,0,-1,1784,1219,0,0
567,-195,0,0,0,0,0,0,0,0,0,-1,1791,1219,0,0
574,-195,0,0,0,0,0,0,0,0,0,-1,1798,1219,0,0
581,-195,0,0,0,0,0,0,0,0,0,-1,1805,1219,0,0
588,-195,0,0,0,0,0,0,0,0,0,-1,1812,1219,0,0
595,-195,0,0,0,0,0,0,0,0,0,-1,1819,1219,0,0
602,-195,0,0,0,0,0,0,0,0,0,-1,1826,1219,0,0
609,-195,0,0,0,0,0,0,0,0,0,-1,1833,1219,0,0
616,-195,0,0,0,0,0,0,0,0,0,-1,1840,1219,0,0
623,-195,0,0,0,0,0,0,0,0,0,-1,1847,1219,0,0
630,-195,83.1212,2.3429,0.000384532,7.39867e-05,-0.00375087,0.00398334,-0.00352482,-0.764712,0.00433753,0.0408968,1854,1219,83.1212,-2.34294
637,-195,83.1005,2.34131,0.000611576,0.000464619,-0.00329827,0.00383718,-0.00276099,-0.774261,0.00382631,0.0416795,1861,1219,83.1005,-2.3413
644,-195,83.1018,2.34485,0.000708182,0.000977494,-0.00291835,0.0037643,-0.00207862,-0.808452,0.00341988,0.0364443,1868,1219,83.1018,-2.34484
651,-195,83.0927,2.32031,0.000731316,0.00147566,-0.00258994,0.00372003,-0.00151305,-0.85676,0.00310959,0.0270071,1875,1219,83.0926,-2.32029
658,-195,83.0405,2.32825,0.000489837,0.00195317,-0.00194375,0.00329841,-0.000855394,-0.965406,0.00253268,0.0251941,1882,1219,83.0405,-2.32823
665,-195,83.004,2.33142,0.000113479,0.00229865,-0.00131657,0.00291694,-0.00050481,-1.13175,0.0021329,0.0228053,1889,1219,83.004,-2.33146
672,-195,83.0615,2.20215,7.21142e-05,0.00274558,-0.000879245,0.00300883,-0.00019113,-1.27989,0.00207253,0.0412102,1896,1219,83.0615,-2.20217
679,-195,83.0916,2.03308,0,0,0,0,0,0,0,-1,1903,1219,83.0916,-2.03313
686,-195,51.2117,1.94312,0,0,0,0,0,0,0,-1,1910,1219,51.2117,-1.9431
693,-195,24.4368,5.68298,0,0,0,0,0,0,0,-1,1917,1219,24.4368,-5.68293
700,-195,66.9569,14.3525,0,0,0,0,0,0,0,-1,1924,1219,66.9569,-14.3526
707,-195,67.058,13.5017,0,0,0,0,0,0,0,-1,1931,1219,67.058,-13.5017
714,-195,67.0225,13.2664,0,0,0,0,0,0,0,-1,1938,1219,67.0225,-13.2664
721,-195,66.7747,12.2523,0,0,0,0,0,0,0,-1,1945,1219,66.7747,-12.2523
728,-195,66.7711,11.106,0.000939502,0.00350648,0.000939696,0.00381371,0.000632277,1.25481,0.00236011,0.0141755,1952,1219,66.7711,-11.106
735,-195,66.7313,10.202,0.00121736,0.0030683,0.00113464,0.00360704,0.000678629,1.1275,0.00221344,0.0129264,1959,1219,66.7313,-10.2021
742,-195,66.6808,9.41528,0.00129844,0.0024531,0.00149299,0.0034765,0.000275043,0.96989,0.00223164,0.0144832,1966,1219,66.6807,-9.41525
749,-195,66.6506,8.66028,0.00133995,0.00204575,0.00214578,0.00386746,-0.000481756,0.866899,0.00275298,0.0154658,1973,1219,66.6507,-8.66033
756,-195,66.6305,7.88025,0.00139763,0.0020059,0.00309842,0.00481507,-0.00141155,0.834321,0.00376971,0.0150151,1980,1219,66.6305,-7.88029
763,-195,66.6182,6.99878,0.001366,0.00245351,0.00462486,0.00656646,-0.00274696,0.843915,0.00552578,0.0234569,1987,1219,66.6181,-6.99878
770,-195,66.6677,6.08679,0,0,0,0,0,0,0,-1,1994,1219,66.6677,-6.08684
777,-195,66.0833,5.64392,0,0,0,0,0,0,0,-1,2001,1219,66.0833,-5.64396
784,-195,69.7437,-3.15942,0,0,0,0,0,0,0,-1,2008,1219,69.7437,3.15944
791,-195,68.9104,-1.24268,0,0,0,0,0,0,0,-1,2015,1219,68.9103,1.24264
798,-195,66.05,2.49902,0,0,0,0,0,0,0,-1,2022,1219,66.0501,-2.499
805,-195,0,0,0,0,0,0,0,0,0,-1,2029,1219,0,0
812,-195,0,0,0,0,0,0,0,0,0,-1,2036,1219,0,0
-700,-202,0,0,0,0,0,0,0,0,0,-1,524,1226,0,0
-693,-202,0,0,0,0,0,0,0,0,0,-1,531,1226,0,0
-686,-202,0,0,0,0,0,0,0,0,0,-1,538,1226,0,0
-679,-202,-62.3775,-2.29236,0,0,0,0,0,0,0,-1,545,1226,-62.3775,2.29239
-672,-202,-62.8208,-2.09778,-0.0114171,0.089766,0.0811494,0.134803,-0.0564537,1.06414,0.113468,0.0492809,552,1226,-62.8208,2.0978
-665,-202,-63.1974,-1.96545,-0.0014386,0.0796547,0.0702573,0.120226,-0.0420099,1.04711,0.0972278,0.0486312,559,1226,-63.1974,1.96548
-658,-202,-63.6037,-1.74121,0.00411131,0.0687045,0.0594335,0.10405,-0.0312339,1.03428,0.0817905,0.0450226,566,1226,-63.6037,1.74119
-651,-202,-64.2806,-1.34937,0.00686028,0.0575853,0.0488836,0.0872942,-0.0228486,1.0247,0.0671214,0.0440532,573,1226,-64.2806,1.34931
-644,-202,-64.6221,-0.979004,0,0,0,0,0,0,0,-1,580,1226,-64.6221,0.979025
-637,-202,-49.2318,5.96069,0,0,0,0,0,0,0,-1,587,1226,-49.2318,-5.96065
-630,-202,-49.251,6.85742,0.00584066,0.0247261,0.0186254,0.0361657,-0.00559896,1.02001,0.0261772,0.0259394,594,1226,-49.2511,-6.85746
-623,-202,-49.2818,7.73853,0.00452913,0.0148445,0.00966811,0.0206447,-0.00127101,1.03043,0.0142057,0.00926904,601,1226,-49.2818,-7.73855
-616,-202,-49.3287,8.59338,0.000979533,0.00658929,0.0019213,0.00718423,0.000384596,1.27051,0.00466657,0.00878388,608,1226,-49.3287,-8.59333
-609,-202,-49.3297,9.42896,-0.00413627,-0.000693258,-0.00422153,0.00214428,-0.00697381,-0.979001,0.00550498,0.0222654,615,1226,-49.3297,-9.42894
-602,-202,-49.3869,10.2461,-0.00704903,-0.00292249,-0.00637436,0.0017142,-0.0116857,-0.941918,0.00842025,0.0223578,622,1226,-49.3869,-10.2461
-595,-202,-49.4686,11.1123,0,0,0,0,0,0,0,-1,629,1226,-49.4686,-11.1123
-588,-202,-47.6164,11.0099,0,0,0,0,0,0,0,-1,636,1226,-47.6164,-11.0098
-581,-202,-47.5237,11.684,0,0,0,0,0,0,0,-1,643,1226,-47.5237,-11.6839
-574,-202,-47.6211,12.4293,0,0,0,0,0,0,0,-1,650,1226,-47.6211,-12.4293
-567,-202,-22.1768,4.56995,0,0,0,0,0,0,0,-1,657,1226,-22.1768,-4.56991
-560,-202,-10.929,2.73096,0,0,0,0,0,0,0,-1,664,1226,-10.929,-2.73092
-553,-202,-30.2701,1.474,0,0,0,0,0,0,0,-1,671,1226,-30.2701,-1.47395
-546,-202,-53.2803,0.580933,0,0,0,0,0,0,0,-1,678,1226,-53.2803,-0.580945
-539,-202,-65.7572,0.55188,0,0,0,0,0,0,0,-1,685,1226,-65.7572,-0.551822
-532,-202,-65.8337,0.521362,-0.00397701,0.000100373,-0.00289031,0.00159865,-0.00547529,-1.09255,0.0042837,0.0290696,692,1226,-65.8338,-0.521395
-525,-202,-65.8912,0.473511,-0.00449741,0.000402967,-0.00217138,0.00122666,-0.0053211,-1.20822,0.00401918,0.033683,699,1226,-65.8912,-0.473565
-518,-202,-65.9789,0.496216,-0.00405552,0.00165703,-0.0008788,0.00178917,-0.00418765,-1.42156,0.00354213,0.0416902,706,1226,-65.979,-0.496236
-511,-202,-66.0089,0.54834,-0.00288438,0.00311624,0.00128075,0.00337816,-0.0031463,1.36907,0.0037677,0.0421737,713,1226,-66.0089,-0.548394
-504,-202,0,0,0,0,0,0,0,0,0,-1,720,1226,0,0
-497,-202,0,0,0,0,0,0,0,0,0,-1,727,1226,0,0
-490,-202,0,0,0,0,0,0,0,0,0,-1,734,1226,0,0
-483,-202,0,0,0,0,0,0,0,0,0,-1,741,1226,0,0
-476,-202,0,0,0,0,0,0,0,0,0,-1,748,1226,0,0
-469,-202,0,0,0,0,0,0,0,0,0,-1,755,1226,0,0
-462,-202,0,0,0,0,0,0,0,0,0,-1,762,1226,0,0
-455,-202,0,0,0,0,0,0,0,0,0,-1,769,1226,0,0
-448,-202,0,0,0,0,0,0,0,0,0,-1,776,1226,0,0
-441,-202,0,0,0,0,0,0,0,0,0,-1,783,1226,0,0
-434,-202,0,0,0,0,0,0,0,0,0,-1,790,1226,0,0
-427,-202,0,0,0,0,0,0,0,0,0,-1,797,1226,0,0
-420,-202,0,0,0,0,0,0,0,0,0,-1,804,1226,0,0
-413,-202,0,0,0,0,0,0,0,0,0,-1,811,1226,0,0
-406,-202,0,0,0,0,0,0,0,0,0,-1,818,1226,0,0
-399,-202,0,0,0,0,0,0,0,0,0,-1,825,1226,0,0
-392,-202,0,0,0,0,0,0,0,0,0,-1,832,1226,0,0
-385,-202,0,0,0,0,0,0,0,0,0,-1,839,1226,0,0
-378,-202,0,0,0,0,0,0,0,0,0,-1,846,1226,0,0
-371,-202,0,0,0,0,0,0,0,0,0,-1,853,1226,0,0
-364,-202,0,0,0,0,0,0,0,0,0,-1,860,1226,0,0
-357,-202,0,0,0,0,0,0,0,0,0,-1,867,1226,0,0
-350,-202,0,0,0,0,0,0,0,0,0,-1,874,1226,0,0
-343,-202,0,0,0,0,0,0,0,0,0,-1,881,1226,0,0
-336,-202,0,0,0,0,0,0,0,0,0,-1,888,1226,0,0
-329,-202,0,0,0,0,0,0,0,0,0,-1,895,1226,0,0
-322,-202,0,0,0,0,0,0,0,0,0,-1,902,1226,0,0
-315,-202,0,0,0,0,0,0,0,0,0,-1,909,1226,0,0
-308,-202,0,0,0,0,0,0,0,0,0,-1,916,1226,0,0
-301,-202,0,0,0,0,0,0,0,0,0,-1,923,1226,0,0
-294,-202,0,0,0,0,0,0,0,0,0,-1,930,1226,0,0
-287,-202,0,0,0,0,0,0,0,0,0,-1,937,1226,0,0
-280,-202,0,0,0,0,0,0,0,0,0,-1,944,1226,0,0
-273,-202,0,0,0,0,0,0,0,0,0,-1,951,1226,0,0
-266,-202,0,0,0,0,0,0,0,0,0,-1,958,1226,0,0
-259,-202,0,0,0,0,0,0,0,0,0,-1,965,1226,0,0
-252,-202,0,0,0,0,0,0,0,0,0,-1,972,1226,0,0
-245,-202,0,0,0,0,0,0,0,0,0,-1,979,1226,0,0
-238,-202,0,0,0,0,0,0,0,0,0,-1,986,1226,0,0
-231,-202,0,0,0,0,0,0,0,0,0,-1,993,1226,0,0
-224,-202,0,0,0,0,0,0,0,0,0,-1,1000,1226,0,0
-217,-202,0,0,0,0,0,0,0,0,0,-1,1007,1226,0,0
-210,-202,0,0,0,0,0,0,0,0,0,-1,1014,1226,0,0
-203,-202,0,0,0,0,0,0,0,0,0,-1,1021,1226,0,0
-196,-202,0,0,0,0,0,0,0,0,0,-1,1028,1226,0,0
-189,-202,0,0,0,0,0,0,0,0,0,-1,1035,1226,0,0
-182,-202,0,0,0,0,0,0,0,0,0,-1,1042,1226,0,0
-175,-202,0,0,0,0,0,0,0,0,0,-1,1049,1226,0,0
-168,-202,0,0,0,0,0,0,0,0,0,-1,1056,1226,0,0
-161,-202,0,0,0,0,0,0,0,0,0,-1,1063,1226,0,0
-154,-202,0,0,0,0,0,0,0,0,0,-1,1070,1226,0,0
-147,-202,0,0,0,0,0,0,0,0,0,-1,1077,1226,0,0
-140,-202,0,0,0,0,0,0,0,0,0,-1,1084,1226,0,0
-133,-202,0,0,0,0,0,0,0,0,0,-1,1091,1226,0,0
-126,-202,0,0,0,0,0,0,0,0,0,-1,1098,1226,0,0
-119,-202,0,0,0,0,0,0,0,0,0,-1,1105,1226,0,0
-112,-202,0,0,0,0,0,0,0,0,0,-1,1112,1226,0,0
-105,-202,0,0,0,0,0,0,0,0,0,-1,1119,1226,0,0
-98,-202,0,0,0,0,0,0,0,0,0,-1,1126,1226,0,0
-91,-202,0,0,0,0,0,0,0,0,0,-1,1133,1226,0,0
-84,-202,0,0,0,0,0,0,0,0,0,-1,1140,1226,0,0
-77,-202,0,0,0,0,0,0,0,0,0,-1,1147,1226,0,0
-70,-202,0,0,0,0,0,0,0,0,0,-1,1154,1226,0,0
-63,-202,0,0,0,0,0,0,0,0,0,-1,1161,1226,0,0
-56,-202,0,0,0,0,0,0,0,0,0,-1,1168,1226,0,0
-49,-202,0,0,0,0,0,0,0,0,0,-1,1175,1226,0,0
-42,-202,0,0,0,0,0,0,0,0,0,-1,1182,1226,0,0
-35,-202,0,0,0,0,0,0,0,0,0,-1,1189,1226,0,0
-28,-202,0,0,0,0,0,0,0,0,0,-1,1196,1226,0,0
-21,-202,0,0,0,0,0,0,0,0,0,-1,1203,1226,0,0
-14,-202,0,0,0,0,0,0,0,0,0,-1,1210,1226,0,0
-7,-202,0,0,0,0,0,0,0,0,0,-1,1217,1226,0,0
0,-202,0,0,0,0,0,0,0,0,0,-1,1224,1226,0,0
7,-202,0,0,0,0,0,0,0,0,0,-1,1231,1226,0,0
14,-202,0,0,0,0,0,0,0,0,0,-1,1238,1226,0,0
21,-202,0,0,0,0,0,0,0,0,0,-1,1245,1226,0,0
28,-202,0,0,0,0,0,0,0,0,0,-1,1252,1226,0,0
35,-202,0,0,0,0,0,0,0,0,0,-1,1259,1226,0,0
42,-202,0,0,0,0,0,0,0,0,0,-1,1266,1226,0,0
49,-202,0,0,0,0,0,0,0,0,0,-1,1273,1226,0,0
56,-202,0,0,0,0,0,0,0,0,0,-1,1280,1226,0,0
63,-202,0,0,0,0,0,0,0,0,0,-1,1287,1226,0,0
70,-202,0,0,0,0,0,0,0,0,0,-1,1294,1226,0,0
77,-202,0,0,0,0,0,0,0,0,0,-1,1301,1226,0,0
84,-202,0,0,0,0,0,0,0,0,0,-1,1308,1226,0,0
91,-202,0,0,0,0,0,0,0,0,0,-1,1315,1226,0,0
98,-202,0,0,0,0,0,0,0,0,0,-1,1322,1226,0,0
105,-202,0,0,0,0,0,0,0,0,0,-1,1329,1226,0,0
112,-202,0,0,0,0,0,0,0,0,0,-1,1336,1226,0,0
119,-202,0,0,0,0,0,0,0,0,0,-1,1343,1226,0,0
126,-202,0,0,0,0,0,0,0,0,0,-1,1350,1226,0,0
133,-202,0,0,0,0,0,0,0,0,0,-1,1357,1226,0,0
140,-202,0,0,0,0,0,0,0,0,0,-1,1364,1226,0,0
147,-202,0,0,0,0,0,0,0,0,0,-1,1371,1226,0,0
154,-202,0,0,0,0,0,0,0,0,0,-1,1378,1226,0,0
161,-202,0,0,0,0,0,0,0,0,0,-1,1385,1226,0,0
168,-202,0,0,0,0,0,0,0,0,0,-1,1392,1226,0,0
175,-202,0,0,0,0,0,0,0,0,0,-1,1399,1226,0,0
182,-202,0,0,0,0,0,0,0,0,0,-1,1406,1226,0,0
189,-202,0,0,0,0,0,0,0,0,0,-1,1413,1226,0,0
196,-202,0,0,0,0,0,0,0,0,0,-1,1420,1226,0,0
203,-202,0,0,0,0,0,0,0,0,0,-1,1427,1226,0,0
210,-202,0,0,0,0,0,0,0,0,0,-1,1434,1226,0,0
217,-202,0,0,0,0,0,0,0,0,0,-1,1441,1226,0,0
224,-202,0,0,0,0,0,0,0,0,0,-1,1448,1226,0,0
231,-202,0,0,0,0,0,0,0,0,0,-1,1455,1226,0,0
238,-202,0,0,0,0,0,0,0,0,0,-1,1462,1226,0,0
245,-202,0,0,0,0,0,0,0,0,0,-1,1469,1226,0,0
252,-202,0,0,0,0,0,0,0,0,0,-1,1476,1226,0,0
259,-202,0,0,0,0,0,0,0,0,0,-1,1483,1226,0,0
266,-202,0,0,0,0,0,0,0,0,0,-1,1490,1226,0,0
273,-202,0,0,0,0,0,0,0,0,0,-1,1497,1226,0,0
280,-202,0,0,0,0,0,0,0,0,0,-1,1504,1226,0,0
287,-202,0,0,0,0,0,0,0,0,0,-1,1511,1226,0,0
294,-202,0,0,0,0,0,0,0,0,0,-1,1518,1226,0,0
301,-202,0,0,0,0,0,0,0,0,0,-1,1525,1226,0,0
308,-202,0,0,0,0,0,0,0,0,0,-1,1532,1226,0,0
315,-202,0,0,0,0,0,0,0,0,0,-1,1539,1226,0,0
322,-202,0,0,0,0,0,0,0,0,0,-1,1546,1226,0,0
329,-202,0,0,0,0,0,0,0,0,0,-1,1553,1226,0,0
336,-202,0,0,0,0,0,0,0,0,0,-1,1560,1226,0,0
343,-202,0,0,0,0,0,0,0,0,0,-1,1567,1226,0,0
350,-202,0,0,0,0,0,0,0,0,0,-1,1574,1226,0,0
357,-202,0,0,0,0,0,0,0,0,0,-1,1581,1226,0,0
364,-202,0,0,0,0,0,0,0,0,0,-1,1588,1226,0,0
371,-202,0,0,0,0,0,0,0,0,0,-1,1595,1226,0,0
378,-202,0,0,0,0,0,0,0,0,0,-1,1602,1226,0,0
385,-202,0,0,0,0,0,0,0,0,0,-1,1609,1226,0,0
392,-202,0,0,0,0,0,0,0,0,0,-1,1616,1226,0,0
399,-202,0,0,0,0,0,0,0,0,0,-1,1623,1226,0,0
406,-202,0,0,0,0,0,0,0,0,0,-1,1630,1226,0,0
413,-202,0,0,0,0,0,0,0,0,0,-1,1637,1226,0,0
420,-202,0,0,0,0,0,0,0,0,0,-1,1644,1226,0,0
427,-202,0,0,0,0,0,0,0,0,0,-1,1651,1226,0,0
434,-202,0,0,0,0,0,0,0,0,0,-1,1658,1226,0,0
441,-202,0,0,0,0,0,0,0,0,0,-1,1665,1226,0,0
448,-202,0,0,0,0,0,0,0,0,0,-1,1672,1226,0,0
455,-202,0,0,0,0,0,0,0,0,0,-1,1679,1226,0,0
462,-202,0,0,0,0,0,0,0,0,0,-1,1686,1226,0,0
469,-202,0,0,0,0,0,0,0,0,0,-1,1693,1226,0,0
476,-202,0,0,0,0,0,0,0,0,0,-1,1700,1226,0,0
483,-202,0,0,0,0,0,0,0,0,0,-1,1707,1226,0,0
490,-202,0,0,0,0,0,0,0,0,0,-1,1714,1226,0,0
497,-202,0,0,0,0,0,0,0,0,0,-1,1721,1226,0,0
504,-202,0,0,0,0,0,0,0,0,0,-1,1728,1226,0,0
511,-202,0,0,0,0,0,0,0,0,0,-1,1735,1226,0,0
518,-202,0,0,0,0,0,0,0,0,0,-1,1742,1226,0,0
525,-202,0,0,0,0,0,0,0,0,0,-1,1749,1226,0,0
532,-202,0,0,0,0,0,0,0,0,0,-1,1756,1226,0,0
539,-202,0,0,0,0,0,0,0,0,0,-1,1763,1226,0,0
546,-202,0,0,0,0,0,0,0,0,0,-1,1770,1226,0,0
553,-202,0,0,0,0,0,0,0,0,0,-1,1777,1226,0,0
560,-202,0,0,0,0,0,0,0,0,0,-1,1784,1226,0,0
567,-202,0,0,0,0,0,0,0,0,0,-1,1791,1226,0,0
574,-202,0,0,0,0,0,0,0,0,0,-1,1798,1226,0,0
581,-202,0,0,0,0,0,0,0,0,0,-1,1805,1226,0,0
588,-202,0,0,0,0,0,0,0,0,0,-1,1812,1226,0,0
595,-202,0,0,0,0,0,0,0,0,0,-1,1819,1226,0,0
602,-202,0,0,0,0,0,0,0,0,0,-1,1826,1226,0,0
609,-202,0,0,0,0,0,0,0,0,0,-1,1833,1226,0,0
616,-202,0,0,0,0,0,0,0,0,0,-1,1840,1226,0,0
623,-202,0,0,0,0,0,0,0,0,0,-1,1847,1226,0,0
630,-202,83.1593,2.42102,-0.000472329,0.000565987,-0.00330927,0.00339658,-0.00330292,-0.863204,0.00386808,0.0389051,1854,1226,83.1593,-2.42107
637,-202,83.1062,2.34351,-0.000191127,0.00104193,-0.00302812,0.00351565,-0.00266484,-0.885826,0.00357956,0.0375414,1861,1226,83.1061,-2.34351
644,-202,83.0829,2.36938,5.54808e-05,0.00154131,-0.00277739,0.00367343,-0.00207664,-0.916082,0.00336221,0.0329301,1868,1226,83.0829,-2.36943
651,-202,83.0731,2.36609,0.000272969,0.00183961,-0.00249059,0.00366716,-0.00155458,-0.937757,0.00309592,0.0245458,1875,1226,83.0731,-2.3661
658,-202,83.0586,2.33008,0.000180229,0.00208364,-0.00179424,0.00316296,-0.000899084,-1.02924,0.00246364,0.0218384,1882,1226,83.0586,-2.3301
665,-202,83.0985,2.30579,-0.000126476,0.00216077,-0.00119358,0.00267017,-0.000635881,-1.16741,0.00202562,0.0212263,1889,1226,83.0985,-2.30585
672,-202,83.223,2.26233,0,0,0,0,0,0,0,-1,1896,1226,83.2231,-2.26231
679,-202,72.3511,2.32935,0,0,0,0,0,0,0,-1,1903,1226,72.3511,-2.32932
686,-202,49.1708,2.15198,0,0,0,0,0,0,0,-1,1910,1226,49.1708,-2.15195
693,-202,52.1176,12.0886,0,0,0,0,0,0,0,-1,1917,1226,52.1176,-12.0886
700,-202,66.158,14.4545,0,0,0,0,0,0,0,-1,1924,1226,66.158,-14.4545
707,-202,66.1282,13.5035,-0.000146174,0.0025045,0.000474936,0.00258703,-0.000228701,1.39875,0.00180576,0.034908,1931,1226,66.1282,-13.5036
714,-202,66.0004,12.8604,2.41738e-05,0.00289129,0.000556016,0.00299534,-7.98776e-05,1.3858,0.00202404,0.0432978,1938,1226,66.0004,-12.8603
721,-202,65.9702,12.1123,0.000182401,0.00321626,0.000844798,0.00343564,-3.69753e-05,1.31673,0.00230285,0.0330046,1945,1226,65.9703,-12.1123
728,-202,65.9886,11.114,0.000414081,0.00289855,0.00114573,0.00334624,-3.36065e-05,1.19829,0.00224211,0.0125835,1952,1226,65.9887,-11.1141
735,-202,65.942,10.2791,0.000651802,0.00241947,0.0013242,0.0031277,-5.64323e-05,1.07967,0.0021042,0.0118437,1959,1226,65.9421,-10.279
742,-202,65.8854,9.45508,0.000780071,0.00185148,0.00167833,0.00307752,-0.000445976,0.939881,0.00221535,0.0133538,1966,1226,65.8854,-9.45511
749,-202,65.7924,8.66272,0.000929067,0.00143415,0.00230337,0.00349879,-0.00113557,0.84,0.00278919,0.0143777,1973,1226,65.7924,-8.66268
756,-202,65.7748,7.88525,0.00115316,0.00127841,0.00318961,0.00440601,-0.00197444,0.795214,0.00377187,0.0133577,1980,1226,65.7747,-7.88521
763,-202,65.8306,7.06055,0.00136639,0.00157947,0.00463546,0.00610962,-0.00316376,0.796888,0.00544329,0.0286528,1987,1226,65.8305,-7.0606
770,-202,65.8562,6.28027,0,0,0,0,0,0,0,-1,1994,1226,65.8562,-6.28027
777,-202,67.5615,-0.236572,0,0,0,0,0,0,0,-1,2001,1226,67.5615,0.236573
784,-202,66.7117,0.754517,0,0,0,0,0,0,0,-1,2008,1226,66.7118,-0.754543
791,-202,66.512,1.74207,0,0,0,0,0,0,0,-1,2015,1226,66.512,-1.74201
798,-202,51.8999,3.58789,0,0,0,0,0,0,0,-1,2022,1226,51.9,-3.58791
805,-202,0,0,0,0,0,0,0,0,0,-1,2029,1226,0,0
812,-202,0,0,0,0,0,0,0,0,0,-1,2036,1226,0,0
-700,-209,0,0,0,0,0,0,0,0,0,-1,524,1233,0,0
-693,-209,0,0,0,0,0,0,0,0,0,-1,531,1233,0,0
-686,-209,0,0,0,0,0,0,0,0,0,-1,538,1233,0,0
-679,-209,-61.9344,-3.09302,-0.0111508,0.103187,0.104602,0.165223,-0.0731868,1.03549,0.141023,0.0482006,545,1233,-61.9344,3.09305
-672,-209,-62.7319,-2.50427,0.00873802,0.0980333,0.095962,0.159226,-0.0524544,1.00314,0.12729,0.0481568,552,1233,-62.7319,2.50428
-665,-209,-63.2055,-2.26746,0.0187703,0.0879312,0.0851689,0.145272,-0.0385706,0.978242,0.111942,0.0438588,559,1233,-63.2055,2.26746
-658,-209,-63.4645,-2.29431,0.0225613,0.0762541,0.0733027,0.127472,-0.0286565,0.960933,0.0959703,0.0459917,566,1233,-63.4645,2.29427
-651,-209,-63.8206,-2.27698,0.0229622,0.0642145,0.0613084,0.108273,-0.0210967,0.947667,0.0801455,0.0467481,573,1233,-63.8207,2.27693
-644,-209,-64.1546,-2.03052,0.021194,0.052209,0.0493752,0.0884547,-0.0150517,0.937558,0.0645745,0.0482968,580,1233,-64.1546,2.03054
-637,-209,-48.2492,6.10364,0,0,0,0,0,0,0,-1,587,1233,-48.2492,-6.10359
-630,-209,-48.2473,6.90173,0.0140762,0.0288029,0.0259906,0.0484531,-0.00557394,0.923435,0.0343113,0.0443381,594,1233,-48.2473,-6.90172
-623,-209,-48.3888,7.77478,0.0107542,0.0182289,0.0155066,0.0304421,-0.0014591,0.903651,0.0207982,0.0181324,601,1233,-48.3888,-7.77482
-616,-209,-48.4466,8.62671,0.00549727,0.00945166,0.00625444,0.014034,0.000914945,0.938491,0.00906641,0.011744,608,1233,-48.4466,-8.62671
-609,-209,-48.513,9.47107,-0.00162246,0.00137516,-0.00163084,0.00209132,-0.00233862,-1.15702,0.00255895,0.014047,615,1233,-48.513,-9.47109
-602,-209,-48.5885,10.3107,-0.00640616,-0.00182716,-0.00552773,0.00186645,-0.0100998,-0.981735,0.00743385,0.0168909,622,1233,-48.5885,-10.3107
-595,-209,-48.6877,11.2434,-0.00663159,-0.000583119,-0.00350677,0.00102335,-0.00823806,-1.14122,0.005863,0.0307834,629,1233,-48.6878,-11.2434
-588,-209,-48.7241,12.0438,0,0,0,0,0,0,0,-1,636,1233,-48.7241,-12.0438
-581,-209,-46.4968,11.8457,0,0,0,0,0,0,0,-1,643,1233,-46.4967,-11.8457
-574,-209,-46.5352,12.6223,0,0,0,0,0,0,0,-1,650,1233,-46.5352,-12.6223
-567,-209,-46.5004,13.424,0,0,0,0,0,0,0,-1,657,1233,-46.5004,-13.4239
-560,-209,-13.9294,4.16626,0,0,0,0,0,0,0,-1,664,1233,-13.9294,-4.16621
-553,-209,-22.7542,0.748779,0,0,0,0,0,0,0,-1,671,1233,-22.7541,-0.748796
-546,-209,-44.691,0.142822,0,0,0,0,0,0,0,-1,678,1233,-44.6911,-0.142844
-539,-209,-65.5246,0.622681,0,0,0,0,0,0,0,-1,685,1233,-65.5246,-0.622625
-532,-209,-65.7002,0.607178,-0.00537002,-0.000958797,-0.00242752,0.000115463,-0.00644428,-1.15417,0.00433519,0.0490968,692,1233,-65.7002,-0.607218
-525,-209,-65.8507,0.60498,-0.00676031,-0.00150928,-0.00183696,-0.000930459,-0.00733913,-1.26555,0.00461398,0.0341435,699,1233,-65.8507,-0.604985
-518,-209,-65.9332,0.588257,-0.00727847,-0.000976112,-0.000721874,-0.000894485,-0.0073601,-1.4582,0.00463741,0.0412571,706,1233,-65.9332,-0.588227
-511,-209,-65.9701,0.516968,-0.00677922,-0.000111705,0.00137994,0.00016261,-0.00705354,1.37457,0.00475749,0.0434284,713,1233,-65.9701,-0.51698
-504,-209,0,0,0,0,0,0,0,0,0,-1,720,1233,0,0
-497,-209,0,0,0,0,0,0,0,0,0,-1,727,1233,0,0
-490,-209,0,0,0,0,0,0,0,0,0,-1,734,1233,0,0
-483,-209,0,0,0,0,0,0,0,0,0,-1,741,1233,0,0
-476,-209,0,0,0,0,0,0,0,0,0,-1,748,1233,0,0
-469,-209,0,0,0,0,0,0,0,0,0,-1,755,1233,0,0
-462,-209,0,0,0,0,0,0,0,0,0,-1,762,1233,0,0
-455,-209,0,0,0,0,0,0,0,0,0,-1,769,1233,0,0
-448,-209,0,0,0,0,0,0,0,0,0,-1,776,1233,0,0
-441,-209,0,0,0,0,0,0,0,0,0,-1,783,1233,0,0
-434,-209,0,0,0,0,0,0,0,0,0,-1,790,1233,0,0
-427,-209,0,0,0,0,0,0,0,0,0,-1,797,1233,0,0
-420,-209,0,0,0,0,0,0,0,0,0,-1,804,1233,0,0
-413,-209,0,0,0,0,0,0,0,0,0,-1,811,1233,0,0
-406,-209,0,0,0,0,0,0,0,0,0,-1,818,1233,0,0
-399,-209,0,0,0,0,0,0,0,0,0,-1,825,1233,0,0
-392,-209,0,0,0,0,0,0,0,0,0,-1,832,1233,0,0
-385,-209,0,0,0,0,0,0,0,0,0,-1,839,1233,0,0
-378,-209,0,0,0,0,0,0,0,0,0,-1,846,1233,0,0
-371,-209,0,0,0,0,0,0,0,0,0,-1,853,1233,0,0
-364,-209,0,0,0,0,0,0,0,0,0,-1,860,1233,0,0
-357,-209,0,0,0,0,0,0,0,0,0,-1,867,1233,0,0
-350,-209,0,0,0,0,0,0,0,0,0,-1,874,1233,0,0
-343,-209,0,0,0,0,0,0,0,0,0,-1,881,1233,0,0
-336,-209,0,0,0,0,0,0,0,0,0,-1,888,1233,0,0
-329,-209,0,0,0,0,0,0,0,0,0,-1,895,1233,0,0
-322,-209,0,0,0,0,0,0,0,0,0,-1,902,1233,0,0
-315,-209,0,0,0,0,0,0,0,0,0,-1,909,1233,0,0
-308,-209,0,0,0,0,0,0,0,0,0,-1,916,1233,0,0
-301,-209,0,0,0,0,0,0,0,0,0,-1,923,1233,0,0
-294,-209,0,0,0,0,0,0,0,0,0,-1,930,1233,0,0
-287,-209,0,0,0,0,0,0,0,0,0,-1,937,1233,0,0
-280,-209,0,0,0,0,0,0,0,0,0,-1,944,1233,0,0
-273,-209,0,0,0,0,0,0,0,0,0,-1,951,1233,0,0
-266,-209,0,0,0,0,0,0,0,0,0,-1,958,1233,0,0
-259,-209,0,0,0,0,0,0,0,0,0,-1,965,1233,0,0
-252,-209,0,0,0,0,0,0,0,0,0,-1,972,1233,0,0
-245,-209,0,0,0,0,0,0,0,0,0,-1,979,1233,0,0
-238,-209,0,0,0,0,0,0,0,0,0,-1,986,1233,0,0
-231,-209,0,0,0,0,0,0,0,0,0,-1,993,1233,0,0
-224,-209,0,0,0,0,0,0,0,0,0,-1,1000,1233,0,0
-217,-209,0,0,0,0,0,0,0,0,0,-1,1007,1233,0,0
-210,-209,0,0,0,0,0,0,0,0,0,-1,1014,1233,0,0
-203,-209,0,0,0,0,0,0,0,0,0,-1,1021,1233,0,0
-196,-209,0,0,0,0,0,0,0,0,0,-1,1028,1233,0,0
-189,-209,0,0,0,0,0,0,0,0,0,-1,1035,1233,0,0
-182,-209,0,0,0,0,0,0,0,0,0,-1,1042,1233,0,0
-175,-209,0,0,0,0,0,0,0,0,0,-1,1049,1233,0,0
-168,-209,0,0,0,0,0,0,0,0,0,-1,1056,1233,0,0
-161,-209,0,0,0,0,0,0,0,0,0,-1,1063,1233,0,0
-154,-209,0,0,0,0,0,0,0,0,0,-1,1070,1233,0,0
-147,-209,0,0,0,0,0,0,0,0,0,-1,1077,1233,0,0
-140,-209,0,0,0,0,0,0,0,0,0,-1,1084,1233,0,0
-133,-209,0,0,0,0,0,0,0,0,0,-1,1091,1233,0,0
-126,-209,0,0,0,0,0,0,0,0,0,-1,1098,1233,0,0
-119,-209,0,0,0,0,0,0,0,0,0,-1,1105,1233,0,0
-112,-209,0,0,0,0,0,0,0,0,0,-1,1112,1233,0,0
-105,-209,0,0,0,0,0,0,0,0,0,-1,1119,1233,0,0
-98,-209,0,0,0,0,0,0,0,0,0,-1,1126,1233,0,0
-91,-209,0,0,0,0,0,0,0,0,0,-1,1133,1233,0,0
-84,-209,0,0,0,0,0,0,0,0,0,-1,1140,1233,0,0
-77,-209,0,0,0,0,0,0,0,0,0,-1,1147,1233,0,0
-70,-209,0,0,0,0,0,0,0,0,0,-1,1154,1233,0,0
-63,-209,0,0,0,0,0,0,0,0,0,-1,1161,1233,0,0
-56,-209,0,0,0,0,0,0,0,0,0,-1,1168,1233,0,0
-49,-209,0,0,0,0,0,0,0,0,0,-1,1175,1233,0,0
-42,-209,0,0,0,0,0,0,0,0,0,-1,1182,1233,0,0
-35,-209,0,0,0,0,0,0,0,0,0,-1,1189,1233,0,0
-28,-209,0,0,0,0,0,0,0,0,0,-1,1196,1233,0,0
-21,-209,0,0,0,0,0,0,0,0,0,-1,1203,1233,0,0
-14,-209,0,0,0,0,0,0,0,0,0,-1,1210,1233,0,0
-7,-209,0,0,0,0,0,0,0,0,0,-1,1217,1233,0,0
0,-209,0,0,0,0,0,0,0,0,0,-1,1224,1233,0,0
7,-209,0,0,0,0,0,0,0,0,0,-1,1231,1233,0,0
14,-209,0,0,0,0,0,0,0,0,0,-1,1238,1233,0,0
21,-209,0,0,0,0,0,0,0,0,0,-1,1245,1233,0,0
28,-209,0,0,0,0,0,0,0,0,0,-1,1252,1233,0,0
35,-209,0,0,0,0,0,0,0,0,0,-1,1259,1233,0,0
42,-209,0,0,0,0,0,0,0,0,0,-1,1266,1233,0,0
49,-209,0,0,0,0,0,0,0,0,0,-1,1273,1233,0,0
56,-209,0,0,0,0,0,0,0,0,0,-1,1280,1233,0,0
63,-209,0,0,0,0,0,0,0,0,0,-1,1287,1233,0,0
70,-209,0,0,0,0,0,0,0,0,0,-1,1294,1233,0,0
77,-209,0,0,0,0,0,0,0,0,0,-1,1301,1233,0,0
84,-209,0,0,0,0,0,0,0,0,0,-1,1308,1233,0,0
91,-209,0,0,0,0,0,0,0,0,0,-1,1315,1233,0,0
98,-209,0,0,0,0,0,0,0,0,0,-1,1322,1233,0,0
105,-209,0,0,0,0,0,0,0,0,0,-1,1329,1233,0,0
112,-209,0,0,0,0,0,0,0,0,0,-1,1336,1233,0,0
119,-209,0,0,0,0,0,0,0,0,0,-1,1343,1233,0,0
126,-209,0,0,0,0,0,0,0,0,0,-1,1350,1233,0,0
133,-209,0,0,0,0,0,0,0,0,0,-1,1357,1233,0,0
140,-209,0,0,0,0,0,0,0,0,0,-1,1364,1233,0,0
147,-209,0,0,0,0,0,0,0,0,0,-1,1371,1233,0,0
154,-209,0,0,0,0,0,0,0,0,0,-1,1378,1233,0,0
161,-209,0,0,0,0,0,0,0,0,0,-1,1385,1233,0,0
168,-209,0,0,0,0,0,0,0,0,0,-1,1392,1233,0,0
175,-209,0,0,0,0,0,0,0,0,0,-1,1399,1233,0,0
182,-209,0,0,0,0,0,0,0,0,0,-1,1406,1233,0,0
189,-209,0,0,0,0,0,0,0,0,0,-1,1413,1233,0,0
196,-209,0,0,0,0,0,0,0,0,0,-1,1420,1233,0,0
203,-209,0,0,0,0,0,0,0,0,0,-1,1427,1233,0,0
210,-209,0,0,0,0,0,0,0,0,0,-1,1434,1233,0,0
217,-209,0,0,0,0,0,0,0,0,0,-1,1441,1233,0,0
224,-209,0,0,0,0,0,0,0,0,0,-1,1448,1233,0,0
231,-209,0,0,0,0,0,0,0,0,0,-1,1455,1233,0,0
238,-209,0,0,0,0,0,0,0,0,0,-1,1462,1233,0,0
245,-209,0,0,0,0,0,0,0,0,0,-1,1469,1233,0,0
252,-209,0,0,0,0,0,0,0,0,0,-1,1476,1233,0,0
259,-209,0,0,0,0,0,0,0,0,0,-1,1483,1233,0,0
266,-209,0,0,0,0,0,0,0,0,0,-1,1490,1233,0,0
273,-209,0,0,0,0,0,0,0,0,0,-1,1497,1233,0,0
280,-209,0,0,0,0,0,0,0,0,0,-1,1504,1233,0,0
287,-209,0,0,0,0,0,0,0,0,0,-1,1511,1233,0,0
294,-209,0,0,0,0,0,0,0,0,0,-1,1518,1233,0,0
301,-209,0,0,0,0,0,0,0,0,0,-1,1525,1233,0,0
308,-209,0,0,0,0,0,0,0,0,0,-1,1532,1233,0,0
315,-209,0,0,0,0,0,0,0,0,0,-1,1539,1233,0,0
322,-209,0,0,0,0,0,0,0,0,0,-1,1546,1233,0,0
329,-209,0,0,0,0,0,0,0,0,0,-1,1553,1233,0,0
336,-209,0,0,0,0,0,0,0,0,0,-1,1560,1233,0,0
343,-209,0,0,0,0,0,0,0,0,0,-1,1567,1233,0,0
350,-209,0,0,0,0,0,0,0,0,0,-1,1574,1233,0,0
357,-209,0,0,0,0,0,0,0,0,0,-1,1581,1233,0,0
364,-209,0,0,0,0,0,0,0,0,0,-1,1588,1233,0,0
371,-209,0,0,0,0,0,0,0,0,0,-1,1595,1233,0,0
378,-209,0,0,0,0,0,0,0,0,0,-1,1602,1233,0,0
385,-209,0,0,0,0,0,0,0,0,0,-1,1609,1233,0,0
392,-209,0,0,0,0,0,0,0,0,0,-1,1616,1233,0,0
399,-209,0,0,0,0,0,0,0,0,0,-1,1623,1233,0,0
406,-209,0,0,0,0,0,0,0,0,0,-1,1630,1233,0,0
413,-209,0,0,0,0,0,0,0,0,0,-1,1637,1233,0,0
420,-209,0,0,0,0,0,0,0,0,0,-1,1644,1233,0,0
427,-209,0,0,0,0,0,0,0,0,0,-1,1651,1233,0,0
434,-209,0,0,0,0,0,0,0,0,0,-1,1658,1233,0,0
441,-209,0,0,0,0,0,0,0,0,0,-1,1665,1233,0,0
448,-209,0,0,0,0,0,0,0,0,0,-1,1672,1233,0,0
455,-209,0,0,0,0,0,0,0,0,0,-1,1679,1233,0,0
462,-209,0,0,0,0,0,0,0,0,0,-1,1686,1233,0,0
469,-209,0,0,0,0,0,0,0,0,0,-1,1693,1233,0,0
476,-209,0,0,0,0,0,0,0,0,0,-1,1700,1233,0,0
483,-209,0,0,0,0,0,0,0,0,0,-1,1707,1233,0,0
490,-209,0,0,0,0,0,0,0,0,0,-1,1714,1233,0,0
497,-209,0,0,0,0,0,0,0,0,0,-1,1721,1233,0,0
504,-209,0,0,0,0,0,0,0,0,0,-1,1728,1233,0,0
511,-209,0,0,0,0,0,0,0,0,0,-1,1735,1233,0,0
518,-209,0,0,0,0,0,0,0,0,0,-1,1742,1233,0,0
525,-209,0,0,0,0,0,0,0,0,0,-1,1749,1233,0,0
532,-209,0,0,0,0,0,0,0,0,0,-1,1756,1233,0,0
539,-209,0,0,0,0,0,0,0,0,0,-1,1763,1233,0,0
546,-209,0,0,0,0,0,0,0,0,0,-1,1770,1233,0,0
553,-209,0,0,0,0,0,0,0,0,0,-1,1777,1233,0,0
560,-209,0,0,0,0,0,0,0,0,0,-1,1784,1233,0,0
567,-209,0,0,0,0,0,0,0,0,0,-1,1791,1233,0,0
574,-209,0,0,0,0,0,0,0,0,0,-1,1798,1233,0,0
581,-209,0,0,0,0,0,0,0,0,0,-1,1805,1233,0,0
588,-209,0,0,0,0,0,0,0,0,0,-1,1812,1233,0,0
595,-209,0,0,0,0,0,0,0,0,0,-1,1819,1233,0,0
602,-209,0,0,0,0,0,0,0,0,0,-1,1826,1233,0,0
609,-209,0,0,0,0,0,0,0,0,0,-1,1833,1233,0,0
616,-209,0,0,0,0,0,0,0,0,0,-1,1840,1233,0,0
623,-209,83.0613,2.44519,-0.00169091,0.000878797,-0.00285029,0.00272045,-0.00353256,-0.997149,0.00362031,0.0349414,1847,1233,83.0613,-2.44513
630,-209,83.041,2.36389,-0.00130878,0.00143188,-0.00284356,0.00321807,-0.00309497,-1.00993,0.00364507,0.0376946,1854,1233,83.041,-2.36395
637,-209,83.0426,2.36377,-0.00096793,0.00201665,-0.00277445,0.00367468,-0.00262595,-1.03214,0.00365443,0.0366929,1861,1233,83.0427,-2.36376
644,-209,83.0415,2.39929,-0.000579812,0.00247132,-0.00268717,0.00403578,-0.00214426,-1.04357,0.00362333,0.0296434,1868,1233,83.0414,-2.3993
651,-209,83.0574,2.3999,-0.000220235,0.00248853,-0.00243163,0.00391752,-0.00164923,-1.03949,0.0033017,0.0221738,1875,1233,83.0573,-2.39985
658,-209,83.0856,2.36951,-0.000201787,0.00246397,-0.00171419,0.0033025,-0.00104032,-1.11585,0.00261827,0.0195932,1882,1233,83.0856,-2.36951
665,-209,83.1995,2.37683,-0.000455231,0.00228141,-0.00115299,0.00270241,-0.000876234,-1.2207,0.00215394,0.0401332,1889,1233,83.1995,-2.3768
672,-209,83.3662,2.42627,0,0,0,0,0,0,0,-1,1896,1233,83.3662,-2.42626
679,-209,55.2465,2.78674,0,0,0,0,0,0,0,-1,1903,1233,55.2464,-2.78678
686,-209,33.3711,3.89856,0,0,0,0,0,0,0,-1,1910,1233,33.3711,-3.89855
693,-209,60.7567,13.6616,0,0,0,0,0,0,0,-1,1917,1233,60.7567,-13.6616
700,-209,65.2872,14.3776,0,0,0,0,0,0,0,-1,1924,1233,65.2872,-14.3776
707,-209,65.1986,13.5322,-0.000435923,0.00219462,0.000651973,0.00234734,-0.000588646,1.3407,0.0017936,0.034577,1931,1233,65.1986,-13.5322
714,-209,65.1348,12.7894,-0.000352198,0.00263653,0.000792495,0.00283367,-0.000549334,1.32699,0.00209635,0.0236842,1938,1233,65.1348,-12.7894
721,-209,65.1887,11.9659,-0.000301587,0.00291402,0.00111785,0.00326444,-0.000652001,1.26703,0.00242304,0.0147758,1945,1233,65.1888,-11.9659
728,-209,65.1963,11.1553,-0.000172046,0.00251337,0.00140148,0.00311154,-0.000770217,1.16739,0.00237314,0.0146906,1952,1233,65.1963,-11.1553
735,-209,65.1443,10.3558,2.18553e-05,0.00197055,0.00158247,0.00285458,-0.000862172,1.06134,0.00224629,0.0175731,1959,1233,65.1442,-10.3559
742,-209,65.0568,9.50818,0.000137817,0.00137933,0.00194391,0.00279919,-0.00128205,0.939947,0.00240996,0.0176423,1966,1233,65.0567,-9.50814
749,-209,64.9637,8.69043,0.000301213,0.00089838,0.00253663,0.00315394,-0.00195435,0.843983,0.00297625,0.0155683,1973,1233,64.9638,-8.69041
756,-209,64.9336,7.90942,0.000594323,0.000576045,0.00337098,0.00395617,-0.0027858,0.784043,0.00391198,0.0137737,1980,1233,64.9336,-7.90938
763,-209,64.8677,7.19641,0.000956941,0.000623274,0.00475039,0.00554343,-0.00396321,0.767845,0.00551388,0.0300907,1987,1233,64.8677,-7.19645
770,-209,64.9263,6.64441,0,0,0,0,0,0,0,-1,1994,1233,64.9264,-6.64439
777,-209,68.0347,-0.36377,0,0,0,0,0,0,0,-1,2001,1233,68.0346,0.363742
784,-209,67.6289,0.771729,0,0,0,0,0,0,0,-1,2008,1233,67.6289,-0.771742
791,-209,67.1841,1.90906,0,0,0,0,0,0,0,-1,2015,1233,67.1841,-1.90909
798,-209,53.6404,3.71179,0,0,0,0,0,0,0,-1,2022,1233,53.6404,-3.71185
805,-209,0,0,0,0,0,0,0,0,0,-1,2029,1233,0,0
812,-209,0,0,0,0,0,0,0,0,0,-1,2036,1233,0,0
-700,-216,0,0,0,0,0,0,0,0,0,-1,524,1240,0,0
-693,-216,0,0,0,0,0,0,0,0,0,-1,531,1240,0,0
-686,-216,0,0,0,0,0,0,0,0,0,-1,538,1240,0,0
-679,-216,-62.1001,-3.45081,0.0134501,0.112817,0.119669,0.192707,-0.0664394,0.982157,0.155425,0.0484052,545,1240,-62.1001,3.45082
-672,-216,-62.4428,-2.92798,0.036649,0.109773,0.114625,0.193526,-0.0471036,0.939783,0.147251,0.0476496,552,1240,-62.4428,2.92795
-665,-216,-63.0957,-2.51477,0,0,0,0,0,0,0,-1,559,1240,-63.0957,2.51473
-658,-216,-63.1249,-2.71765,0,0,0,0,0,0,0,-1,566,1240,-63.1249,2.71761
-651,-216,-63.4149,-2.69446,0,0,0,0,0,0,0,-1,573,1240,-63.4149,2.69441
-644,-216,-63.9308,-2.41199,0,0,0,0,0,0,0,-1,580,1240,-63.9308,2.41198
-637,-216,-64.0598,-2.06567,0,0,0,0,0,0,0,-1,587,1240,-64.0598,2.0657
-630,-216,-47.2775,7.0675,0,0,0,0,0,0,0,-1,594,1240,-47.2775,-7.06748
-623,-216,-47.4924,7.9502,0.0185781,0.0219498,0.0226771,0.0430036,-0.00247572,0.8225,0.0295289,0.0259477,601,1240,-47.4924,-7.95023
-616,-216,-47.5909,8.67957,0.0112599,0.0124841,0.0117223,0.0236102,0.000133726,0.811483,0.0156958,0.0132517,608,1240,-47.5909,-8.67958
-609,-216,-47.6583,9.52539,0.0018703,0.00358959,0.00189486,0.00481069,0.000649201,0.99835,0.00301412,0.0132158,615,1240,-47.6584,-9.52545
-602,-216,-47.7319,10.3492,-0.00473048,-0.000660477,-0.0038131,0.00162667,-0.00701763,-1.03051,0.00530444,0.0138294,622,1240,-47.7319,-10.3493
-595,-216,-47.8401,11.1727,-0.00643971,-0.000394891,-0.00323769,0.00101188,-0.00784648,-1.16091,0.00559884,0.023735,629,1240,-47.8402,-11.1728
-588,-216,-47.982,12.01,0,0,0,0,0,0,0,-1,636,1240,-47.982,-12.01
-581,-216,-45.3167,11.9463,0,0,0,0,0,0,0,-1,643,1240,-45.3167,-11.9463
-574,-216,-45.8644,12.6111,0,0,0,0,0,0,0,-1,650,1240,-45.8644,-12.6111
-567,-216,-45.868,13.364,0,0,0,0,0,0,0,-1,657,1240,-45.868,-13.364
-560,-216,-16.5087,5.4574,0,0,0,0,0,0,0,-1,664,1240,-16.5087,-5.45746
-553,-216,-16.2355,1.22351,0,0,0,0,0,0,0,-1,671,1240,-16.2356,-1.22356
-546,-216,-37.1617,-0.25415,0,0,0,0,0,0,0,-1,678,1240,-37.1618,0.254161
-539,-216,-47.7817,1.47327,0,0,0,0,0,0,0,-1,685,1240,-47.7818,-1.4733
-532,-216,-65.6186,0.630005,0,0,0,0,0,0,0,-1,692,1240,-65.6186,-0.629952
-525,-216,-65.7311,0.634644,-0.00954559,-0.00299379,-0.00170363,-0.00257729,-0.0099621,-1.33102,0.00597069,0.0488737,699,1240,-65.7311,-0.6346
-518,-216,-65.8076,0.501953,-0.0105041,-0.00273316,-0.000681313,-0.00267388,-0.0105633,-1.484,0.0063417,0.0417384,706,1240,-65.8076,-0.50195
-511,-216,-65.8209,0.448853,-0.0105056,-0.00243239,0.00136125,-0.00220904,-0.0107289,1.40817,0.00654178,0.0423447,713,1240,-65.8209,-0.44881
-504,-216,-65.8568,0.503418,-0.00883297,-0.00174865,0.00583832,0.00153802,-0.0121196,1.05807,0.00863819,0.0426389,720,1240,-65.8568,-0.50341
-497,-216,0,0,0,0,0,0,0,0,0,-1,727,1240,0,0
-490,-216,0,0,0,0,0,0,0,0,0,-1,734,1240,0,0
-483,-216,0,0,0,0,0,0,0,0,0,-1,741,1240,0,0
-476,-216,0,0,0,0,0,0,0,0,0,-1,748,1240,0,0
-469,-216,0,0,0,0,0,0,0,0,0,-1,755,1240,0,0
-462,-216,0,0,0,0,0,0,0,0,0,-1,762,1240,0,0
-455,-216,0,0,0,0,0,0,0,0,0,-1,769,1240,0,0
-448,-216,0,0,0,0,0,0,0,0,0,-1,776,1240,0,0
-441,-216,0,0,0,0,0,0,0,0,0,-1,783,1240,0,0
-434,-216,0,0,0,0,0,0,0,0,0,-1,790,1240,0,0
-427,-216,0,0,0,0,0,0,0,0,0,-1,797,1240,0,0
-420,-216,0,0,0,0,0,0,0,0,0,-1,804,1240,0,0
-413,-216,0,0,0,0,0,0,0,0,0,-1,811,1240,0,0
-406,-216,0,0,0,0,0,0,0,0,0,-1,818,1240,0,0
-399,-216,0,0,0,0,0,0,0,0,0,-1,825,1240,0,0
-392,-216,0,0,0,0,0,0,0,0,0,-1,832,1240,0,0
-385,-216,0,0,0,0,0,0,0,0,0,-1,839,1240,0,0
-378,-216,0,0,0,0,0,0,0,0,0,-1,846,1240,0,0
-371,-216,0,0,0,0,0,0,0,0,0,-1,853,1240,0,0
-364,-216,0,0,0,0,0,0,0,0,0,-1,860,1240,0,0
-357,-216,0,0,0,0,0,0,0,0,0,-1,867,1240,0,0
-350,-216,0,0,0,0,0,0,0,0,0,-1,874,1240,0,0
-343,-216,0,0,0,0,0,0,0,0,0,-1,881,1240,0,0
-336,-216,0,0,0,0,0,0,0,0,0,-1,888,1240,0,0
-329,-216,0,0,0,0,0,0,0,0,0,-1,895,1240,0,0
-322,-216,0,0,0,0,0,0,0,0,0,-1,902,1240,0,0
-315,-216,0,0,0,0,0,0,0,0,0,-1,909,1240,0,0
-308,-216,0,0,0,0,0,0,0,0,0,-1,916,1240,0,0
-301,-216,0,0,0,0,0,0,0,0,0,-1,923,1240,0,0
-294,-216,0,0,0,0,0,0,0,0,0,-1,930,1240,0,0
-287,-216,0,0,0,0,0,0,0,0,0,-1,937,1240,0,0
-280,-216,0,0,0,0,0,0,0,0,0,-1,944,1240,0,0
-273,-216,0,0,0,0,0,0,0,0,0,-1,951,1240,0,0
-266,-216,0,0,0,0,0,0,0,0,0,-1,958,1240,0,0
-259,-216,0,0,0,0,0,0,0,0,0,-1,965,1240,0,0
-252,-216,0,0,0,0,0,0,0,0,0,-1,972,1240,0,0
-245,-216,0,0,0,0,0,0,0,0,0,-1,979,1240,0,0
-238,-216,0,0,0,0,0,0,0,0,0,-1,986,1240,0,0
-231,-216,0,0,0,0,0,0,0,0,0,-1,993,1240,0,0
-224,-216,0,0,0,0,0,0,0,0,0,-1,1000,1240,0,0
-217,-216,0,0,0,0,0,0,0,0,0,-1,1007,1240,0,0
-210,-216,0,0,0,0,0,0,0,0,0,-1,1014,1240,0,0
-203,-216,0,0,0,0,0,0,0,0,0,-1,1021,1240,0,0
-196,-216,0,0,0,0,0,0,0,0,0,-1,1028,1240,0,0
-189,-216,0,0,0,0,0,0,0,0,0,-1,1035,1240,0,0
-182,-216,0,0,0,0,0,0,0,0,0,-1,1042,1240,0,0
-175,-216,0,0,0,0,0,0,0,0,0,-1,1049,1240,0,0
-168,-216,0,0,0,0,0,0,0,0,0,-1,1056,1240,0,0
-161,-216,0,0,0,0,0,0,0,0,0,-1,1063,1240,0,0
-154,-216,0,0,0,0,0,0,0,0,0,-1,1070,1240,0,0
-147,-216,0,0,0,0,0,0,0,0,0,-1,1077,1240,0,0
-140,-216,0,0,0,0,0,0,0,0,0,-1,1084,1240,0,0
-133,-216,0,0,0,0,0,0,0,0,0,-1,1091,1240,0,0
-126,-216,0,0,0,0,0,0,0,0,0,-1,1098,1240,0,0
-119,-216,0,0,0,0,0,0,0,0,0,-1,1105,1240,0,0
-112,-216,0,0,0,0,0,0,0,0,0,-1,1112,1240,0,0
-105,-216,0,0,0,0,0,0,0,0,0,-1,1119,1240,0,0
-98,-216,0,0,0,0,0,0,0,0,0,-1,1126,1240,0,0
-91,-216,0,0,0,0,0,0,0,0,0,-1,1133,1240,0,0
-84,-216,0,0,0,0,0,0,0,0,0,-1,1140,1240,0,0
-77,-216,0,0,0,0,0,0,0,0,0,-1,1147,1240,0,0
-70,-216,0,0,0,0,0,0,0,0,0,-1,1154,1240,0,0
-63,-216,0,0,0,0,0,0,0,0,0,-1,1161,1240,0,0
-56,-216,0,0,0,0,0,0,0,0,0,-1,1168,1240,0,0
-49,-216,0,0,0,0,0,0,0,0,0,-1,1175,1240,0,0
-42,-216,0,0,0,0,0,0,0,0,0,-1,1182,1240,0,0
-35,-216,0,0,0,0,0,0,0,0,0,-1,1189,1240,0,0
-28,-216,0,0,0,0,0,0,0,0,0,-1,1196,1240,0,0
-21,-216,0,0,0,0,0,0,0,0,0,-1,1203,1240,0,0
-14,-216,0,0,0,0,0,0,0,0,0,-1,1210,1240,0,0
-7,-216,0,0,0,0,0,0,0,0,0,-1,1217,1240,0,0
0,-216,0,0,0,0,0,0,0,0,0,-1,1224,1240,0,0
7,-216,0,0,0,0,0,0,0,0,0,-1,1231,1240,0,0
14,-216,0,0,0,0,0,0,0,0,0,-1,1238,1240,0,0
21,-216,0,0,0,0,0,0,0,0,0,-1,1245,1240,0,0
28,-216,0,0,0,0,0,0,0,0,0,-1,1252,1240,0,0
35,-216,0,0,0,0,0,0,0,0,0,-1,1259,1240,0,0
42,-216,0,0,0,0,0,0,0,0,0,-1,1266,1240,0,0
49,-216,0,0,0,0,0,0,0,0,0,-1,1273,1240,0,0
56,-216,0,0,0,0,0,0,0,0,0,-1,1280,1240,0,0
63,-216,0,0,0,0,0,0,0,0,0,-1,1287,1240,0,0
70,-216,0,0,0,0,0,0,0,0,0,-1,1294,1240,0,0
77,-216,0,0,0,0,0,0,0,0,0,-1,1301,1240,0,0
84,-216,0,0,0,0,0,0,0,0,0,-1,1308,1240,0,0
91,-216,0,0,0,0,0,0,0,0,0,-1,1315,1240,0,0
98,-216,0,0,0,0,0,0,0,0,0,-1,1322,1240,0,0
105,-216,0,0,0,0,0,0,0,0,0,-1,1329,1240,0,0
112,-216,0,0,0,0,0,0,0,0,0,-1,1336,1240,0,0
119,-216,0,0,0,0,0,0,0,0,0,-1,1343,1240,0,0
126,-216,0,0,0,0,0,0,0,0,0,-1,1350,1240,0,0
133,-216,0,0,0,0,0,0,0,0,0,-1,1357,1240,0,0
140,-216,0,0,0,0,0,0,0,0,0,-1,1364,1240,0,0
147,-216,0,0,0,0,0,0,0,0,0,-1,1371,1240,0,0
154,-216,0,0,0,0,0,0,0,0,0,-1,1378,1240,0,0
161,-216,0,0,0,0,0,0,0,0,0,-1,1385,1240,0,0
168,-216,0,0,0,0,0,0,0,0,0,-1,1392,1240,0,0
175,-216,0,0,0,0,0,0,0,0,0,-1,1399,1240,0,0
182,-216,0,0,0,0,0,0,0,0,0,-1,1406,1240,0,0
189,-216,0,0,0,0,0,0,0,0,0,-1,1413,1240,0,0
196,-216,0,0,0,0,0,0,0,0,0,-1,1420,1240,0,0
203,-216,0,0,0,0,0,0,0,0,0,-1,1427,1240,0,0
210,-216,0,0,0,0,0,0,0,0,0,-1,1434,1240,0,0
217,-216,0,0,0,0,0,0,0,0,0,-1,1441,1240,0,0
224,-216,0,0,0,0,0,0,0,0,0,-1,1448,1240,0,0
231,-216,0,0,0,0,0,0,0,0,0,-1,1455,1240,0,0
238,-216,0,0,0,0,0,0,0,0,0,-1,1462,1240,0,0
245,-216,0,0,0,0,0,0,0,0,0,-1,1469,1240,0,0
252,-216,0,0,0,0,0,0,0,0,0,-1,1476,1240,0,0
259,-216,0,0,0,0,0,0,0,0,0,-1,1483,1240,0,0
266,-216,0,0,0,0,0,0,0,0,0,-1,1490,1240,0,0
273,-216,0,0,0,0,0,0,0,0,0,-1,1497,1240,0,0
280,-216,0,0,0,0,0,0,0,0,0,-1,1504,1240,0,0
287,-216,0,0,0,0,0,0,0,0,0,-1,1511,1240,0,0
294,-216,0,0,0,0,0,0,0,0,0,-1,1518,1240,0,0
301,-216,0,0,0,0,0,0,0,0,0,-1,1525,1240,0,0
308,-216,0,0,0,0,0,0,0,0,0,-1,1532,1240,0,0
315,-216,0,0,0,0,0,0,0,0,0,-1,1539,1240,0,0
322,-216,0,0,0,0,0,0,0,0,0,-1,1546,1240,0,0
329,-216,0,0,0,0,0,0,0,0,0,-1,1553,1240,0,0
336,-216,0,0,0,0,0,0,0,0,0,-1,1560,1240,0,0
343,-216,0,0,0,0,0,0,0,0,0,-1,1567,1240,0,0
350,-216,0,0,0,0,0,0,0,0,0,-1,1574,1240,0,0
357,-216,0,0,0,0,0,0,0,0,0,-1,1581,1240,0,0
364,-216,0,0,0,0,0,0,0,0,0,-1,1588,1240,0,0
371,-216,0,0,0,0,0,0,0,0,0,-1,1595,1240,0,0
378,-216,0,0,0,0,0,0,0,0,0,-1,1602,1240,0,0
385,-216,0,0,0,0,0,0,0,0,0,-1,1609,1240,0,0
392,-216,0,0,0,0,0,0,0,0,0,-1,1616,1240,0,0
399,-216,0,0,0,0,0,0,0,0,0,-1,1623,1240,0,0
406,-216,0,0,0,0,0,0,0,0,0,-1,1630,1240,0,0
413,-216,0,0,0,0,0,0,0,0,0,-1,1637,1240,0,0
420,-216,0,0,0,0,0,0,0,0,0,-1,1644,1240,0,0
427,-216,0,0,0,0,0,0,0,0,0,-1,1651,1240,0,0
434,-216,0,0,0,0,0,0,0,0,0,-1,1658,1240,0,0
441,-216,0,0,0,0,0,0,0,0,0,-1,1665,1240,0,0
448,-216,0,0,0,0,0,0,0,0,0,-1,1672,1240,0,0
455,-216,0,0,0,0,0,0,0,0,0,-1,1679,1240,0,0
462,-216,0,0,0,0,0,0,0,0,0,-1,1686,1240,0,0
469,-216,0,0,0,0,0,0,0,0,0,-1,1693,1240,0,0
476,-216,0,0,0,0,0,0,0,0,0,-1,1700,1240,0,0
483,-216,0,0,0,0,0,0,0,0,0,-1,1707,1240,0,0
490,-216,0,0,0,0,0,0,0,0,0,-1,1714,1240,0,0
497,-216,0,0,0,0,0,0,0,0,0,-1,1721,1240,0,0
504,-216,0,0,0,0,0,0,0,0,0,-1,1728,1240,0,0
511,-216,0,0,0,0,0,0,0,0,0,-1,1735,1240,0,0
518,-216,0,0,0,0,0,0,0,0,0,-1,1742,1240,0,0
525,-216,0,0,0,0,0,0,0,0,0,-1,1749,1240,0,0
532,-216,0,0,0,0,0,0,0,0,0,-1,1756,1240,0,0
539,-216,0,0,0,0,0,0,0,0,0,-1,1763,1240,0,0
546,-216,0,0,0,0,0,0,0,0,0,-1,1770,1240,0,0
553,-216,0,0,0,0,0,0,0,0,0,-1,1777,1240,0,0
560,-216,0,0,0,0,0,0,0,0,0,-1,1784,1240,0,0
567,-216,0,0,0,0,0,0,0,0,0,-1,1791,1240,0,0
574,-216,0,0,0,0,0,0,0,0,0,-1,1798,1240,0,0
581,-216,0,0,0,0,0,0,0,0,0,-1,1805,1240,0,0
588,-216,0,0,0,0,0,0,0,0,0,-1,1812,1240,0,0
595,-216,0,0,0,0,0,0,0,0,0,-1,1819,1240,0,0
602,-216,0,0,0,0,0,0,0,0,0,-1,1826,1240,0,0
609,-216,0,0,0,0,0,0,0,0,0,-1,1833,1240,0,0
616,-216,0,0,0,0,0,0,0,0,0,-1,1840,1240,0,0
623,-216,82.9509,2.57385,-0.0022026,0.00214523,-0.00217691,0.00304781,-0.00310518,-1.17775,0.00355249,0.0395857,1847,1240,82.9509,-2.57388
630,-216,82.9261,2.64539,-0.00192484,0.00287251,-0.00242256,0.003883,-0.00293533,-1.17562,0.00394922,0.0372392,1854,1240,82.9262,-2.64538
637,-216,82.9991,2.53552,-0.00162321,0.00354064,-0.00256447,0.00459779,-0.00268036,-1.17979,0.00425037,0.0308557,1861,1240,82.9992,-2.53555
644,-216,83.0197,2.46924,-0.00115621,0.00377792,-0.00263314,0.00491916,-0.00229744,-1.16182,0.00425717,0.0253916,1868,1240,83.0196,-2.4692
651,-216,83.0287,2.42505,-0.00073403,0.00333953,-0.00236044,0.00442047,-0.00181497,-1.14136,0.00370331,0.0222786,1875,1240,83.0287,-2.42504
658,-216,83.111,2.4137,-0.000634521,0.00300048,-0.00164361,0.00363344,-0.00126748,-1.2032,0.0029374,0.0306066,1882,1240,83.1109,-2.41373
665,-216,83.2937,2.50793,0,0,0,0,0,0,0,-1,1889,1240,83.2937,-2.50795
672,-216,68.6339,1.33826,0,0,0,0,0,0,0,-1,1896,1240,68.6339,-1.33828
679,-216,47.3159,3.82703,0,0,0,0,0,0,0,-1,1903,1240,47.316,-3.82708
686,-216,21.5172,6.19458,0,0,0,0,0,0,0,-1,1910,1240,21.5172,-6.19453
693,-216,56.1224,12.7039,0,0,0,0,0,0,0,-1,1917,1240,56.1224,-12.7038
700,-216,64.4286,14.5135,0,0,0,0,0,0,0,-1,1924,1240,64.4286,-14.5136
707,-216,64.6637,13.361,0,0,0,0,0,0,0,-1,1931,1240,64.6637,-13.361
714,-216,64.458,12.7391,-0.000741045,0.0023057,0.00106514,0.00264114,-0.00107648,1.2657,0.00220883,0.0334409,1938,1240,64.458,-12.7392
721,-216,64.3737,12.0458,-0.000795086,0.00247901,0.00142071,0.00300953,-0.0013256,1.21341,0.00256506,0.0143314,1945,1240,64.3737,-12.0458
728,-216,64.3861,11.2247,-0.00075757,0.00200706,0.00169949,0.00281542,-0.00156593,1.12682,0.00256363,0.0147164,1952,1240,64.3861,-11.2247
735,-216,64.3784,10.4087,-0.000686518,0.00141877,0.00193075,0.00256519,-0.00183293,1.03497,0.00255096,0.0173232,1959,1240,64.3784,-10.4087
742,-216,64.2543,9.58936,-0.000677149,0.000804587,0.00234474,0.00252272,-0.00239528,0.93842,0.00283973,0.0189289,1966,1240,64.2543,-9.58931
749,-216,64.1708,8.74817,-0.000637785,0.00023662,0.00295156,0.00278318,-0.00318435,0.858926,0.00344795,0.0138889,1973,1240,64.1708,-8.74815
756,-216,64.1179,7.94287,-0.000530414,-0.000278704,0.003795,0.00339253,-0.00420164,0.801974,0.00439278,0.0123793,1980,1240,64.1179,-7.94293
763,-216,64.051,7.18872,-0.000465075,-0.000515813,0.00516856,0.00467818,-0.00565907,0.782944,0.00597716,0.0249666,1987,1240,64.0511,-7.18876
770,-216,64.1162,6.47852,0,0,0,0,0,0,0,-1,1994,1240,64.1163,-6.47848
777,-216,64.28,5.74475,0,0,0,0,0,0,0,-1,2001,1240,64.28,-5.74481
784,-216,68.2205,0.660034,0,0,0,0,0,0,0,-1,2008,1240,68.2204,-0.660033
791,-216,67.71,1.8468,0,0,0,0,0,0,0,-1,2015,1240,67.7099,-1.84686
798,-216,0,0,0,0,0,0,0,0,0,-1,2022,1240,0,0
805,-216,0,0,0,0,0,0,0,0,0,-1,2029,1240,0,0
812,-216,0,0,0,0,0,0,0,0,0,-1,2036,1240,0,0
-700,-223,0,0,0,0,0,0,0,0,0,-1,524,1247,0,0
-693,-223,0,0,0,0,0,0,0,0,0,-1,531,1247,0,0
-686,-223,0,0,0,0,0,0,0,0,0,-1,538,1247,0,0
-679,-223,0,0,0,0,0,0,0,0,0,-1,545,1247,0,0
-672,-223,-62.402,-3.55042,0,0,0,0,0,0,0,-1,552,1247,-62.402,3.55047
-665,-223,-63.9935,-3.2948,0,0,0,0,0,0,0,-1,559,1247,-63.9935,3.29484
-658,-223,-63.3841,5.9071,0,0,0,0,0,0,0,-1,566,1247,-63.3841,-5.90706
-651,-223,-62.239,8.10327,0,0,0,0,0,0,0,-1,573,1247,-62.239,-8.10331
-644,-223,-63.6605,-3.14734,0,0,0,0,0,0,0,-1,580,1247,-63.6605,3.14729
-637,-223,-49.2922,0.294189,0,0,0,0,0,0,0,-1,587,1247,-49.2922,-0.294245
-630,-223,-45.5125,6.42651,0,0,0,0,0,0,0,-1,594,1247,-45.5125,-6.42646
-623,-223,-46.7435,7.86194,0,0,0,0,0,0,0,-1,601,1247,-46.7435,-7.862
-616,-223,-46.7736,8.71985,0.0180783,0.0153602,0.017864,0.0346349,-0.00119636,0.747432,0.0234989,0.0172462,608,1247,-46.7736,-8.71987
-609,-223,-46.8058,9.55811,0.0064595,0.00558681,0.0060606,0.0120994,-5.31324e-05,0.749462,0.00808407,0.0121036,615,1247,-46.8059,-9.55814
-602,-223,-46.8576,10.3857,-0.00196544,0.000193422,-0.00151123,0.000971136,-0.00274315,-1.09552,0.00222431,0.0152932,622,1247,-46.8576,-10.3857
-595,-223,-46.9086,11.2893,-0.00547521,-0.000421052,-0.00264015,0.000706524,-0.00660279,-1.16716,0.00465527,0.0229913,629,1247,-46.9086,-11.2893
-588,-223,-46.977,12.1588,0,0,0,0,0,0,0,-1,636,1247,-46.977,-12.1588
-581,-223,-46.1657,12.4594,0,0,0,0,0,0,0,-1,643,1247,-46.1657,-12.4594
-574,-223,-47.5043,14.4656,0,0,0,0,0,0,0,-1,650,1247,-47.5043,-14.4656
-567,-223,-47.7158,14.5013,0,0,0,0,0,0,0,-1,657,1247,-47.7158,-14.5014
-560,-223,-31.8748,9.50732,0,0,0,0,0,0,0,-1,664,1247,-31.8748,-9.50735
-553,-223,-11.4025,4.14722,0,0,0,0,0,0,0,-1,671,1247,-11.4025,-4.14719
-546,-223,-26.9034,-0.148682,0,0,0,0,0,0,0,-1,678,1247,-26.9034,0.14867
-539,-223,-36.7405,0.35376,0,0,0,0,0,0,0,-1,685,1247,-36.7405,-0.353807
-532,-223,-47.6184,1.39844,0,0,0,0,0,0,0,-1,692,1247,-47.6184,-1.3984
-525,-223,-65.6311,0.578979,0,0,0,0,0,0,0,-1,699,1247,-65.6311,-0.579027
-518,-223,-65.7104,0.432617,0,0,0,0,0,0,0,-1,706,1247,-65.7105,-0.432604
-511,-223,-65.7991,0.414917,-0.0139492,-0.00480336,0.00153311,-0.00455321,-0.0141993,1.40906,0.00837192,0.0394969,713,1247,-65.7991,-0.414927
-504,-223,-65.9078,0.531982,-0.0137869,-0.0043801,0.0052646,-0.0020239,-0.0161431,1.14998,0.0101549,0.0410569,720,1247,-65.9079,-0.531987
-497,-223,0,0,0,0,0,0,0,0,0,-1,727,1247,0,0
-490,-223,0,0,0,0,0,0,0,0,0,-1,734,1247,0,0
-483,-223,0,0,0,0,0,0,0,0,0,-1,741,1247,0,0
-476,-223,0,0,0,0,0,0,0,0,0,-1,748,1247,0,0
-469,-223,0,0,0,0,0,0,0,0,0,-1,755,1247,0,0
-462,-223,0,0,0,0,0,0,0,0,0,-1,762,1247,0,0
-455,-223,0,0,0,0,0,0,0,0,0,-1,769,1247,0,0
-448,-223,0,0,0,0,0,0,0,0,0,-1,776,1247,0,0
-441,-223,0,0,0,0,0,0,0,0,0,-1,783,1247,0,0
-434,-223,0,0,0,0,0,0,0,0,0,-1,790,1247,0,0
-427,-223,0,0,0,0,0,0,0,0,0,-1,797,1247,0,0
-420,-223,0,0,0,0,0,0,0,0,0,-1,804,1247,0,0
-413,-223,0,0,0,0,0,0,0,0,0,-1,811,1247,0,0
-406,-223,0,0,0,0,0,0,0,0,0,-1,818,1247,0,0
-399,-223,0,0,0,0,0,0,0,0,0,-1,825,1247,0,0
-392,-223,0,0,0,0,0,0,0,0,0,-1,832,1247,0,0
-385,-223,0,0,0,0,0,0,0,0,0,-1,839,1247,0,0
-378,-223,0,0,0,0,0,0,0,0,0,-1,846,1247,0,0
-371,-223,0,0,0,0,0,0,0,0,0,-1,853,1247,0,0
-364,-223,0,0,0,0,0,0,0,0,0,-1,860,1247,0,0
-357,-223,0,0,0,0,0,0,0,0,0,-1,867,1247,0,0
-350,-223,0,0,0,0,0,0,0,0,0,-1,874,1247,0,0
-343,-223,0,0,0,0,0,0,0,0,0,-1,881,1247,0,0
-336,-223,0,0,0,0,0,0,0,0,0,-1,888,1247,0,0
-329,-223,0,0,0,0,0,0,0,0,0,-1,895,1247,0,0
-322,-223,0,0,0,0,0,0,0,0,0,-1,902,1247,0,0
-315,-223,0,0,0,0,0,0,0,0,0,-1,909,1247,0,0
-308,-223,0,0,0,0,0,0,0,0,0,-1,916,1247,0,0
-301,-223,0,0,0,0,0,0,0,0,0,-1,923,1247,0,0
-294,-223,0,0,0,0,0,0,0,0,0,-1,930,1247,0,0
-287,-223,0,0,0,0,0,0,0,0,0,-1,937,1247,0,0
-280,-223,0,0,0,0,0,0,0,0,0,-1,944,1247,0,0
-273,-223,0,0,0,0,0,0,0,0,0,-1,951,1247,0,0
-266,-223,0,0,0,0,0,0,0,0,0,-1,958,1247,0,0
-259,-223,0,0,0,0,0,0,0,0,0,-1,965,1247,0,0
-252,-223,0,0,0,0,0,0,0,0,0,-1,972,1247,0,0
-245,-223,0,0,0,0,0,0,0,0,0,-1,979,1247,0,0
-238,-223,0,0,0,0,0,0,0,0,0,-1,986,1247,0,0
-231,-223,0,0,0,0,0,0,0,0,0,-1,993,1247,0,0
-224,-223,0,0,0,0,0,0,0,0,0,-1,1000,1247,0,0
-217,-223,0,0,0,0,0,0,0,0,0,-1,1007,1247,0,0
-210,-223,0,0,0,0,0,0,0,0,0,-1,1014,1247,0,0
-203,-223,0,0,0,0,0,0,0,0,0,-1,1021,1247,0,0
-196,-223,0,0,0,0,0,0,0,0,0,-1,1028,1247,0,0
-189,-223,0,0,0,0,0,0,0,0,0,-1,1035,1247,0,0
-182,-223,0,0,0,0,0,0,0,0,0,-1,1042,1247,0,0
-175,-223,0,0,0,0,0,0,0,0,0,-1,1049,1247,0,0
-168,-223,0,0,0,0,0,0,0,0,0,-1,1056,1247,0,0
-161,-223,0,0,0,0,0,0,0,0,0,-1,1063,1247,0,0
-154,-223,0,0,0,0,0,0,0,0,0,-1,1070,1247,0,0
-147,-223,0,0,0,0,0,0,0,0,0,-1,1077,1247,0,0
-140,-223,0,0,0,0,0,0,0,0,0,-1,1084,1247,0,0
-133,-223,0,0,0,0,0,0,0,0,0,-1,1091,1247,0,0
-126,-223,0,0,0,0,0,0,0,0,0,-1,1098,1247,0,0
-119,-223,0,0,0,0,0,0,0,0,0,-1,1105,1247,0,0
-112,-223,0,0,0,0,0,0,0,0,0,-1,1112,1247,0,0
-105,-223,0,0,0,0,0,0,0,0,0,-1,1119,1247,0,0
-98,-223,0,0,0,0,0,0,0,0,0,-1,1126,1247,0,0
-91,-223,0,0,0,0,0,0,0,0,0,-1,1133,1247,0,0
-84,-223,0,0,0,0,0,0,0,0,0,-1,1140,1247,0,0
-77,-223,0,0,0,0,0,0,0,0,0,-1,1147,1247,0,0
-70,-223,0,0,0,0,0,0,0,0,0,-1,1154,1247,0,0
-63,-223,0,0,0,0,0,0,0,0,0,-1,1161,1247,0,0
-56,-223,0,0,0,0,0,0,0,0,0,-1,1168,1247,0,0
-49,-223,0,0,0,0,0,0,0,0,0,-1,1175,1247,0,0
-42,-223,0,0,0,0,0,0,0,0,0,-1,1182,1247,0,0
-35,-223,0,0,0,0,0,0,0,0,0,-1,1189,1247,0,0
-28,-223,0,0,0,0,0,0,0,0,0,-1,1196,1247,0,0
-21,-223,0,0,0,0,0,0,0,0,0,-1,1203,1247,0,0
-14,-223,0,0,0,0,0,0,0,0,0,-1,1210,1247,0,0
-7,-223,0,0,0,0,0,0,0,0,0,-1,1217,1247,0,0
0,-223,0,0,0,0,0,0,0,0,0,-1,1224,1247,0,0
7,-223,0,0,0,0,0,0,0,0,0,-1,1231,1247,0,0
14,-223,0,0,0,0,0,0,0,0,0,-1,1238,1247,0,0
21,-223,0,0,0,0,0,0,0,0,0,-1,1245,1247,0,0
28,-223,0,0,0,0,0,0,0,0,0,-1,1252,1247,0,0
35,-223,0,0,0,0,0,0,0,0,0,-1,1259,1247,0,0
42,-223,0,0,0,0,0,0,0,0,0,-1,1266,1247,0,0
49,-223,0,0,0,0,0,0,0,0,0,-1,1273,1247,0,0
56,-223,0,0,0,0,0,0,0,0,0,-1,1280,1247,0,0
63,-223,0,0,0,0,0,0,0,0,0,-1,1287,1247,0,0
70,-223,0,0,0,0,0,0,0,0,0,-1,1294,1247,0,0
77,-223,0,0,0,0,0,0,0,0,0,-1,1301,1247,0,0
84,-223,0,0,0,0,0,0,0,0,0,-1,1308,1247,0,0
91,-223,0,0,0,0,0,0,0,0,0,-1,1315,1247,0,0
98,-223,0,0,0,0,0,0,0,0,0,-1,1322,1247,0,0
105,-223,0,0,0,0,0,0,0,0,0,-1,1329,1247,0,0
112,-223,0,0,0,0,0,0,0,0,0,-1,1336,1247,0,0
119,-223,0,0,0,0,0,0,0,0,0,-1,1343,1247,0,0
126,-223,0,0,0,0,0,0,0,0,0,-1,1350,1247,0,0
133,-223,0,0,0,0,0,0,0,0,0,-1,1357,1247,0,0
140,-223,0,0,0,0,0,0,0,0,0,-1,1364,1247,0,0
147,-223,0,0,0,0,0,0,0,0,0,-1,1371,1247,0,0
154,-223,0,0,0,0,0,0,0,0,0,-1,1378,1247,0,0
161,-223,0,0,0,0,0,0,0,0,0,-1,1385,1247,0,0
168,-223,0,0,0,0,0,0,0,0,0,-1,1392,1247,0,0
175,-223,0,0,0,0,0,0,0,0,0,-1,1399,1247,0,0
182,-223,0,0,0,0,0,0,0,0,0,-1,1406,1247,0,0
189,-223,0,0,0,0,0,0,0,0,0,-1,1413,1247,0,0
196,-223,0,0,0,0,0,0,0,0,0,-1,1420,1247,0,0
203,-223,0,0,0,0,0,0,0,0,0,-1,1427,1247,0,0
210,-223,0,0,0,0,0,0,0,0,0,-1,1434,1247,0,0
217,-223,0,0,0,0,0,0,0,0,0,-1,1441,1247,0,0
224,-223,0,0,0,0,0,0,0,0,0,-1,1448,1247,0,0
231,-223,0,0,0,0,0,0,0,0,0,-1,1455,1247,0,0
238,-223,0,0,0,0,0,0,0,0,0,-1,1462,1247,0,0
245,-223,0,0,0,0,0,0,0,0,0,-1,1469,1247,0,0
252,-223,0,0,0,0,0,0,0,0,0,-1,1476,1247,0,0
259,-223,0,0,0,0,0,0,0,0,0,-1,1483,1247,0,0
266,-223,0,0,0,0,0,0,0,0,0,-1,1490,1247,0,0
273,-223,0,0,0,0,0,0,0,0,0,-1,1497,1247,0,0
280,-223,0,0,0,0,0,0,0,0,0,-1,1504,1247,0,0
287,-223,0,0,0,0,0,0,0,0,0,-1,1511,1247,0,0
294,-223,0,0,0,0,0,0,0,0,0,-1,1518,1247,0,0
301,-223,0,0,0,0,0,0,0,0,0,-1,1525,1247,0,0
308,-223,0,0,0,0,0,0,0,0,0,-1,1532,1247,0,0
315,-223,0,0,0,0,0,0,0,0,0,-1,1539,1247,0,0
322,-223,0,0,0,0,0,0,0,0,0,-1,1546,1247,0,0
329,-223,0,0,0,0,0,0,0,0,0,-1,1553,1247,0,0
336,-223,0,0,0,0,0,0,0,0,0,-1,1560,1247,0,0
343,-223,0,0,0,0,0,0,0,0,0,-1,1567,1247,0,0
350,-223,0,0,0,0,0,0,0,0,0,-1,1574,1247,0,0
357,-223,0,0,0,0,0,0,0,0,0,-1,1581,1247,0,0
364,-223,0,0,0,0,0,0,0,0,0,-1,1588,1247,0,0
371,-223,0,0,0,0,0,0,0,0,0,-1,1595,1247,0,0
378,-223,0,0,0,0,0,0,0,0,0,-1,1602,1247,0,0
385,-223,0,0,0,0,0,0,0,0,0,-1,1609,1247,0,0
392,-223,0,0,0,0,0,0,0,0,0,-1,1616,1247,0,0
399,-223,0,0,0,0,0,0,0,0,0,-1,1623,1247,0,0
406,-223,0,0,0,0,0,0,0,0,0,-1,1630,1247,0,0
413,-223,0,0,0,0,0,0,0,0,0,-1,1637,1247,0,0
420,-223,0,0,0,0,0,0,0,0,0,-1,1644,1247,0,0
427,-223,0,0,0,0,0,0,0,0,0,-1,1651,1247,0,0
434,-223,0,0,0,0,0,0,0,0,0,-1,1658,1247,0,0
441,-223,0,0,0,0,0,0,0,0,0,-1,1665,1247,0,0
448,-223,0,0,0,0,0,0,0,0,0,-1,1672,1247,0,0
455,-223,0,0,0,0,0,0,0,0,0,-1,1679,1247,0,0
462,-223,0,0,0,0,0,0,0,0,0,-1,1686,1247,0,0
469,-223,0,0,0,0,0,0,0,0,0,-1,1693,1247,0,0
476,-223,0,0,0,0,0,0,0,0,0,-1,1700,1247,0,0
483,-223,0,0,0,0,0,0,0,0,0,-1,1707,1247,0,0
490,-223,0,0,0,0,0,0,0,0,0,-1,1714,1247,0,0
497,-223,0,0,0,0,0,0,0,0,0,-1,1721,1247,0,0
504,-223,0,0,0,0,0,0,0,0,0,-1,1728,1247,0,0
511,-223,0,0,0,0,0,0,0,0,0,-1,1735,1247,0,0
518,-223,0,0,0,0,0,0,0,0,0,-1,1742,1247,0,0
525,-223,0,0,0,0,0,0,0,0,0,-1,1749,1247,0,0
532,-223,0,0,0,0,0,0,0,0,0,-1,1756,1247,0,0
539,-223,0,0,0,0,0,0,0,0,0,-1,1763,1247,0,0
546,-223,0,0,0,0,0,0,0,0,0,-1,1770,1247,0,0
553,-223,0,0,0,0,0,0,0,0,0,-1,1777,1247,0,0
560,-223,0,0,0,0,0,0,0,0,0,-1,1784,1247,0,0
567,-223,0,0,0,0,0,0,0,0,0,-1,1791,1247,0,0
574,-223,0,0,0,0,0,0,0,0,0,-1,1798,1247,0,0
581,-223,0,0,0,0,0,0,0,0,0,-1,1805,1247,0,0
588,-223,0,0,0,0,0,0,0,0,0,-1,1812,1247,0,0
595,-223,0,0,0,0,0,0,0,0,0,-1,1819,1247,0,0
602,-223,0,0,0,0,0,0,0,0,0,-1,1826,1247,0,0
609,-223,0,0,0,0,0,0,0,0,0,-1,1833,1247,0,0
616,-223,0,0,0,0,0,0,0,0,0,-1,1840,1247,0,0
623,-223,82.9008,2.73999,-0.00291676,0.00374798,-0.00157228,0.00410028,-0.00326906,-1.35037,0.0042637,0.0400589,1847,1247,82.9008,-2.73998
630,-223,82.9164,2.75769,-0.00256752,0.00470465,-0.00205912,0.00524721,-0.00311008,-1.31316,0.00487739,0.0354561,1854,1247,82.9164,-2.75775
637,-223,83.0129,2.45642,-0.00216966,0.0055068,-0.00244788,0.00622094,-0.0028838,-1.28693,0.00537303,0.0276205,1861,1247,83.0129,-2.45642
644,-223,82.9773,2.37903,-0.00153342,0.00533248,-0.00261702,0.00621623,-0.00241717,-1.24513,0.00514284,0.0231478,1868,1247,82.9773,-2.37897
651,-223,82.9913,2.30957,-0.00109418,0.00434126,-0.00223569,0.00514267,-0.0018956,-1.2266,0.00420523,0.0311538,1875,1247,82.9913,-2.30952
658,-223,83.0419,2.29419,0,0,0,0,0,0,0,-1,1882,1247,83.0419,-2.29421
665,-223,68.7177,1.6427,0,0,0,0,0,0,0,-1,1889,1247,68.7176,-1.64275
672,-223,56.4625,2.72424,0,0,0,0,0,0,0,-1,1896,1247,56.4626,-2.72418
679,-223,43.2783,2.46973,0,0,0,0,0,0,0,-1,1903,1247,43.2784,-2.46978
686,-223,40.7926,10.0316,0,0,0,0,0,0,0,-1,1910,1247,40.7926,-10.0316
693,-223,63.9714,15.4623,0,0,0,0,0,0,0,-1,1917,1247,63.9715,-15.4623
700,-223,63.7605,14.6316,0,0,0,0,0,0,0,-1,1924,1247,63.7604,-14.6316
707,-223,63.9758,13.5145,0,0,0,0,0,0,0,-1,1931,1247,63.9758,-13.5146
714,-223,63.7045,12.802,-0.000942355,0.00191705,0.00133741,0.00244508,-0.00147039,1.19477,0.00228383,0.0319571,1938,1247,63.7045,-12.802
721,-223,63.5382,12.0643,-0.00114262,0.00195637,0.00171002,0.0027145,-0.00190075,1.15349,0.00267838,0.0147459,1945,1247,63.5382,-12.0643
728,-223,63.4987,11.2452,-0.00127249,0.00152499,0.00201146,0.00257624,-0.00232373,1.08921,0.00283025,0.0201647,1952,1247,63.4987,-11.2452
735,-223,63.4852,10.4634,-0.00138477,0.00109117,0.00231512,0.00247853,-0.00277213,1.03092,0.00303305,0.0213803,1959,1247,63.4852,-10.4633
742,-223,63.3964,9.68054,-0.00153248,0.000662598,0.00279703,0.00256972,-0.0034396,0.972364,0.00348158,0.0186061,1966,1247,63.3963,-9.68059
749,-223,63.3286,8.80054,-0.001627,0.000247025,0.00345447,0.00288931,-0.00426928,0.917835,0.00415853,0.0137494,1973,1247,63.3286,-8.80054
756,-223,63.2554,7.95361,-0.00165766,-0.000165475,0.00437382,0.00352543,-0.00534857,0.869876,0.00515932,0.015447,1980,1247,63.2554,-7.95364
763,-223,63.2166,7.21387,-0.00172246,-0.000299864,0.005818,0.00485015,-0.00687248,0.846226,0.00680155,0.0221311,1987,1247,63.2166,-7.21393
770,-223,63.448,6.42578,0,0,0,0,0,0,0,-1,1994,1247,63.4479,-6.42576
777,-223,53.7227,4.88562,0,0,0,0,0,0,0,-1,2001,1247,53.7227,-4.8856
784,-223,68.8677,0.507813,0,0,0,0,0,0,0,-1,2008,1247,68.8676,-0.507816
791,-223,34.7136,2.92554,0,0,0,0,0,0,0,-1,2015,1247,34.7137,-2.92555
798,-223,0,0,0,0,0,0,0,0,0,-1,2022,1247,0,0
805,-223,0,0,0,0,0,0,0,0,0,-1,2029,1247,0,0
812,-223,0,0,0,0,0,0,0,0,0,-1,2036,1247,0,0
-700,-230,0,0,0,0,0,0,0,0,0,-1,524,1254,0,0
-693,-230,0,0,0,0,0,0,0,0,0,-1,531,1254,0,0
-686,-230,0,0,0,0,0,0,0,0,0,-1,538,1254,0,0
-679,-230,0,0,0,0,0,0,0,0,0,-1,545,1254,0,0
-672,-230,-62.3795,-4.1322,0,0,0,0,0,0,0,-1,552,1254,-62.3795,4.13214
-665,-230,-65.3589,3.60669,0.124124,0.13072,0.158855,0.286311,-0.0314671,0.795778,0.202181,0.0426259,559,1254,-65.3589,-3.60666
-658,-230,-64.1229,5.63257,0.111533,0.111106,0.137644,0.248963,-0.0263244,0.784622,0.17541,0.0464047,566,1254,-64.1229,-5.63259
-651,-230,-63.107,7.8844,0.0953684,0.0919998,0.115369,0.209065,-0.0216967,0.778099,0.147143,0.0479821,573,1254,-63.107,-7.88438
-644,-230,-62.1854,10.1193,0,0,0,0,0,0,0,-1,580,1254,-62.1854,-10.1193
-637,-230,-49.1636,-0.158325,0,0,0,0,0,0,0,-1,587,1254,-49.1636,0.158288
-630,-230,-41.3331,5.24744,0,0,0,0,0,0,0,-1,594,1254,-41.3331,-5.24744
-623,-230,-45.8731,7.86145,0,0,0,0,0,0,0,-1,601,1254,-45.8731,-7.86142
-616,-230,-45.8848,8.74463,0.0259213,0.0184107,0.0247428,0.0471922,-0.00286014,0.710086,0.0324568,0.0206357,608,1254,-45.8848,-8.74464
-609,-230,-45.9198,9.61206,0.0119829,0.00759859,0.0108552,0.020865,-0.00128355,0.685765,0.014357,0.0127856,615,1254,-45.9198,-9.61208
-602,-230,-45.9635,10.4584,0.0015195,0.000880037,0.0011666,0.0024094,-9.85304e-06,0.651646,0.00160956,0.0123133,622,1254,-45.9635,-10.4584
-595,-230,-46.0275,11.3683,-0.00385124,-0.000567569,-0.00192823,0.000323122,-0.00474194,-1.13807,0.00327432,0.0200102,629,1254,-46.0276,-11.3683
-588,-230,-46.2234,12.2633,-0.00570308,-0.000816688,-0.00208402,-4.86029e-05,-0.00647117,-1.21768,0.004298,0.033099,636,1254,-46.2235,-12.2633
-581,-230,-46.4065,13.2048,0,0,0,0,0,0,0,-1,643,1254,-46.4065,-13.2048
-574,-230,-46.2302,14.2532,0,0,0,0,0,0,0,-1,650,1254,-46.2302,-14.2531
-567,-230,-46.4335,14.6583,0,0,0,0,0,0,0,-1,657,1254,-46.4335,-14.6584
-560,-230,-46.8038,15.0242,0,0,0,0,0,0,0,-1,664,1254,-46.8037,-15.0242
-553,-230,-13.1939,4.9718,0,0,0,0,0,0,0,-1,671,1254,-13.1939,-4.97175
-546,-230,-15.23,0.453979,0,0,0,0,0,0,0,-1,678,1254,-15.23,-0.453996
-539,-230,-25.8232,0.512817,0,0,0,0,0,0,0,-1,685,1254,-25.8232,-0.512878
-532,-230,-21.1644,1.52966,0,0,0,0,0,0,0,-1,692,1254,-21.1644,-1.52969
-525,-230,-29.4775,0.731445,0,0,0,0,0,0,0,-1,699,1254,-29.4775,-0.731432
-518,-230,-65.5079,0.399658,0,0,0,0,0,0,0,-1,706,1254,-65.5079,-0.399643
-511,-230,-65.7777,0.46875,-0.0162597,-0.00757076,0.00214957,-0.00706805,-0.0167624,1.34106,0.00971727,0.0438108,713,1254,-65.7777,-0.468748
-504,-230,-65.9402,0.515991,-0.0181344,-0.008032,0.00570245,-0.0054653,-0.0207011,1.14785,0.0123876,0.0401947,720,1254,-65.9402,-0.516004
-497,-230,0,0,0,0,0,0,0,0,0,-1,727,1254,0,0
-490,-230,0,0,0,0,0,0,0,0,0,-1,734,1254,0,0
-483,-230,0,0,0,0,0,0,0,0,0,-1,741,1254,0,0
-476,-230,0,0,0,0,0,0,0,0,0,-1,748,1254,0,0
-469,-230,0,0,0,0,0,0,0,0,0,-1,755,1254,0,0
-462,-230,0,0,0,0,0,0,0,0,0,-1,762,1254,0,0
-455,-230,0,0,0,0,0,0,0,0,0,-1,769,1254,0,0
-448,-230,0,0,0,0,0,0,0,0,0,-1,776,1254,0,0
-441,-230,0,0,0,0,0,0,0,0,0,-1,783,1254,0,0
-434,-230,0,0,0,0,0,0,0,0,0,-1,790,1254,0,0
-427,-230,0,0,0,0,0,0,0,0,0,-1,797,1254,0,0
-420,-230,0,0,0,0,0,0,0,0,0,-1,804,1254,0,0
-413,-230,0,0,0,0,0,0,0,0,0,-1,811,1254,0,0
-406,-230,0,0,0,0,0,0,0,0,0,-1,818,1254,0,0
-399,-230,0,0,0,0,0,0,0,0,0,-1,825,1254,0,0
-392,-230,0,0,0,0,0,0,0,0,0,-1,832,1254,0,0
-385,-230,0,0,0,0,0,0,0,0,0,-1,839,1254,0,0
-378,-230,0,0,0,0,0,0,0,0,0,-1,846,1254,0,0
-371,-230,0,0,0,0,0,0,0,0,0,-1,853,1254,0,0
-364,-230,0,0,0,0,0,0,0,0,0,-1,860,1254,0,0
-357,-230,0,0,0,0,0,0,0,0,0,-1,867,1254,0,0
-350,-230,0,0,0,0,0,0,0,0,0,-1,874,1254,0,0
-343,-230,0,0,0,0,0,0,0,0,0,-1,881,1254,0,0
-336,-230,0,0,0,0,0,0,0,0,0,-1,888,1254,0,0
-329,-230,0,0,0,0,0,0,0,0,0,-1,895,1254,0,0
-322,-230,0,0,0,0,0,0,0,0,0,-1,902,1254,0,0
-315,-230,0,0,0,0,0,0,0,0,0,-1,909,1254,0,0
-308,-230,0,0,0,0,0,0,0,0,0,-1,916,1254,0,0
-301,-230,0,0,0,0,0,0,0,0,0,-1,923,1254,0,0
-294,-230,0,0,0,0,0,0,0,0,0,-1,930,1254,0,0
-287,-230,0,0,0,0,0,0,0,0,0,-1,937,1254,0,0
-280,-230,0,0,0,0,0,0,0,0,0,-1,944,1254,0,0
-273,-230,0,0,0,0,0,0,0,0,0,-1,951,1254,0,0
-266,-230,0,0,0,0,0,0,0,0,0,-1,958,1254,0,0
-259,-230,0,0,0,0,0,0,0,0,0,-1,965,1254,0,0
-252,-230,0,0,0,0,0,0,0,0,0,-1,972,1254,0,0
-245,-230,0,0,0,0,0,0,0,0,0,-1,979,1254,0,0
-238,-230,0,0,0,0,0,0,0,0,0,-1,986,1254,0,0
-231,-230,0,0,0,0,0,0,0,0,0,-1,993,1254,0,0
-224,-230,0,0,0,0,0,0,0,0,0,-1,1000,1254,0,0
-217,-230,0,0,0,0,0,0,0,0,0,-1,1007,1254,0,0
-210,-230,0,0,0,0,0,0,0,0,0,-1,1014,1254,0,0
-203,-230,0,0,0,0,0,0,0,0,0,-1,1021,1254,0,0
-196,-230,0,0,0,0,0,0,0,0,0,-1,1028,1254,0,0
-189,-230,0,0,0,0,0,0,0,0,0,-1,1035,1254,0,0
-182,-230,0,0,0,0,0,0,0,0,0,-1,1042,1254,0,0
-175,-230,0,0,0,0,0,0,0,0,0,-1,1049,1254,0,0
-168,-230,0,0,0,0,0,0,0,0,0,-1,1056,1254,0,0
-161,-230,0,0,0,0,0,0,0,0,0,-1,1063,1254,0,0
-154,-230,0,0,0,0,0,0,0,0,0,-1,1070,1254,0,0
-147,-230,0,0,0,0,0,0,0,0,0,-1,1077,1254,0,0
-140,-230,0,0,0,0,0,0,0,0,0,-1,1084,1254,0,0
-133,-230,0,0,0,0,0,0,0,0,0,-1,1091,1254,0,0
-126,-230,0,0,0,0,0,0,0,0,0,-1,1098,1254,0,0
-119,-230,0,0,0,0,0,0,0,0,0,-1,1105,1254,0,0
-112,-230,0,0,0,0,0,0,0,0,0,-1,1112,1254,0,0
-105,-230,0,0,0,0,0,0,0,0,0,-1,1119,1254,0,0
-98,-230,0,0,0,0,0,0,0,0,0,-1,1126,1254,0,0
-91,-230,0,0,0,0,0,0,0,0,0,-1,1133,1254,0,0
-84,-230,0,0,0,0,0,0,0,0,0,-1,1140,1254,0,0
-77,-230,0,0,0,0,0,0,0,0,0,-1,1147,1254,0,0
-70,-230,0,0,0,0,0,0,0,0,0,-1,1154,1254,0,0
-63,-230,0,0,0,0,0,0,0,0,0,-1,1161,1254,0,0
-56,-230,0,0,0,0,0,0,0,0,0,-1,1168,1254,0,0
-49,-230,0,0,0,0,0,0,0,0,0,-1,1175,1254,0,0
-42,-230,0,0,0,0,0,0,0,0,0,-1,1182,1254,0,0
-35,-230,0,0,0,0,0,0,0,0,0,-1,1189,1254,0,0
-28,-230,0,0,0,0,0,0,0,0,0,-1,1196,1254,0,0
-21,-230,0,0,0,0,0,0,0,0,0,-1,1203,1254,0,0
-14,-230,0,0,0,0,0,0,0,0,0,-1,1210,1254,0,0
-7,-230,0,0,0,0,0,0,0,0,0,-1,1217,1254,0,0
0,-230,0,0,0,0,0,0,0,0,0,-1,1224,1254,0,0
7,-230,0,0,0,0,0,0,0,0,0,-1,1231,1254,0,0
14,-230,0,0,0,0,0,0,0,0,0,-1,1238,1254,0,0
21,-230,0,0,0,0,0,0,0,0,0,-1,1245,1254,0,0
28,-230,0,0,0,0,0,0,0,0,0,-1,1252,1254,0,0
35,-230,0,0,0,0,0,0,0,0,0,-1,1259,1254,0,0
42,-230,0,0,0,0,0,0,0,0,0,-1,1266,1254,0,0
49,-230,0,0,0,0,0,0,0,0,0,-1,1273,1254,0,0
56,-230,0,0,0,0,0,0,0,0,0,-1,1280,1254,0,0
63,-230,0,0,0,0,0,0,0,0,0,-1,1287,1254,0,0
70,-230,0,0,0,0,0,0,0,0,0,-1,1294,1254,0,0
77,-230,0,0,0,0,0,0,0,0,0,-1,1301,1254,0,0
84,-230,0,0,0,0,0,0,0,0,0,-1,1308,1254,0,0
91,-230,0,0,0,0,0,0,0,0,0,-1,1315,1254,0,0
98,-230,0,0,0,0,0,0,0,0,0,-1,1322,1254,0,0
105,-230,0,0,0,0,0,0,0,0,0,-1,1329,1254,0,0
112,-230,0,0,0,0,0,0,0,0,0,-1,1336,1254,0,0
119,-230,0,0,0,0,0,0,0,0,0,-1,1343,1254,0,0
126,-230,0,0,0,0,0,0,0,0,0,-1,1350,1254,0,0
133,-230,0,0,0,0,0,0,0,0,0,-1,1357,1254,0,0
140,-230,0,0,0,0,0,0,0,0,0,-1,1364,1254,0,0
147,-230,0,0,0,0,0,0,0,0,0,-1,1371,1254,0,0
154,-230,0,0,0,0,0,0,0,0,0,-1,1378,1254,0,0
161,-230,0,0,0,0,0,0,0,0,0,-1,1385,1254,0,0
168,-230,0,0,0,0,0,0,0,0,0,-1,1392,1254,0,0
175,-230,0,0,0,0,0,0,0,0,0,-1,1399,1254,0,0
182,-230,0,0,0,0,0,0,0,0,0,-1,1406,1254,0,0
189,-230,0,0,0,0,0,0,0,0,0,-1,1413,1254,0,0
196,-230,0,0,0,0,0,0,0,0,0,-1,1420,1254,0,0
203,-230,0,0,0,0,0,0,0,0,0,-1,1427,1254,0,0
210,-230,0,0,0,0,0,0,0,0,0,-1,1434,1254,0,0
217,-230,0,0,0,0,0,0,0,0,0,-1,1441,1254,0,0
224,-230,0,0,0,0,0,0,0,0,0,-1,1448,1254,0,0
231,-230,0,0,0,0,0,0,0,0,0,-1,1455,1254,0,0
238,-230,0,0,0,0,0,0,0,0,0,-1,1462,1254,0,0
245,-230,0,0,0,0,0,0,0,0,0,-1,1469,1254,0,0
252,-230,0,0,0,0,0,0,0,0,0,-1,1476,1254,0,0
259,-230,0,0,0,0,0,0,0,0,0,-1,1483,1254,0,0
266,-230,0,0,0,0,0,0,0,0,0,-1,1490,1254,0,0
273,-230,0,0,0,0,0,0,0,0,0,-1,1497,1254,0,0
280,-230,0,0,0,0,0,0,0,0,0,-1,1504,1254,0,0
287,-230,0,0,0,0,0,0,0,0,0,-1,1511,1254,0,0
294,-230,0,0,0,0,0,0,0,0,0,-1,1518,1254,0,0
301,-230,0,0,0,0,0,0,0,0,0,-1,1525,1254,0,0
308,-230,0,0,0,0,0,0,0,0,0,-1,1532,1254,0,0
315,-230,0,0,0,0,0,0,0,0,0,-1,1539,1254,0,0
322,-230,0,0,0,0,0,0,0,0,0,-1,1546,1254,0,0
329,-230,0,0,0,0,0,0,0,0,0,-1,1553,1254,0,0
336,-230,0,0,0,0,0,0,0,0,0,-1,1560,1254,0,0
343,-230,0,0,0,0,0,0,0,0,0,-1,1567,1254,0,0
350,-230,0,0,0,0,0,0,0,0,0,-1,1574,1254,0,0
357,-230,0,0,0,0,0,0,0,0,0,-1,1581,1254,0,0
364,-230,0,0,0,0,0,0,0,0,0,-1,1588,1254,0,0
371,-230,0,0,0,0,0,0,0,0,0,-1,1595,1254,0,0
378,-230,0,0,0,0,0,0,0,0,0,-1,1602,1254,0,0
385,-230,0,0,0,0,0,0,0,0,0,-1,1609,1254,0,0
392,-230,0,0,0,0,0,0,0,0,0,-1,1616,1254,0,0
399,-230,0,0,0,0,0,0,0,0,0,-1,1623,1254,0,0
406,-230,0,0,0,0,0,0,0,0,0,-1,1630,1254,0,0
413,-230,0,0,0,0,0,0,0,0,0,-1,1637,1254,0,0
420,-230,0,0,0,0,0,0,0,0,0,-1,1644,1254,0,0
427,-230,0,0,0,0,0,0,0,0,0,-1,1651,1254,0,0
434,-230,0,0,0,0,0,0,0,0,0,-1,1658,1254,0,0
441,-230,0,0,0,0,0,0,0,0,0,-1,1665,1254,0,0
448,-230,0,0,0,0,0,0,0,0,0,-1,1672,1254,0,0
455,-230,0,0,0,0,0,0,0,0,0,-1,1679,1254,0,0
462,-230,0,0,0,0,0,0,0,0,0,-1,1686,1254,0,0
469,-230,0,0,0,0,0,0,0,0,0,-1,1693,1254,0,0
476,-230,0,0,0,0,0,0,0,0,0,-1,1700,1254,0,0
483,-230,0,0,0,0,0,0,0,0,0,-1,1707,1254,0,0
490,-230,0,0,0,0,0,0,0,0,0,-1,1714,1254,0,0
497,-230,0,0,0,0,0,0,0,0,0,-1,1721,1254,0,0
504,-230,0,0,0,0,0,0,0,0,0,-1,1728,1254,0,0
511,-230,0,0,0,0,0,0,0,0,0,-1,1735,1254,0,0
518,-230,0,0,0,0,0,0,0,0,0,-1,1742,1254,0,0
525,-230,0,0,0,0,0,0,0,0,0,-1,1749,1254,0,0
532,-230,0,0,0,0,0,0,0,0,0,-1,1756,1254,0,0
539,-230,0,0,0,0,0,0,0,0,0,-1,1763,1254,0,0
546,-230,0,0,0,0,0,0,0,0,0,-1,1770,1254,0,0
553,-230,0,0,0,0,0,0,0,0,0,-1,1777,1254,0,0
560,-230,0,0,0,0,0,0,0,0,0,-1,1784,1254,0,0
567,-230,0,0,0,0,0,0,0,0,0,-1,1791,1254,0,0
574,-230,0,0,0,0,0,0,0,0,0,-1,1798,1254,0,0
581,-230,0,0,0,0,0,0,0,0,0,-1,1805,1254,0,0
588,-230,0,0,0,0,0,0,0,0,0,-1,1812,1254,0,0
595,-230,0,0,0,0,0,0,0,0,0,-1,1819,1254,0,0
602,-230,0,0,0,0,0,0,0,0,0,-1,1826,1254,0,0
609,-230,0,0,0,0,0,0,0,0,0,-1,1833,1254,0,0
616,-230,83.1625,2.49402,-0.0035,0.0037692,-0.0003882,0.00378987,-0.00352067,-1.51759,0.0042217,0.0377203,1840,1254,83.1625,-2.49397
623,-230,83.0851,2.54248,-0.00332707,0.00521776,-0.00115834,0.005372,-0.00348131,-1.43842,0.00515017,0.036614,1847,1254,83.085,-2.54245
630,-230,83.0624,2.59668,-0.00305757,0.00654406,-0.00190655,0.00690878,-0.0034223,-1.38178,0.00607681,0.0317632,1854,1254,83.0624,-2.59666
637,-230,83.0356,2.41565,-0.00265413,0.00753088,-0.00255937,0.00813785,-0.0032611,-1.33794,0.00677898,0.0269236,1861,1254,83.0356,-2.41568
644,-230,82.9733,2.26514,-0.00186953,0.00666885,-0.00266419,0.00743194,-0.00263262,-1.29184,0.00602698,0.02262,1868,1254,82.9732,-2.2651
651,-230,82.9408,2.20117,-0.00142625,0.0051622,-0.00213263,0.00579226,-0.00205631,-1.28353,0.00469938,0.0498758,1875,1254,82.9408,-2.20116
658,-230,82.9052,2.13562,0,0,0,0,0,0,0,-1,1882,1254,82.9051,-2.13561
665,-230,56.2585,2.51587,0,0,0,0,0,0,0,-1,1889,1254,56.2586,-2.51586
672,-230,43.0962,2.78699,0,0,0,0,0,0,0,-1,1896,1254,43.0962,-2.78698
679,-230,27.9967,2.37708,0,0,0,0,0,0,0,-1,1903,1254,27.9967,-2.3771
686,-230,40.8854,10.1788,0,0,0,0,0,0,0,-1,1910,1254,40.8853,-10.1788
693,-230,63.2469,15.3589,0,0,0,0,0,0,0,-1,1917,1254,63.247,-15.3589
700,-230,63.079,14.5553,0,0,0,0,0,0,0,-1,1924,1254,63.079,-14.5553
707,-230,62.8757,13.7717,0,0,0,0,0,0,0,-1,1931,1254,62.8757,-13.7718
714,-230,62.7728,12.9712,-0.00112499,0.0013899,0.0015857,0.00215622,-0.0018913,1.12062,0.00233851,0.0287069,1938,1254,62.7728,-12.9711
721,-230,62.6971,12.1359,-0.00154225,0.00137398,0.00196017,0.00235889,-0.00252716,1.10518,0.00282152,0.0142523,1945,1254,62.6972,-12.1359
728,-230,62.6302,11.3273,-0.00187039,0.00112393,0.00220549,0.00229242,-0.00303888,1.08359,0.00308806,0.0159372,1952,1254,62.6303,-11.3273
735,-230,62.6053,10.531,-0.00217321,0.00094691,0.00245871,0.00229873,-0.00352503,1.0681,0.00338711,0.0163039,1959,1254,62.6053,-10.531
742,-230,62.5389,9.66895,-0.00248768,0.000786368,0.00286406,0.00244824,-0.00414955,1.04503,0.00385122,0.0117675,1966,1254,62.5389,-9.66894
749,-230,62.4889,8.802,-0.00271789,0.000614226,0.00342141,0.00275366,-0.00485733,1.01198,0.0044498,0.0115093,1973,1254,62.4889,-8.80198
756,-230,62.4346,7.98096,-0.0028946,0.000415975,0.00426944,0.00333979,-0.00581841,0.97033,0.00535165,0.0167279,1980,1254,62.4346,-7.98098
763,-230,62.4377,7.1626,-0.00308293,0.000534231,0.00561263,0.00462248,-0.00717118,0.941262,0.00686187,0.0375004,1987,1254,62.4377,-7.16258
770,-230,62.7874,6.33252,0,0,0,0,0,0,0,-1,1994,1254,62.7873,-6.33249
777,-230,41.8693,3.74707,0,0,0,0,0,0,0,-1,2001,1254,41.8692,-3.74713
784,-230,35.8896,1.80334,0,0,0,0,0,0,0,-1,2008,1254,35.8897,-1.80338
791,-230,35.6028,2.20642,0,0,0,0,0,0,0,-1,2015,1254,35.6027,-2.2064
798,-230,0,0,0,0,0,0,0,0,0,-1,2022,1254,0,0
805,-230,0,0,0,0,0,0,0,0,0,-1,2029,1254,0,0
812,-230,0,0,0,0,0,0,0,0,0,-1,2036,1254,0,0
-700,-237,0,0,0,0,0,0,0,0,0,-1,524,1261,0,0
-693,-237,0,0,0,0,0,0,0,0,0,-1,531,1261,0,0
-686,-237,0,0,0,0,0,0,0,0,0,-1,538,1261,0,0
-679,-237,0,0,0,0,0,0,0,0,0,-1,545,1261,0,0
-672,-237,-66.4434,0.677856,0,0,0,0,0,0,0,-1,552,1261,-66.4434,-0.677915
-665,-237,-65.7836,2.5387,0.174828,0.150803,0.195401,0.358585,-0.0329538,0.754699,0.250764,0.0451029,559,1261,-65.7836,-2.53868
-658,-237,-64.433,5.00781,0.152164,0.126232,0.166992,0.306693,-0.0282966,0.746655,0.214517,0.0485987,566,1261,-64.433,-5.00777
-651,-237,-63.5107,7.43286,0.12622,0.103259,0.137832,0.253049,-0.0235697,0.743847,0.177079,0.0461161,573,1261,-63.5107,-7.43287
-644,-237,-62.5868,9.75488,0,0,0,0,0,0,0,-1,580,1261,-62.5868,-9.75482
-637,-237,-33.4961,2.71313,0,0,0,0,0,0,0,-1,587,1261,-33.4961,-2.71312
-630,-237,-45.178,6.85889,0,0,0,0,0,0,0,-1,594,1261,-45.1781,-6.85892
-623,-237,-44.8976,7.73083,0.0490688,0.033749,0.0479365,0.0899535,-0.00713573,0.706171,0.0624835,0.0469526,601,1261,-44.8976,-7.73077
-616,-237,-44.9174,8.75879,0.0341546,0.02119,0.0312162,0.0595545,-0.00420991,0.683024,0.0411781,0.0179015,608,1261,-44.9174,-8.75877
-609,-237,-45.0361,9.64941,0.0178389,0.00928448,0.0153784,0.0295238,-0.00240046,0.649761,0.0205295,0.0168569,615,1261,-45.0361,-9.64941
-602,-237,-45.086,10.5221,0.00516336,0.00128854,0.0036857,0.00738984,-0.000937938,0.543418,0.00526712,0.0127571,622,1261,-45.086,-10.5221
-595,-237,-45.1755,11.3818,-0.0019727,-0.000830712,-0.00113466,-0.000131471,-0.00267194,-1.01851,0.00173913,0.0162273,629,1261,-45.1755,-11.3818
-588,-237,-45.2452,12.2783,-0.0049713,-0.0012946,-0.00200692,-0.000411323,-0.00585458,-1.15619,0.00377343,0.0271494,636,1261,-45.2452,-12.2783
-581,-237,-45.3535,13.1455,-0.00636776,-0.00200454,-0.002763,-0.000665701,-0.0077066,-1.11958,0.00493084,0.0283958,643,1261,-45.3534,-13.1454
-574,-237,-45.4079,13.7638,0,0,0,0,0,0,0,-1,650,1261,-45.4079,-13.7637
-567,-237,-45.4376,14.7539,0,0,0,0,0,0,0,-1,657,1261,-45.4375,-14.7539
-560,-237,-45.5386,15.3123,0,0,0,0,0,0,0,-1,664,1261,-45.5387,-15.3122
-553,-237,-20.6102,6.92139,0,0,0,0,0,0,0,-1,671,1261,-20.6102,-6.92138
-546,-237,-11.192,1.14014,0,0,0,0,0,0,0,-1,678,1261,-11.192,-1.14011
-539,-237,-16.512,1.53455,0,0,0,0,0,0,0,-1,685,1261,-16.512,-1.53457
-532,-237,-29.7025,1.23621,0,0,0,0,0,0,0,-1,692,1261,-29.7025,-1.23618
-525,-237,-47.2925,0.590942,0,0,0,0,0,0,0,-1,699,1261,-47.2925,-0.590989
-518,-237,-48.2897,0.765869,0,0,0,0,0,0,0,-1,706,1261,-48.2897,-0.765854
-511,-237,-65.7062,0.609009,0,0,0,0,0,0,0,-1,713,1261,-65.7062,-0.608981
-504,-237,-65.964,0.66333,-0.0195724,-0.00922475,0.00643596,-0.00614084,-0.0226563,1.12395,0.01353,0.0464286,720,1261,-65.964,-0.663389
-497,-237,-66.145,0.781494,0,0,0,0,0,0,0,-1,727,1261,-66.145,-0.781494
-490,-237,0,0,0,0,0,0,0,0,0,-1,734,1261,0,0
-483,-237,0,0,0,0,0,0,0,0,0,-1,741,1261,0,0
-476,-237,0,0,0,0,0,0,0,0,0,-1,748,1261,0,0
-469,-237,0,0,0,0,0,0,0,0,0,-1,755,1261,0,0
-462,-237,0,0,0,0,0,0,0,0,0,-1,762,1261,0,0
-455,-237,0,0,0,0,0,0,0,0,0,-1,769,1261,0,0
-448,-237,0,0,0,0,0,0,0,0,0,-1,776,1261,0,0
-441,-237,0,0,0,0,0,0,0,0,0,-1,783,1261,0,0
-434,-237,0,0,0,0,0,0,0,0,0,-1,790,1261,0,0
-427,-237,0,0,0,0,0,0,0,0,0,-1,797,1261,0,0
-420,-237,0,0,0,0,0,0,0,0,0,-1,804,1261,0,0
-413,-237,0,0,0,0,0,0,0,0,0,-1,811,1261,0,0
-406,-237,0,0,0,0,0,0,0,0,0,-1,818,1261,0,0
-399,-237,0,0,0,0,0,0,0,0,0,-1,825,1261,0,0
-392,-237,0,0,0,0,0,0,0,0,0,-1,832,1261,0,0
-385,-237,0,0,0,0,0,0,0,0,0,-1,839,1261,0,0
-378,-237,0,0,0,0,0,0,0,0,0,-1,846,1261,0,0
-371,-237,0,0,0,0,0,0,0,0,0,-1,853,1261,0,0
-364,-237,0,0,0,0,0,0,0,0,0,-1,860,1261,0,0
-357,-237,0,0,0,0,0,0,0,0,0,-1,867,1261,0,0
-350,-237,0,0,0,0,0,0,0,0,0,-1,874,1261,0,0
-343,-237,0,0,0,0,0,0,0,0,0,-1,881,1261,0,0
-336,-237,0,0,0,0,0,0,0,0,0,-1,888,1261,0,0
-329,-237,0,0,0,0,0,0,0,0,0,-1,895,1261,0,0
-322,-237,0,0,0,0,0,0,0,0,0,-1,902,1261,0,0
-315,-237,0,0,0,0,0,0,0,0,0,-1,909,1261,0,0
-308,-237,0,0,0,0,0,0,0,0,0,-1,916,1261,0,0
-301,-237,0,0,0,0,0,0,0,0,0,-1,923,1261,0,0
-294,-237,0,0,0,0,0,0,0,0,0,-1,930,1261,0,0
-287,-237,0,0,0,0,0,0,0,0,0,-1,937,1261,0,0
-280,-237,0,0,0,0,0,0,0,0,0,-1,944,1261,0,0
-273,-237,0,0,0,0,0,0,0,0,0,-1,951,1261,0,0
-266,-237,0,0,0,0,0,0,0,0,0,-1,958,1261,0,0
-259,-237,0,0,0,0,0,0,0,0,0,-1,965,1261,0,0
-252,-237,0,0,0,0,0,0,0,0,0,-1,972,1261,0,0
-245,-237,0,0,0,0,0,0,0,0,0,-1,979,1261,0,0
-238,-237,0,0,0,0,0,0,0,0,0,-1,986,1261,0,0
-231,-237,0,0,0,0,0,0,0,0,0,-1,993,1261,0,0
-224,-237,0,0,0,0,0,0,0,0,0,-1,1000,1261,0,0
-217,-237,0,0,0,0,0,0,0,0,0,-1,1007,1261,0,0
-210,-237,0,0,0,0,0,0,0,0,0,-1,1014,1261,0,0
-203,-237,0,0,0,0,0,0,0,0,0,-1,1021,1261,0,0
-196,-237,0,0,0,0,0,0,0,0,0,-1,1028,1261,0,0
-189,-237,0,0,0,0,0,0,0,0,0,-1,1035,1261,0,0
-182,-237,0,0,0,0,0,0,0,0,0,-1,1042,1261,0,0
-175,-237,0,0,0,0,0,0,0,0,0,-1,1049,1261,0,0
-168,-237,0,0,0,0,0,0,0,0,0,-1,1056,1261,0,0
-161,-237,0,0,0,0,0,0,0,0,0,-1,1063,1261,0,0
-154,-237,0,0,0,0,0,0,0,0,0,-1,1070,1261,0,0
-147,-237,0,0,0,0,0,0,0,0,0,-1,1077,1261,0,0
-140,-237,0,0,0,0,0,0,0,0,0,-1,1084,1261,0,0
-133,-237,0,0,0,0,0,0,0,0,0,-1,1091,1261,0,0
-126,-237,0,0,0,0,0,0,0,0,0,-1,1098,1261,0,0
-119,-237,0,0,0,0,0,0,0,0,0,-1,1105,1261,0,0
-112,-237,0,0,0,0,0,0,0,0,0,-1,1112,1261,0,0
-105,-237,0,0,0,0,0,0,0,0,0,-1,1119,1261,0,0
-98,-237,0,0,0,0,0,0,0,0,0,-1,1126,1261,0,0
-91,-237,0,0,0,0,0,0,0,0,0,-1,1133,1261,0,0
-84,-237,0,0,0,0,0,0,0,0,0,-1,1140,1261,0,0
-77,-237,0,0,0,0,0,0,0,0,0,-1,1147,1261,0,0
-70,-237,0,0,0,0,0,0,0,0,0,-1,1154,1261,0,0
-63,-237,0,0,0,0,0,0,0,0,0,-1,1161,1261,0,0
-56,-237,0,0,0,0,0,0,0,0,0,-1,1168,1261,0,0
-49,-237,0,0,0,0,0,0,0,0,0,-1,1175,1261,0,0
-42,-237,0,0,0,0,0,0,0,0,0,-1,1182,1261,0,0
-35,-237,0,0,0,0,0,0,0,0,0,-1,1189,1261,0,0
-28,-237,0,0,0,0,0,0,0,0,0,-1,1196,1261,0,0
-21,-237,0,0,0,0,0,0,0,0,0,-1,1203,1261,0,0
-14,-237,0,0,0,0,0,0,0,0,0,-1,1210,1261,0,0
-7,-237,0,0,0,0,0,0,0,0,0,-1,1217,1261,0,0
0,-237,0,0,0,0,0,0,0,0,0,-1,1224,1261,0,0
7,-237,0,0,0,0,0,0,0,0,0,-1,1231,1261,0,0
14,-237,0,0,0,0,0,0,0,0,0,-1,1238,1261,0,0
21,-237,0,0,0,0,0,0,0,0,0,-1,1245,1261,0,0
28,-237,0,0,0,0,0,0,0,0,0,-1,1252,1261,0,0
35,-237,0,0,0,0,0,0,0,0,0,-1,1259,1261,0,0
42,-237,0,0,0,0,0,0,0,0,0,-1,1266,1261,0,0
49,-237,0,0,0,0,0,0,0,0,0,-1,1273,1261,0,0
56,-237,0,0,0,0,0,0,0,0,0,-1,1280,1261,0,0
63,-237,0,0,0,0,0,0,0,0,0,-1,1287,1261,0,0
70,-237,0,0,0,0,0,0,0,0,0,-1,1294,1261,0,0
77,-237,0,0,0,0,0,0,0,0,0,-1,1301,1261,0,0
84,-237,0,0,0,0,0,0,0,0,0,-1,1308,1261,0,0
91,-237,0,0,0,0,0,0,0,0,0,-1,1315,1261,0,0
98,-237,0,0,0,0,0,0,0,0,0,-1,1322,1261,0,0
105,-237,0,0,0,0,0,0,0,0,0,-1,1329,1261,0,0
112,-237,0,0,0,0,0,0,0,0,0,-1,1336,1261,0,0
119,-237,0,0,0,0,0,0,0,0,0,-1,1343,1261,0,0
126,-237,0,0,0,0,0,0,0,0,0,-1,1350,1261,0,0
133,-237,0,0,0,0,0,0,0,0,0,-1,1357,1261,0,0
140,-237,0,0,0,0,0,0,0,0,0,-1,1364,1261,0,0
147,-237,0,0,0,0,0,0,0,0,0,-1,1371,1261,0,0
154,-237,0,0,0,0,0,0,0,0,0,-1,1378,1261,0,0
161,-237,0,0,0,0,0,0,0,0,0,-1,1385,1261,0,0
168,-237,0,0,0,0,0,0,0,0,0,-1,1392,1261,0,0
175,-237,0,0,0,0,0,0,0,0,0,-1,1399,1261,0,0
182,-237,0,0,0,0,0,0,0,0,0,-1,1406,1261,0,0
189,-237,0,0,0,0,0,0,0,0,0,-1,1413,1261,0,0
196,-237,0,0,0,0,0,0,0,0,0,-1,1420,1261,0,0
203,-237,0,0,0,0,0,0,0,0,0,-1,1427,1261,0,0
210,-237,0,0,0,0,0,0,0,0,0,-1,1434,1261,0,0
217,-237,0,0,0,0,0,0,0,0,0,-1,1441,1261,0,0
224,-237,0,0,0,0,0,0,0,0,0,-1,1448,1261,0,0
231,-237,0,0,0,0,0,0,0,0,0,-1,1455,1261,0,0
238,-237,0,0,0,0,0,0,0,0,0,-1,1462,1261,0,0
245,-237,0,0,0,0,0,0,0,0,0,-1,1469,1261,0,0
252,-237,0,0,0,0,0,0,0,0,0,-1,1476,1261,0,0
259,-237,0,0,0,0,0,0,0,0,0,-1,1483,1261,0,0
266,-237,0,0,0,0,0,0,0,0,0,-1,1490,1261,0,0
273,-237,0,0,0,0,0,0,0,0,0,-1,1497,1261,0,0
280,-237,0,0,0,0,0,0,0,0,0,-1,1504,1261,0,0
287,-237,0,0,0,0,0,0,0,0,0,-1,1511,1261,0,0
294,-237,0,0,0,0,0,0,0,0,0,-1,1518,1261,0,0
301,-237,0,0,0,0,0,0,0,0,0,-1,1525,1261,0,0
308,-237,0,0,0,0,0,0,0,0,0,-1,1532,1261,0,0
315,-237,0,0,0,0,0,0,0,0,0,-1,1539,1261,0,0
322,-237,0,0,0,0,0,0,0,0,0,-1,1546,1261,0,0
329,-237,0,0,0,0,0,0,0,0,0,-1,1553,1261,0,0
336,-237,0,0,0,0,0,0,0,0,0,-1,1560,1261,0,0
343,-237,0,0,0,0,0,0,0,0,0,-1,1567,1261,0,0
350,-237,0,0,0,0,0,0,0,0,0,-1,1574,1261,0,0
357,-237,0,0,0,0,0,0,0,0,0,-1,1581,1261,0,0
364,-237,0,0,0,0,0,0,0,0,0,-1,1588,1261,0,0
371,-237,0,0,0,0,0,0,0,0,0,-1,1595,1261,0,0
378,-237,0,0,0,0,0,0,0,0,0,-1,1602,1261,0,0
385,-237,0,0,0,0,0,0,0,0,0,-1,1609,1261,0,0
392,-237,0,0,0,0,0,0,0,0,0,-1,1616,1261,0,0
399,-237,0,0,0,0,0,0,0,0,0,-1,1623,1261,0,0
406,-237,0,0,0,0,0,0,0,0,0,-1,1630,1261,0,0
413,-237,0,0,0,0,0,0,0,0,0,-1,1637,1261,0,0
420,-237,0,0,0,0,0,0,0,0,0,-1,1644,1261,0,0
427,-237,0,0,0,0,0,0,0,0,0,-1,1651,1261,0,0
434,-237,0,0,0,0,0,0,0,0,0,-1,1658,1261,0,0
441,-237,0,0,0,0,0,0,0,0,0,-1,1665,1261,0,0
448,-237,0,0,0,0,0,0,0,0,0,-1,1672,1261,0,0
455,-237,0,0,0,0,0,0,0,0,0,-1,1679,1261,0,0
462,-237,0,0,0,0,0,0,0,0,0,-1,1686,1261,0,0
469,-237,0,0,0,0,0,0,0,0,0,-1,1693,1261,0,0
476,-237,0,0,0,0,0,0,0,0,0,-1,1700,1261,0,0
483,-237,0,0,0,0,0,0,0,0,0,-1,1707,1261,0,0
490,-237,0,0,0,0,0,0,0,0,0,-1,1714,1261,0,0
497,-237,0,0,0,0,0,0,0,0,0,-1,1721,1261,0,0
504,-237,0,0,0,0,0,0,0,0,0,-1,1728,1261,0,0
511,-237,0,0,0,0,0,0,0,0,0,-1,1735,1261,0,0
518,-237,0,0,0,0,0,0,0,0,0,-1,1742,1261,0,0
525,-237,0,0,0,0,0,0,0,0,0,-1,1749,1261,0,0
532,-237,0,0,0,0,0,0,0,0,0,-1,1756,1261,0,0
539,-237,0,0,0,0,0,0,0,0,0,-1,1763,1261,0,0
546,-237,0,0,0,0,0,0,0,0,0,-1,1770,1261,0,0
553,-237,0,0,0,0,0,0,0,0,0,-1,1777,1261,0,0
560,-237,0,0,0,0,0,0,0,0,0,-1,1784,1261,0,0
567,-237,0,0,0,0,0,0,0,0,0,-1,1791,1261,0,0
574,-237,0,0,0,0,0,0,0,0,0,-1,1798,1261,0,0
581,-237,0,0,0,0,0,0,0,0,0,-1,1805,1261,0,0
588,-237,0,0,0,0,0,0,0,0,0,-1,1812,1261,0,0
595,-237,0,0,0,0,0,0,0,0,0,-1,1819,1261,0,0
602,-237,0,0,0,0,0,0,0,0,0,-1,1826,1261,0,0
609,-237,0,0,0,0,0,0,0,0,0,-1,1833,1261,0,0
616,-237,83.1797,2.36951,-0.00340833,0.00490027,-0.000329818,0.00491334,-0.0034214,-1.53118,0.00483769,0.0381272,1840,1261,83.1797,-2.36955
623,-237,83.1393,2.35864,-0.00333485,0.00701923,-0.00128857,0.00717719,-0.0034928,-1.44882,0.00628155,0.0323773,1847,1261,83.1393,-2.3586
630,-237,83.0536,2.43005,-0.00326242,0.00896872,-0.00221764,0.00935839,-0.00365209,-1.39686,0.00774869,0.0255112,1854,1261,83.0536,-2.43003
637,-237,82.9812,2.30713,-0.00296922,0.00996356,-0.00294387,0.0106021,-0.0036078,-1.35719,0.00852896,0.0214853,1861,1261,82.9812,-2.30708
644,-237,82.8986,2.16675,-0.00210906,0.00803001,-0.00275291,0.00872924,-0.00280829,-1.32206,0.00694744,0.0436072,1868,1261,82.8985,-2.16672
651,-237,82.8051,2.07104,0,0,0,0,0,0,0,-1,1875,1261,82.805,-2.07103
658,-237,76.8235,1.29675,0,0,0,0,0,0,0,-1,1882,1261,76.8235,-1.2968
665,-237,57.9302,3.30676,0,0,0,0,0,0,0,-1,1889,1261,57.9302,-3.30671
672,-237,45.3922,1.95618,0,0,0,0,0,0,0,-1,1896,1261,45.3922,-1.95623
679,-237,23.1501,7.37488,0,0,0,0,0,0,0,-1,1903,1261,23.1502,-7.37493
686,-237,36.8348,9.99426,0,0,0,0,0,0,0,-1,1910,1261,36.8349,-9.99424
693,-237,62.1029,15.5455,0,0,0,0,0,0,0,-1,1917,1261,62.1029,-15.5455
700,-237,62.2006,14.6827,-5.80627e-05,0.000788399,0.000898448,0.00135831,-0.000627975,1.00552,0.00117234,0.0471778,1924,1261,62.2006,-14.6827
707,-237,62.0421,13.9664,-0.000500592,0.000668118,0.00127736,0.00148844,-0.00132092,0.999923,0.00162294,0.0358458,1931,1261,62.0422,-13.9665
714,-237,61.8754,13.0936,-0.00113762,0.000899127,0.00165755,0.00182615,-0.00206464,1.06086,0.00224776,0.0209873,1938,1261,61.8754,-13.0937
721,-237,61.8264,12.2144,-0.00169448,0.000963043,0.00198758,0.00202511,-0.00275655,1.08005,0.00277144,0.0199783,1945,1261,61.8264,-12.2143
728,-237,61.7935,11.3779,-0.00217831,0.000929961,0.00220725,0.00207532,-0.00332367,1.09214,0.00314476,0.0169425,1952,1261,61.7934,-11.3779
735,-237,61.7498,10.5464,-0.00267058,0.000958744,0.00247964,0.0022168,-0.00392864,1.10128,0.00359366,0.0200078,1959,1261,61.7497,-10.5464
742,-237,61.7064,9.70374,-0.00318748,0.000994079,0.00289428,0.00247377,-0.00466717,1.09819,0.00418715,0.0154929,1966,1261,61.7064,-9.70369
749,-237,61.6239,8.88342,-0.00363114,0.000996224,0.00344453,0.00283199,-0.0054669,1.08114,0.0048712,0.0107463,1973,1261,61.6238,-8.88346
756,-237,61.5747,8.06079,-0.0040846,0.000954025,0.00431793,0.00343386,-0.00656444,1.04948,0.00586608,0.0188174,1980,1261,61.5747,-8.06075
763,-237,61.5691,7.20972,0,0,0,0,0,0,0,-1,1987,1261,61.569,-7.20976
770,-237,60.6333,5.94031,0,0,0,0,0,0,0,-1,1994,1261,60.6333,-5.94028
777,-237,56.8215,4.47815,0,0,0,0,0,0,0,-1,2001,1261,56.8214,-4.47817
784,-237,36.3441,1.68591,0,0,0,0,0,0,0,-1,2008,1261,36.3441,-1.68592
791,-237,32.3025,6.03235,0,0,0,0,0,0,0,-1,2015,1261,32.3025,-6.03229
798,-237,0,0,0,0,0,0,0,0,0,-1,2022,1261,0,0
805,-237,0,0,0,0,0,0,0,0,0,-1,2029,1261,0,0
812,-237,0,0,0,0,0,0,0,0,0,-1,2036,1261,0,0
-700,-244,0,0,0,0,0,0,0,0,0,-1,524,1268,0,0
-693,-244,0,0,0,0,0,0,0,0,0,-1,531,1268,0,0
-686,-244,0,0,0,0,0,0,0,0,0,-1,538,1268,0,0
-679,-244,0,0,0,0,0,0,0,0,0,-1,545,1268,0,0
-672,-244,-66.4932,-0.814697,0,0,0,0,0,0,0,-1,552,1268,-66.4932,0.814671
-665,-244,-65.833,1.05164,0.232488,0.172973,0.238488,0.443068,-0.0376074,0.723331,0.308679,0.0468301,559,1268,-65.833,-1.05168
-658,-244,-65.2102,2.84094,0.196887,0.142227,0.199848,0.371265,-0.0321515,0.717443,0.258894,0.0468436,566,1268,-65.2102,-2.84088
-651,-244,-63.8176,6.81921,0.159358,0.114926,0.161786,0.300446,-0.0261619,0.717166,0.209563,0.0482059,573,1268,-63.8176,-6.81922
-644,-244,-62.6064,9.31079,0.12822,0.091529,0.129553,0.24072,-0.0209715,0.715063,0.167908,0.0476197,580,1268,-62.6065,-9.31082
-637,-244,-61.4617,11.3835,0,0,0,0,0,0,0,-1,587,1268,-61.4617,-11.3835
-630,-244,-44.9302,7.37585,0,0,0,0,0,0,0,-1,594,1268,-44.9302,-7.37581
-623,-244,-44.3857,8.08777,0.0598318,0.0374456,0.0560408,0.105786,-0.00850895,0.686829,0.0735249,0.0448512,601,1268,-44.3857,-8.08782
-616,-244,-44.0703,8.8324,0.0418744,0.0235972,0.0372658,0.0711057,-0.0056341,0.665157,0.0493891,0.0197249,608,1268,-44.0703,-8.83234
-609,-244,-44.1869,9.70813,0.0233475,0.0105989,0.0195286,0.0375158,-0.00356939,0.627645,0.0262812,0.0156359,615,1268,-44.1869,-9.70807
-602,-244,-44.2382,10.5594,0.00876975,0.00140388,0.00599718,0.0121246,-0.00195095,0.510033,0.00880571,0.0160491,622,1268,-44.2382,-10.5594
-595,-244,-44.3052,11.4452,1.40061e-05,-0.00115215,-0.000344888,0.00010837,-0.00124651,-0.267071,0.000869387,0.0173799,629,1268,-44.3052,-11.4452
-588,-244,-44.3356,12.3337,-0.0039212,-0.00176171,-0.00180819,-0.000735418,-0.00494749,-1.05456,0.00308257,0.0214931,636,1268,-44.3356,-12.3338
-581,-244,-44.3804,13.1531,-0.00617899,-0.00269284,-0.00268183,-0.00123739,-0.00763444,-1.07357,0.00473141,0.0209025,643,1268,-44.3805,-13.153
-574,-244,-44.4206,13.9122,-0.00728006,-0.00377198,-0.0034114,-0.0016901,-0.00936194,-1.02286,0.00576116,0.0379316,650,1268,-44.4206,-13.9122
-567,-244,-44.6285,14.8013,-0.00721677,-0.00441335,-0.00383011,-0.00173651,-0.00989361,-0.960813,0.00609986,0.0379679,657,1268,-44.6285,-14.8012
-560,-244,-44.7072,15.6401,-0.00721002,-0.0043093,-0.0036839,-0.00180054,-0.00971878,-0.972931,0.00597021,0.0449678,664,1268,-44.7072,-15.6401
-553,-244,-44.7147,16.4701,0,0,0,0,0,0,0,-1,671,1268,-44.7147,-16.4701
-546,-244,-11.2686,4.41772,0,0,0,0,0,0,0,-1,678,1268,-11.2686,-4.41767
-539,-244,-12.8706,0.3302,0,0,0,0,0,0,0,-1,685,1268,-12.8706,-0.330156
-532,-244,-18.1502,0.816528,0,0,0,0,0,0,0,-1,692,1268,-18.1502,-0.816514
-525,-244,-33.0835,0.693604,0,0,0,0,0,0,0,-1,699,1268,-33.0835,-0.69365
-518,-244,-47.5015,0.609131,0,0,0,0,0,0,0,-1,706,1268,-47.5015,-0.60919
-511,-244,-48.6138,1.11877,0,0,0,0,0,0,0,-1,713,1268,-48.6138,-1.11872
-504,-244,-65.9681,0.807983,0,0,0,0,0,0,0,-1,720,1268,-65.9681,-0.808021
-497,-244,-66.3099,1.05139,0,0,0,0,0,0,0,-1,727,1268,-66.3099,-1.05142
-490,-244,0,0,0,0,0,0,0,0,0,-1,734,1268,0,0
-483,-244,0,0,0,0,0,0,0,0,0,-1,741,1268,0,0
-476,-244,0,0,0,0,0,0,0,0,0,-1,748,1268,0,0
-469,-244,0,0,0,0,0,0,0,0,0,-1,755,1268,0,0
-462,-244,0,0,0,0,0,0,0,0,0,-1,762,1268,0,0
-455,-244,0,0,0,0,0,0,0,0,0,-1,769,1268,0,0
-448,-244,0,0,0,0,0,0,0,0,0,-1,776,1268,0,0
-441,-244,0,0,0,0,0,0,0,0,0,-1,783,1268,0,0
-434,-244,0,0,0,0,0,0,0,0,0,-1,790,1268,0,0
-427,-244,0,0,0,0,0,0,0,0,0,-1,797,1268,0,0
-420,-244,0,0,0,0,0,0,0,0,0,-1,804,1268,0,0
-413,-244,0,0,0,0,0,0,0,0,0,-1,811,1268,0,0
-406,-244,0,0,0,0,0,0,0,0,0,-1,818,1268,0,0
-399,-244,0,0,0,0,0,0,0,0,0,-1,825,1268,0,0
-392,-244,0,0,0,0,0,0,0,0,0,-1,832,1268,0,0
-385,-244,0,0,0,0,0,0,0,0,0,-1,839,1268,0,0
-378,-244,0,0,0,0,0,0,0,0,0,-1,846,1268,0,0
-371,-244,0,0,0,0,0,0,0,0,0,-1,853,1268,0,0
-364,-244,0,0,0,0,0,0,0,0,0,-1,860,1268,0,0
-357,-244,0,0,0,0,0,0,0,0,0,-1,867,1268,0,0
-350,-244,0,0,0,0,0,0,0,0,0,-1,874,1268,0,0
-343,-244,0,0,0,0,0,0,0,0,0,-1,881,1268,0,0
-336,-244,0,0,0,0,0,0,0,0,0,-1,888,1268,0,0
-329,-244,0,0,0,0,0,0,0,0,0,-1,895,1268,0,0
-322,-244,0,0,0,0,0,0,0,0,0,-1,902,1268,0,0
-315,-244,0,0,0,0,0,0,0,0,0,-1,909,1268,0,0
-308,-244,0,0,0,0,0,0,0,0,0,-1,916,1268,0,0
-301,-244,0,0,0,0,0,0,0,0,0,-1,923,1268,0,0
-294,-244,0,0,0,0,0,0,0,0,0,-1,930,1268,0,0
-287,-244,0,0,0,0,0,0,0,0,0,-1,937,1268,0,0
-280,-244,0,0,0,0,0,0,0,0,0,-1,944,1268,0,0
-273,-244,0,0,0,0,0,0,0,0,0,-1,951,1268,0,0
-266,-244,0,0,0,0,0,0,0,0,0,-1,958,1268,0,0
-259,-244,0,0,0,0,0,0,0,0,0,-1,965,1268,0,0
-252,-244,0,0,0,0,0,0,0,0,0,-1,972,1268,0,0
-245,-244,0,0,0,0,0,0,0,0,0,-1,979,1268,0,0
-238,-244,0,0,0,0,0,0,0,0,0,-1,986,1268,0,0
-231,-244,0,0,0,0,0,0,0,0,0,-1,993,1268,0,0
-224,-244,0,0,0,0,0,0,0,0,0,-1,1000,1268,0,0
-217,-244,0,0,0,0,0,0,0,0,0,-1,1007,1268,0,0
-210,-244,0,0,0,0,0,0,0,0,0,-1,1014,1268,0,0
-203,-244,0,0,0,0,0,0,0,0,0,-1,1021,1268,0,0
-196,-244,0,0,0,0,0,0,0,0,0,-1,1028,1268,0,0
-189,-244,0,0,0,0,0,0,0,0,0,-1,1035,1268,0,0
-182,-244,0,0,0,0,0,0,0,0,0,-1,1042,1268,0,0
-175,-244,0,0,0,0,0,0,0,0,0,-1,1049,1268,0,0
-168,-244,0,0,0,0,0,0,0,0,0,-1,1056,1268,0,0
-161,-244,0,0,0,0,0,0,0,0,0,-1,1063,1268,0,0
-154,-244,0,0,0,0,0,0,0,0,0,-1,1070,1268,0,0
-147,-244,0,0,0,0,0,0,0,0,0,-1,1077,1268,0,0
-140,-244,0,0,0,0,0,0,0,0,0,-1,1084,1268,0,0
-133,-244,0,0,0,0,0,0,0,0,0,-1,1091,1268,0,0
-126,-244,0,0,0,0,0,0,0,0,0,-1,1098,1268,0,0
-119,-244,0,0,0,0,0,0,0,0,0,-1,1105,1268,0,0
-112,-244,0,0,0,0,0,0,0,0,0,-1,1112,1268,0,0
-105,-244,0,0,0,0,0,0,0,0,0,-1,1119,1268,0,0
-98,-244,0,0,0,0,0,0,0,0,0,-1,1126,1268,0,0
-91,-244,0,0,0,0,0,0,0,0,0,-1,1133,1268,0,0
-84,-244,0,0,0,0,0,0,0,0,0,-1,1140,1268,0,0
-77,-244,0,0,0,0,0,0,0,0,0,-1,1147,1268,0,0
-70,-244,0,0,0,0,0,0,0,0,0,-1,1154,1268,0,0
-63,-244,0,0,0,0,0,0,0,0,0,-1,1161,1268,0,0
-56,-244,0,0,0,0,0,0,0,0,0,-1,1168,1268,0,0
-49,-244,0,0,0,0,0,0,0,0,0,-1,1175,1268,0,0
-42,-244,0,0,0,0,0,0,0,0,0,-1,1182,1268,0,0
-35,-244,0,0,0,0,0,0,0,0,0,-1,1189,1268,0,0
-28,-244,0,0,0,0,0,0,0,0,0,-1,1196,1268,0,0
-21,-244,0,0,0,0,0,0,0,0,0,-1,1203,1268,0,0
-14,-244,0,0,0,0,0,0,0,0,0,-1,1210,1268,0,0
-7,-244,0,0,0,0,0,0,0,0,0,-1,1217,1268,0,0
0,-244,0,0,0,0,0,0,0,0,0,-1,1224,1268,0,0
7,-244,0,0,0,0,0,0,0,0,0,-1,1231,1268,0,0
14,-244,0,0,0,0,0,0,0,0,0,-1,1238,1268,0,0
21,-244,0,0,0,0,0,0,0,0,0,-1,1245,1268,0,0
28,-244,0,0,0,0,0,0,0,0,0,-1,1252,1268,0,0
35,-244,0,0,0,0,0,0,0,0,0,-1,1259,1268,0,0
42,-244,0,0,0,0,0,0,0,0,0,-1,1266,1268,0,0
49,-244,0,0,0,0,0,0,0,0,0,-1,1273,1268,0,0
56,-244,0,0,0,0,0,0,0,0,0,-1,1280,1268,0,0
63,-244,0,0,0,0,0,0,0,0,0,-1,1287,1268,0,0
70,-244,0,0,0,0,0,0,0,0,0,-1,1294,1268,0,0
77,-244,0,0,0,0,0,0,0,0,0,-1,1301,1268,0,0
84,-244,0,0,0,0,0,0,0,0,0,-1,1308,1268,0,0
91,-244,0,0,0,0,0,0,0,0,0,-1,1315,1268,0,0
98,-244,0,0,0,0,0,0,0,0,0,-1,1322,1268,0,0
105,-244,0,0,0,0,0,0,0,0,0,-1,1329,1268,0,0
112,-244,0,0,0,0,0,0,0,0,0,-1,1336,1268,0,0
119,-244,0,0,0,0,0,0,0,0,0,-1,1343,1268,0,0
126,-244,0,0,0,0,0,0,0,0,0,-1,1350,1268,0,0
133,-244,0,0,0,0,0,0,0,0,0,-1,1357,1268,0,0
140,-244,0,0,0,0,0,0,0,0,0,-1,1364,1268,0,0
147,-244,0,0,0,0,0,0,0,0,0,-1,1371,1268,0,0
154,-244,0,0,0,0,0,0,0,0,0,-1,1378,1268,0,0
161,-244,0,0,0,0,0,0,0,0,0,-1,1385,1268,0,0
168,-244,0,0,0,0,0,0,0,0,0,-1,1392,1268,0,0
175,-244,0,0,0,0,0,0,0,0,0,-1,1399,1268,0,0
182,-244,0,0,0,0,0,0,0,0,0,-1,1406,1268,0,0
189,-244,0,0,0,0,0,0,0,0,0,-1,1413,1268,0,0
196,-244,0,0,0,0,0,0,0,0,0,-1,1420,1268,0,0
203,-244,0,0,0,0,0,0,0,0,0,-1,1427,1268,0,0
210,-244,0,0,0,0,0,0,0,0,0,-1,1434,1268,0,0
217,-244,0,0,0,0,0,0,0,0,0,-1,1441,1268,0,0
224,-244,0,0,0,0,0,0,0,0,0,-1,1448,1268,0,0
231,-244,0,0,0,0,0,0,0,0,0,-1,1455,1268,0,0
238,-244,0,0,0,0,0,0,0,0,0,-1,1462,1268,0,0
245,-244,0,0,0,0,0,0,0,0,0,-1,1469,1268,0,0
252,-244,0,0,0,0,0,0,0,0,0,-1,1476,1268,0,0
259,-244,0,0,0,0,0,0,0,0,0,-1,1483,1268,0,0
266,-244,0,0,0,0,0,0,0,0,0,-1,1490,1268,0,0
273,-244,0,0,0,0,0,0,0,0,0,-1,1497,1268,0,0
280,-244,0,0,0,0,0,0,0,0,0,-1,1504,1268,0,0
287,-244,0,0,0,0,0,0,0,0,0,-1,1511,1268,0,0
294,-244,0,0,0,0,0,0,0,0,0,-1,1518,1268,0,0
301,-244,0,0,0,0,0,0,0,0,0,-1,1525,1268,0,0
308,-244,0,0,0,0,0,0,0,0,0,-1,1532,1268,0,0
315,-244,0,0,0,0,0,0,0,0,0,-1,1539,1268,0,0
322,-244,0,0,0,0,0,0,0,0,0,-1,1546,1268,0,0
329,-244,0,0,0,0,0,0,0,0,0,-1,1553,1268,0,0
336,-244,0,0,0,0,0,0,0,0,0,-1,1560,1268,0,0
343,-244,0,0,0,0,0,0,0,0,0,-1,1567,1268,0,0
350,-244,0,0,0,0,0,0,0,0,0,-1,1574,1268,0,0
357,-244,0,0,0,0,0,0,0,0,0,-1,1581,1268,0,0
364,-244,0,0,0,0,0,0,0,0,0,-1,1588,1268,0,0
371,-244,0,0,0,0,0,0,0,0,0,-1,1595,1268,0,0
378,-244,0,0,0,0,0,0,0,0,0,-1,1602,1268,0,0
385,-244,0,0,0,0,0,0,0,0,0,-1,1609,1268,0,0
392,-244,0,0,0,0,0,0,0,0,0,-1,1616,1268,0,0
399,-244,0,0,0,0,0,0,0,0,0,-1,1623,1268,0,0
406,-244,0,0,0,0,0,0,0,0,0,-1,1630,1268,0,0
413,-244,0,0,0,0,0,0,0,0,0,-1,1637,1268,0,0
420,-244,0,0,0,0,0,0,0,0,0,-1,1644,1268,0,0
427,-244,0,0,0,0,0,0,0,0,0,-1,1651,1268,0,0
434,-244,0,0,0,0,0,0,0,0,0,-1,1658,1268,0,0
441,-244,0,0,0,0,0,0,0,0,0,-1,1665,1268,0,0
448,-244,0,0,0,0,0,0,0,0,0,-1,1672,1268,0,0
455,-244,0,0,0,0,0,0,0,0,0,-1,1679,1268,0,0
462,-244,0,0,0,0,0,0,0,0,0,-1,1686,1268,0,0
469,-244,0,0,0,0,0,0,0,0,0,-1,1693,1268,0,0
476,-244,0,0,0,0,0,0,0,0,0,-1,1700,1268,0,0
483,-244,0,0,0,0,0,0,0,0,0,-1,1707,1268,0,0
490,-244,0,0,0,0,0,0,0,0,0,-1,1714,1268,0,0
497,-244,0,0,0,0,0,0,0,0,0,-1,1721,1268,0,0
504,-244,0,0,0,0,0,0,0,0,0,-1,1728,1268,0,0
511,-244,0,0,0,0,0,0,0,0,0,-1,1735,1268,0,0
518,-244,0,0,0,0,0,0,0,0,0,-1,1742,1268,0,0
525,-244,0,0,0,0,0,0,0,0,0,-1,1749,1268,0,0
532,-244,0,0,0,0,0,0,0,0,0,-1,1756,1268,0,0
539,-244,0,0,0,0,0,0,0,0,0,-1,1763,1268,0,0
546,-244,0,0,0,0,0,0,0,0,0,-1,1770,1268,0,0
553,-244,0,0,0,0,0,0,0,0,0,-1,1777,1268,0,0
560,-244,0,0,0,0,0,0,0,0,0,-1,1784,1268,0,0
567,-244,0,0,0,0,0,0,0,0,0,-1,1791,1268,0,0
574,-244,0,0,0,0,0,0,0,0,0,-1,1798,1268,0,0
581,-244,0,0,0,0,0,0,0,0,0,-1,1805,1268,0,0
588,-244,0,0,0,0,0,0,0,0,0,-1,1812,1268,0,0
595,-244,0,0,0,0,0,0,0,0,0,-1,1819,1268,0,0
602,-244,0,0,0,0,0,0,0,0,0,-1,1826,1268,0,0
609,-244,0,0,0,0,0,0,0,0,0,-1,1833,1268,0,0
616,-244,83.0758,2.27649,-0.00334827,0.00756783,-0.000816599,0.00762857,-0.00340902,-1.49654,0.00652593,0.0342124,1840,1268,83.0758,-2.27654
623,-244,83.089,2.3634,-0.00331518,0.010099,-0.00186627,0.0103538,-0.00356999,-1.4351,0.0083509,0.026142,1847,1268,83.089,-2.36341
630,-244,83.0166,2.3739,-0.00340203,0.0120988,-0.00276877,0.0125785,-0.00388174,-1.39924,0.00993567,0.0228612,1854,1268,83.0166,-2.37385
637,-244,82.9236,2.2467,-0.00311819,0.011883,-0.00318009,0.0125293,-0.00376449,-1.37029,0.00985048,0.0370446,1861,1268,82.9236,-2.24672
644,-244,82.6025,2.13428,-0.00221994,0.00901668,-0.00269788,0.00963086,-0.00283413,-1.34696,0.00754485,0.045961,1868,1268,82.6025,-2.13434
651,-244,82.338,2.03906,0,0,0,0,0,0,0,-1,1875,1268,82.3381,-2.039
658,-244,71.6105,1.55334,0,0,0,0,0,0,0,-1,1882,1268,71.6104,-1.55332
665,-244,50.7988,1.09888,0,0,0,0,0,0,0,-1,1889,1268,50.7989,-1.09893
672,-244,32.224,3.6123,0,0,0,0,0,0,0,-1,1896,1268,32.224,-3.6123
679,-244,27.2593,7.90649,0,0,0,0,0,0,0,-1,1903,1268,27.2592,-7.9065
686,-244,61.3102,16.4084,0,0,0,0,0,0,0,-1,1910,1268,61.3102,-16.4085
693,-244,61.2473,15.6332,-0.000504866,0.000908964,0.000693305,0.0011922,-0.000788103,1.18296,0.00115124,0.0373828,1917,1268,61.2473,-15.6332
700,-244,61.2216,14.7791,0.000191462,0.000322978,0.000940577,0.00120009,-0.000685653,0.820298,0.00110216,0.0244984,1924,1268,61.2215,-14.7791
707,-244,61.1381,13.953,-0.000355492,0.00022379,0.0012902,0.00125646,-0.00138816,0.895814,0.00152751,0.018598,1931,1268,61.138,-13.953
714,-244,61.1654,13.0938,-0.00111397,0.000534333,0.00161457,0.00152293,-0.00210256,1.02138,0.00210208,0.0165763,1938,1268,61.1654,-13.0938
721,-244,61.0367,12.3135,-0.0017821,0.000780946,0.00186588,0.00176301,-0.00276416,1.08631,0.00263498,0.0241168,1945,1268,61.0368,-12.3135
728,-244,60.952,11.4204,-0.00241681,0.000996062,0.00206005,0.00196464,-0.00338539,1.13129,0.00312494,0.0306274,1952,1268,60.952,-11.4204
735,-244,60.8729,10.5221,-0.00310083,0.00124893,0.00233118,0.00226223,-0.00411413,1.16076,0.00373279,0.0286363,1959,1268,60.873,-10.5221
742,-244,60.8112,9.76514,-0.00383076,0.00151403,0.00272246,0.00265654,-0.00497327,1.17346,0.00447225,0.017785,1966,1268,60.8112,-9.76518
749,-244,60.6616,9.07715,-0.00451658,0.00175149,0.00323165,0.00311921,-0.0058843,1.17043,0.00527926,0.0262922,1973,1268,60.6616,-9.07713
756,-244,60.5215,8.40063,-0.00529531,0.00195844,0.0040892,0.00379744,-0.00713431,1.14817,0.00640871,0.0372051,1980,1268,60.5214,-8.40066
763,-244,60.5162,7.48206,0,0,0,0,0,0,0,-1,1987,1268,60.5162,-7.48203
770,-244,56.2969,5.43298,0,0,0,0,0,0,0,-1,1994,1268,56.2969,-5.43297
777,-244,48.7119,2.7002,0,0,0,0,0,0,0,-1,2001,1268,48.712,-2.70019
784,-244,31.7908,5.20081,0,0,0,0,0,0,0,-1,2008,1268,31.7907,-5.20083
791,-244,0,0,0,0,0,0,0,0,0,-1,2015,1268,0,0
798,-244,0,0,0,0,0,0,0,0,0,-1,2022,1268,0,0
805,-244,0,0,0,0,0,0,0,0,0,-1,2029,1268,0,0
812,-244,0,0,0,0,0,0,0,0,0,-1,2036,1268,0,0
-700,-251,0,0,0,0,0,0,0,0,0,-1,524,1275,0,0
-693,-251,0,0,0,0,0,0,0,0,0,-1,531,1275,0,0
-686,-251,0,0,0,0,0,0,0,0,0,-1,538,1275,0,0
-679,-251,0,0,0,0,0,0,0,0,0,-1,545,1275,0,0
-672,-251,0,0,0,0,0,0,0,0,0,-1,552,1275,0,0
-665,-251,-66.0114,0.379272,0,0,0,0,0,0,0,-1,559,1275,-66.0114,-0.379215
-658,-251,-65.2305,1.76721,0,0,0,0,0,0,0,-1,566,1275,-65.2305,-1.76721
-651,-251,-64.0574,6.18811,0,0,0,0,0,0,0,-1,573,1275,-64.0574,-6.18817
-644,-251,-62.519,9.25464,0,0,0,0,0,0,0,-1,580,1275,-62.5191,-9.25459
-637,-251,-61.4092,11.3269,0,0,0,0,0,0,0,-1,587,1275,-61.4092,-11.3269
-630,-251,-44.6793,7.53284,0,0,0,0,0,0,0,-1,594,1275,-44.6793,-7.53281
-623,-251,-43.961,8.19775,0.0690187,0.0403608,0.0630904,0.119387,-0.0100074,0.673734,0.0831281,0.0418543,601,1275,-43.961,-8.19779
-616,-251,-43.2278,8.89294,0.0486227,0.0255432,0.0422847,0.0809141,-0.00674811,0.652189,0.056327,0.0216068,608,1275,-43.2279,-8.89295
-609,-251,-43.299,9.73682,0.0281804,0.0115572,0.0228365,0.0441709,-0.00443323,0.61087,0.0310308,0.0207495,615,1275,-43.299,-9.73677
-602,-251,-43.3427,10.6272,0.0120962,0.0014686,0.00787513,0.0162826,-0.00271783,0.488607,0.0118652,0.0153044,622,1275,-43.3427,-10.6272
-595,-251,-43.4187,11.4878,0.00211974,-0.00128783,0.00043584,0.00217461,-0.0013427,0.125218,0.00204956,0.0141836,629,1275,-43.4187,-11.4878
-588,-251,-43.4662,12.3403,-0.00228918,-0.00189679,-0.00146586,-0.000614058,-0.00357191,-0.851926,0.00220527,0.0161957,636,1275,-43.4662,-12.3404
-581,-251,-43.5006,13.24,-0.00491423,-0.0028233,-0.00245466,-0.00120074,-0.00653679,-0.986719,0.00401787,0.0156302,643,1275,-43.5006,-13.24
-574,-251,-43.5392,14.1772,-0.00663306,-0.0039954,-0.0033751,-0.00169061,-0.00893785,-0.971652,0.00548262,0.0289342,650,1275,-43.5392,-14.1772
-567,-251,-43.81,14.896,-0.00713253,-0.00490761,-0.00409284,-0.00177874,-0.0102614,-0.918096,0.00633186,0.0418454,657,1275,-43.81,-14.896
-560,-251,-43.9139,15.7762,-0.0071892,-0.00492711,-0.00414967,-0.00175711,-0.0103592,-0.918448,0.00640133,0.0441591,664,1275,-43.9139,-15.7763
-553,-251,-43.7221,16.7212,0,0,0,0,0,0,0,-1,671,1275,-43.7221,-16.7212
-546,-251,-12.995,4.5675,0,0,0,0,0,0,0,-1,678,1275,-12.995,-4.56745
-539,-251,-10.7916,0.366333,0,0,0,0,0,0,0,-1,685,1275,-10.7916,-0.366282
-532,-251,-10.7391,-0.00769043,0,0,0,0,0,0,0,-1,692,1275,-10.7391,0.00773227
-525,-251,-29.4286,-0.250244,0,0,0,0,0,0,0,-1,699,1275,-29.4286,0.250266
-518,-251,-32.6981,0.678833,0,0,0,0,0,0,0,-1,706,1275,-32.6981,-0.678787
-511,-251,-29.4731,0.637085,0,0,0,0,0,0,0,-1,713,1275,-29.4731,-0.637025
-504,-251,-30.6428,0.792358,0,0,0,0,0,0,0,-1,720,1275,-30.6427,-0.792335
-497,-251,-54.1249,0.753784,0,0,0,0,0,0,0,-1,727,1275,-54.1249,-0.753774
-490,-251,0,0,0,0,0,0,0,0,0,-1,734,1275,0,0
-483,-251,0,0,0,0,0,0,0,0,0,-1,741,1275,0,0
-476,-251,0,0,0,0,0,0,0,0,0,-1,748,1275,0,0
-469,-251,0,0,0,0,0,0,0,0,0,-1,755,1275,0,0
-462,-251,0,0,0,0,0,0,0,0,0,-1,762,1275,0,0
-455,-251,0,0,0,0,0,0,0,0,0,-1,769,1275,0,0
-448,-251,0,0,0,0,0,0,0,0,0,-1,776,1275,0,0
-441,-251,0,0,0,0,0,0,0,0,0,-1,783,1275,0,0
-434,-251,0,0,0,0,0,0,0,0,0,-1,790,1275,0,0
-427,-251,0,0,0,0,0,0,0,0,0,-1,797,1275,0,0
-420,-251,0,0,0,0,0,0,0,0,0,-1,804,1275,0,0
-413,-251,0,0,0,0,0,0,0,0,0,-1,811,1275,0,0
-406,-251,0,0,0,0,0,0,0,0,0,-1,818,1275,0,0
-399,-251,0,0,0,0,0,0,0,0,0,-1,825,1275,0,0
-392,-251,0,0,0,0,0,0,0,0,0,-1,832,1275,0,0
-385,-251,0,0,0,0,0,0,0,0,0,-1,839,1275,0,0
-378,-251,0,0,0,0,0,0,0,0,0,-1,846,1275,0,0
-371,-251,0,0,0,0,0,0,0,0,0,-1,853,1275,0,0
-364,-251,0,0,0,0,0,0,0,0,0,-1,860,1275,0,0
-357,-251,0,0,0,0,0,0,0,0,0,-1,867,1275,0,0
-350,-251,0,0,0,0,0,0,0,0,0,-1,874,1275,0,0
-343,-251,0,0,0,0,0,0,0,0,0,-1,881,1275,0,0
-336,-251,0,0,0,0,0,0,0,0,0,-1,888,1275,0,0
-329,-251,0,0,0,0,0,0,0,0,0,-1,895,1275,0,0
-322,-251,0,0,0,0,0,0,0,0,0,-1,902,1275,0,0
-315,-251,0,0,0,0,0,0,0,0,0,-1,909,1275,0,0
-308,-251,0,0,0,0,0,0,0,0,0,-1,916,1275,0,0
-301,-251,0,0,0,0,0,0,0,0,0,-1,923,1275,0,0
-294,-251,0,0,0,0,0,0,0,0,0,-1,930,1275,0,0
-287,-251,0,0,0,0,0,0,0,0,0,-1,937,1275,0,0
-280,-251,0,0,0,0,0,0,0,0,0,-1,944,1275,0,0
-273,-251,0,0,0,0,0,0,0,0,0,-1,951,1275,0,0
-266,-251,0,0,0,0,0,0,0,0,0,-1,958,1275,0,0
-259,-251,0,0,0,0,0,0,0,0,0,-1,965,1275,0,0
-252,-251,0,0,0,0,0,0,0,0,0,-1,972,1275,0,0
-245,-251,0,0,0,0,0,0,0,0,0,-1,979,1275,0,0
-238,-251,0,0,0,0,0,0,0,0,0,-1,986,1275,0,0
-231,-251,0,0,0,0,0,0,0,0,0,-1,993,1275,0,0
-224,-251,0,0,0,0,0,0,0,0,0,-1,1000,1275,0,0
-217,-251,0,0,0,0,0,0,0,0,0,-1,1007,1275,0,0
-210,-251,0,0,0,0,0,0,0,0,0,-1,1014,1275,0,0
-203,-251,0,0,0,0,0,0,0,0,0,-1,1021,1275,0,0
-196,-251,0,0,0,0,0,0,0,0,0,-1,1028,1275,0,0
-189,-251,0,0,0,0,0,0,0,0,0,-1,1035,1275,0,0
-182,-251,0,0,0,0,0,0,0,0,0,-1,1042,1275,0,0
-175,-251,0,0,0,0,0,0,0,0,0,-1,1049,1275,0,0
-168,-251,0,0,0,0,0,0,0,0,0,-1,1056,1275,0,0
-161,-251,0,0,0,0,0,0,0,0,0,-1,1063,1275,0,0
-154,-251,0,0,0,0,0,0,0,0,0,-1,1070,1275,0,0
-147,-251,0,0,0,0,0,0,0,0,0,-1,1077,1275,0,0
-140,-251,0,0,0,0,0,0,0,0,0,-1,1084,1275,0,0
-133,-251,0,0,0,0,0,0,0,0,0,-1,1091,1275,0,0
-126,-251,0,0,0,0,0,0,0,0,0,-1,1098,1275,0,0
-119,-251,0,0,0,0,0,0,0,0,0,-1,1105,1275,0,0
-112,-251,0,0,0,0,0,0,0,0,0,-1,1112,1275,0,0
-105,-251,0,0,0,0,0,0,0,0,0,-1,1119,1275,0,0
-98,-251,0,0,0,0,0,0,0,0,0,-1,1126,1275,0,0
-91,-251,0,0,0,0,0,0,0,0,0,-1,1133,1275,0,0
-84,-251,0,0,0,0,0,0,0,0,0,-1,1140,1275,0,0
-77,-251,0,0,0,0,0,0,0,0,0,-1,1147,1275,0,0
-70,-251,0,0,0,0,0,0,0,0,0,-1,1154,1275,0,0
-63,-251,0,0,0,0,0,0,0,0,0,-1,1161,1275,0,0
-56,-251,0,0,0,0,0,0,0,0,0,-1,1168,1275,0,0
-49,-251,0,0,0,0,0,0,0,0,0,-1,1175,1275,0,0
-42,-251,0,0,0,0,0,0,0,0,0,-1,1182,1275,0,0
-35,-251,0,0,0,0,0,0,0,0,0,-1,1189,1275,0,0
-28,-251,0,0,0,0,0,0,0,0,0,-1,1196,1275,0,0
-21,-251,0,0,0,0,0,0,0,0,0,-1,1203,1275,0,0
-14,-251,0,0,0,0,0,0,0,0,0,-1,1210,1275,0,0
-7,-251,0,0,0,0,0,0,0,0,0,-1,1217,1275,0,0
0,-251,0,0,0,0,0,0,0,0,0,-1,1224,1275,0,0
7,-251,0,0,0,0,0,0,0,0,0,-1,1231,1275,0,0
14,-251,0,0,0,0,0,0,0,0,0,-1,1238,1275,0,0
21,-251,0,0,0,0,0,0,0,0,0,-1,1245,1275,0,0
28,-251,0,0,0,0,0,0,0,0,0,-1,1252,1275,0,0
35,-251,0,0,0,0,0,0,0,0,0,-1,1259,1275,0,0
42,-251,0,0,0,0,0,0,0,0,0,-1,1266,1275,0,0
49,-251,0,0,0,0,0,0,0,0,0,-1,1273,1275,0,0
56,-251,0,0,0,0,0,0,0,0,0,-1,1280,1275,0,0
63,-251,0,0,0,0,0,0,0,0,0,-1,1287,1275,0,0
70,-251,0,0,0,0,0,0,0,0,0,-1,1294,1275,0,0
77,-251,0,0,0,0,0,0,0,0,0,-1,1301,1275,0,0
84,-251,0,0,0,0,0,0,0,0,0,-1,1308,1275,0,0
91,-251,0,0,0,0,0,0,0,0,0,-1,1315,1275,0,0
98,-251,0,0,0,0,0,0,0,0,0,-1,1322,1275,0,0
105,-251,0,0,0,0,0,0,0,0,0,-1,1329,1275,0,0
112,-251,0,0,0,0,0,0,0,0,0,-1,1336,1275,0,0
119,-251,0,0,0,0,0,0,0,0,0,-1,1343,1275,0,0
126,-251,0,0,0,0,0,0,0,0,0,-1,1350,1275,0,0
133,-251,0,0,0,0,0,0,0,0,0,-1,1357,1275,0,0
140,-251,0,0,0,0,0,0,0,0,0,-1,1364,1275,0,0
147,-251,0,0,0,0,0,0,0,0,0,-1,1371,1275,0,0
154,-251,0,0,0,0,0,0,0,0,0,-1,1378,1275,0,0
161,-251,0,0,0,0,0,0,0,0,0,-1,1385,1275,0,0
168,-251,0,0,0,0,0,0,0,0,0,-1,1392,1275,0,0
175,-251,0,0,0,0,0,0,0,0,0,-1,1399,1275,0,0
182,-251,0,0,0,0,0,0,0,0,0,-1,1406,1275,0,0
189,-251,0,0,0,0,0,0,0,0,0,-1,1413,1275,0,0
196,-251,0,0,0,0,0,0,0,0,0,-1,1420,1275,0,0
203,-251,0,0,0,0,0,0,0,0,0,-1,1427,1275,0,0
210,-251,0,0,0,0,0,0,0,0,0,-1,1434,1275,0,0
217,-251,0,0,0,0,0,0,0,0,0,-1,1441,1275,0,0
224,-251,0,0,0,0,0,0,0,0,0,-1,1448,1275,0,0
231,-251,0,0,0,0,0,0,0,0,0,-1,1455,1275,0,0
238,-251,0,0,0,0,0,0,0,0,0,-1,1462,1275,0,0
245,-251,0,0,0,0,0,0,0,0,0,-1,1469,1275,0,0
252,-251,0,0,0,0,0,0,0,0,0,-1,1476,1275,0,0
259,-251,0,0,0,0,0,0,0,0,0,-1,1483,1275,0,0
266,-251,0,0,0,0,0,0,0,0,0,-1,1490,1275,0,0
273,-251,0,0,0,0,0,0,0,0,0,-1,1497,1275,0,0
280,-251,0,0,0,0,0,0,0,0,0,-1,1504,1275,0,0
287,-251,0,0,0,0,0,0,0,0,0,-1,1511,1275,0,0
294,-251,0,0,0,0,0,0,0,0,0,-1,1518,1275,0,0
301,-251,0,0,0,0,0,0,0,0,0,-1,1525,1275,0,0
308,-251,0,0,0,0,0,0,0,0,0,-1,1532,1275,0,0
315,-251,0,0,0,0,0,0,0,0,0,-1,1539,1275,0,0
322,-251,0,0,0,0,0,0,0,0,0,-1,1546,1275,0,0
329,-251,0,0,0,0,0,0,0,0,0,-1,1553,1275,0,0
336,-251,0,0,0,0,0,0,0,0,0,-1,1560,1275,0,0
343,-251,0,0,0,0,0,0,0,0,0,-1,1567,1275,0,0
350,-251,0,0,0,0,0,0,0,0,0,-1,1574,1275,0,0
357,-251,0,0,0,0,0,0,0,0,0,-1,1581,1275,0,0
364,-251,0,0,0,0,0,0,0,0,0,-1,1588,1275,0,0
371,-251,0,0,0,0,0,0,0,0,0,-1,1595,1275,0,0
378,-251,0,0,0,0,0,0,0,0,0,-1,1602,1275,0,0
385,-251,0,0,0,0,0,0,0,0,0,-1,1609,1275,0,0
392,-251,0,0,0,0,0,0,0,0,0,-1,1616,1275,0,0
399,-251,0,0,0,0,0,0,0,0,0,-1,1623,1275,0,0
406,-251,0,0,0,0,0,0,0,0,0,-1,1630,1275,0,0
413,-251,0,0,0,0,0,0,0,0,0,-1,1637,1275,0,0
420,-251,0,0,0,0,0,0,0,0,0,-1,1644,1275,0,0
427,-251,0,0,0,0,0,0,0,0,0,-1,1651,1275,0,0
434,-251,0,0,0,0,0,0,0,0,0,-1,1658,1275,0,0
441,-251,0,0,0,0,0,0,0,0,0,-1,1665,1275,0,0
448,-251,0,0,0,0,0,0,0,0,0,-1,1672,1275,0,0
455,-251,0,0,0,0,0,0,0,0,0,-1,1679,1275,0,0
462,-251,0,0,0,0,0,0,0,0,0,-1,1686,1275,0,0
469,-251,0,0,0,0,0,0,0,0,0,-1,1693,1275,0,0
476,-251,0,0,0,0,0,0,0,0,0,-1,1700,1275,0,0
483,-251,0,0,0,0,0,0,0,0,0,-1,1707,1275,0,0
490,-251,0,0,0,0,0,0,0,0,0,-1,1714,1275,0,0
497,-251,0,0,0,0,0,0,0,0,0,-1,1721,1275,0,0
504,-251,0,0,0,0,0,0,0,0,0,-1,1728,1275,0,0
511,-251,0,0,0,0,0,0,0,0,0,-1,1735,1275,0,0
518,-251,0,0,0,0,0,0,0,0,0,-1,1742,1275,0,0
525,-251,0,0,0,0,0,0,0,0,0,-1,1749,1275,0,0
532,-251,0,0,0,0,0,0,0,0,0,-1,1756,1275,0,0
539,-251,0,0,0,0,0,0,0,0,0,-1,1763,1275,0,0
546,-251,0,0,0,0,0,0,0,0,0,-1,1770,1275,0,0
553,-251,0,0,0,0,0,0,0,0,0,-1,1777,1275,0,0
560,-251,0,0,0,0,0,0,0,0,0,-1,1784,1275,0,0
567,-251,0,0,0,0,0,0,0,0,0,-1,1791,1275,0,0
574,-251,0,0,0,0,0,0,0,0,0,-1,1798,1275,0,0
581,-251,0,0,0,0,0,0,0,0,0,-1,1805,1275,0,0
588,-251,0,0,0,0,0,0,0,0,0,-1,1812,1275,0,0
595,-251,0,0,0,0,0,0,0,0,0,-1,1819,1275,0,0
602,-251,0,0,0,0,0,0,0,0,0,-1,1826,1275,0,0
609,-251,83.0031,2.4248,-0.00355475,0.00797659,-0.000608742,0.00800864,-0.00358679,-1.5182,0.00685496,0.0317832,1833,1275,83.0031,-2.42485
616,-251,83.0328,2.3241,-0.00326968,0.0112049,-0.00166968,0.0113951,-0.00345979,-1.45743,0.00897507,0.0262057,1840,1275,83.0329,-2.32416
623,-251,83.0233,2.40723,-0.00313553,0.0138164,-0.00269642,0.014235,-0.00355409,-1.4168,0.0108701,0.022019,1847,1275,83.0233,-2.4072
630,-251,82.9812,2.32031,-0.00314154,0.0147033,-0.0032557,0.0152787,-0.00371697,-1.39586,0.0116246,0.0329792,1854,1275,82.9812,-2.3203
637,-251,83.0081,2.22864,-0.0027733,0.0128095,-0.00321466,0.0134466,-0.00341042,-1.37514,0.0102913,0.0390552,1861,1275,83.0081,-2.2286
644,-251,83.0547,2.13159,0,0,0,0,0,0,0,-1,1868,1275,83.0547,-2.13165
651,-251,81.2471,2.37646,0,0,0,0,0,0,0,-1,1875,1275,81.2471,-2.3765
658,-251,64.3931,2.57288,0,0,0,0,0,0,0,-1,1882,1275,64.393,-2.57287
665,-251,32.9579,2.60229,0,0,0,0,0,0,0,-1,1889,1275,32.9579,-2.60231
672,-251,26.0721,4.53064,0,0,0,0,0,0,0,-1,1896,1275,26.0721,-4.53063
679,-251,29.1344,8.63782,0,0,0,0,0,0,0,-1,1903,1275,29.1344,-8.63778
686,-251,60.4744,16.4784,0,0,0,0,0,0,0,-1,1910,1275,60.4743,-16.4784
693,-251,60.3868,15.7228,-0.000303634,0.000687508,0.00077788,0.00111426,-0.000730391,1.06902,0.00107267,0.041963,1917,1275,60.3869,-15.7228
700,-251,60.3521,14.8375,0.000437966,-4.42923e-05,0.00101883,0.00124381,-0.00085014,0.6692,0.00121605,0.0199241,1924,1275,60.352,-14.8375
707,-251,60.3073,13.9813,-0.000208335,-5.92667e-05,0.00129597,0.00116431,-0.00143191,0.814123,0.00150158,0.0133032,1931,1275,60.3073,-13.9813
714,-251,60.2878,13.1283,-0.00101632,0.000360981,0.00151391,0.0013355,-0.00199085,0.998852,0.00193285,0.0162075,1938,1275,60.2878,-13.1282
721,-251,60.156,12.3405,-0.00176176,0.000774835,0.00166681,0.00160102,-0.00258795,1.11062,0.00244077,0.0254914,1945,1275,60.1559,-12.3405
728,-251,60.0803,11.5551,-0.00252768,0.00119777,0.0018136,0.00193484,-0.00326475,1.18478,0.00303454,0.0310163,1952,1275,60.0803,-11.555
735,-251,60.0333,10.5973,-0.00337587,0.00167784,0.00203314,0.00239423,-0.00409227,1.23202,0.00378751,0.0241264,1959,1275,60.0334,-10.5973
742,-251,59.9518,9.85254,-0.00429892,0.00220632,0.00234166,0.00296156,-0.00505415,1.25881,0.00468014,0.0185792,1966,1275,59.9518,-9.85256
749,-251,59.6741,9.28113,-0.00522977,0.00276679,0.00273613,0.00361337,-0.00607635,1.27073,0.00565428,0.0404907,1973,1275,59.6741,-9.28117
756,-251,59.4426,8.62378,0,0,0,0,0,0,0,-1,1980,1275,59.4426,-8.62379
763,-251,43.3652,5.7583,0,0,0,0,0,0,0,-1,1987,1275,43.3653,-5.75827
770,-251,49.4386,3.45508,0,0,0,0,0,0,0,-1,1994,1275,49.4386,-3.4551
777,-251,31.5731,4.33252,0,0,0,0,0,0,0,-1,2001,1275,31.5731,-4.33251
784,-251,32.0776,5.78247,0,0,0,0,0,0,0,-1,2008,1275,32.0776,-5.78247
791,-251,0,0,0,0,0,0,0,0,0,-1,2015,1275,0,0
798,-251,0,0,0,0,0,0,0,0,0,-1,2022,1275,0,0
805,-251,0,0,0,0,0,0,0,0,0,-1,2029,1275,0,0
812,-251,0,0,0,0,0,0,0,0,0,-1,2036,1275,0,0
-700,-258,0,0,0,0,0,0,0,0,0,-1,524,1282,0,0
-693,-258,0,0,0,0,0,0,0,0,0,-1,531,1282,0,0
-686,-258,0,0,0,0,0,0,0,0,0,-1,538,1282,0,0
-679,-258,0,0,0,0,0,0,0,0,0,-1,545,1282,0,0
-672,-258,0,0,0,0,0,0,0,0,0,-1,552,1282,0,0
-665,-258,-66.3053,-0.136963,0,0,0,0,0,0,0,-1,559,1282,-66.3053,0.136943
-658,-258,-65.8229,1.76501,0,0,0,0,0,0,0,-1,566,1282,-65.8229,-1.76503
-651,-258,-45.5418,0.0863037,0,0,0,0,0,0,0,-1,573,1282,-45.5418,-0.0863288
-644,-258,-62.455,9.17346,0,0,0,0,0,0,0,-1,580,1282,-62.455,-9.17347
-637,-258,-45.329,0.234253,0,0,0,0,0,0,0,-1,587,1282,-45.329,-0.234296
-630,-258,-34.6896,4.45715,0,0,0,0,0,0,0,-1,594,1282,-34.6896,-4.45712
-623,-258,-42.3906,7.979,0,0,0,0,0,0,0,-1,601,1282,-42.3906,-7.97903
-616,-258,-42.3847,8.88367,0.0549579,0.0267704,0.0465382,0.0894896,-0.00776131,0.638367,0.0624079,0.0341885,608,1282,-42.3847,-8.88366
-609,-258,-42.3691,9.79358,0.0322512,0.0118965,0.0252338,0.0492827,-0.00513496,0.593714,0.0346937,0.0168505,615,1282,-42.3691,-9.79357
-602,-258,-42.4456,10.692,0.0146962,0.00143055,0.00918066,0.0193894,-0.00326265,0.472571,0.0141399,0.0133884,622,1282,-42.4456,-10.692
-595,-258,-42.5229,11.552,0.00382137,-0.00113108,0.0011179,0.00406202,-0.00137173,0.21203,0.00326283,0.0119515,629,1282,-42.5229,-11.552
-588,-258,-42.5722,12.4036,-0.000811276,-0.00170821,-0.00104779,-0.000120016,-0.00239947,-0.583188,0.00156118,0.013743,636,1282,-42.5722,-12.4036
-581,-258,-42.6229,13.2864,-0.00343804,-0.00257219,-0.0020924,-0.000868398,-0.00514184,-0.887411,0.00317822,0.0158717,643,1282,-42.623,-13.2864
-574,-258,-42.6044,14.2198,-0.00536601,-0.00369416,-0.00312566,-0.00129458,-0.00776559,-0.91606,0.00480403,0.0183269,650,1282,-42.6044,-14.2199
-567,-258,-42.6357,15.0459,0,0,0,0,0,0,0,-1,657,1282,-42.6357,-15.0459
-560,-258,-43.3735,15.5936,0,0,0,0,0,0,0,-1,664,1282,-43.3735,-15.5936
-553,-258,-32.5081,11.6642,0,0,0,0,0,0,0,-1,671,1282,-32.5081,-11.6641
-546,-258,-14.2231,5.92029,0,0,0,0,0,0,0,-1,678,1282,-14.2231,-5.92028
-539,-258,-10.2228,4.05823,0,0,0,0,0,0,0,-1,685,1282,-10.2228,-4.05823
-532,-258,-10.2173,-0.353882,0,0,0,0,0,0,0,-1,692,1282,-10.2173,0.353836
-525,-258,-21.8661,-1.5929,0,0,0,0,0,0,0,-1,699,1282,-21.8661,1.59285
-518,-258,-29.2484,0.123169,0,0,0,0,0,0,0,-1,706,1282,-29.2484,-0.123186
-511,-258,-23.5061,1.16833,0,0,0,0,0,0,0,-1,713,1282,-23.5061,-1.16833
-504,-258,-22.9178,0.484131,0,0,0,0,0,0,0,-1,720,1282,-22.9178,-0.484106
-497,-258,-17.8047,0.730469,0,0,0,0,0,0,0,-1,727,1282,-17.8048,-0.730489
-490,-258,-15.4346,0.632935,0,0,0,0,0,0,0,-1,734,1282,-15.4346,-0.632917
-483,-258,0,0,0,0,0,0,0,0,0,-1,741,1282,0,0
-476,-258,0,0,0,0,0,0,0,0,0,-1,748,1282,0,0
-469,-258,0,0,0,0,0,0,0,0,0,-1,755,1282,0,0
-462,-258,0,0,0,0,0,0,0,0,0,-1,762,1282,0,0
-455,-258,0,0,0,0,0,0,0,0,0,-1,769,1282,0,0
-448,-258,0,0,0,0,0,0,0,0,0,-1,776,1282,0,0
-441,-258,0,0,0,0,0,0,0,0,0,-1,783,1282,0,0
-434,-258,0,0,0,0,0,0,0,0,0,-1,790,1282,0,0
-427,-258,0,0,0,0,0,0,0,0,0,-1,797,1282,0,0
-420,-258,0,0,0,0,0,0,0,0,0,-1,804,1282,0,0
-413,-258,0,0,0,0,0,0,0,0,0,-1,811,1282,0,0
-406,-258,0,0,0,0,0,0,0,0,0,-1,818,1282,0,0
-399,-258,0,0,0,0,0,0,0,0,0,-1,825,1282,0,0
-392,-258,0,0,0,0,0,0,0,0,0,-1,832,1282,0,0
-385,-258,0,0,0,0,0,0,0,0,0,-1,839,1282,0,0
-378,-258,0,0,0,0,0,0,0,0,0,-1,846,1282,0,0
-371,-258,0,0,0,0,0,0,0,0,0,-1,853,1282,0,0
-364,-258,0,0,0,0,0,0,0,0,0,-1,860,1282,0,0
-357,-258,0,0,0,0,0,0,0,0,0,-1,867,1282,0,0
-350,-258,0,0,0,0,0,0,0,0,0,-1,874,1282,0,0
-343,-258,0,0,0,0,0,0,0,0,0,-1,881,1282,0,0
-336,-258,0,0,0,0,0,0,0,0,0,-1,888,1282,0,0
-329,-258,0,0,0,0,0,0,0,0,0,-1,895,1282,0,0
-322,-258,0,0,0,0,0,0,0,0,0,-1,902,1282,0,0
-315,-258,0,0,0,0,0,0,0,0,0,-1,909,1282,0,0
-308,-258,0,0,0,0,0,0,0,0,0,-1,916,1282,0,0
-301,-258,0,0,0,0,0,0,0,0,0,-1,923,1282,0,0
-294,-258,0,0,0,0,0,0,0,0,0,-1,930,1282,0,0
-287,-258,0,0,0,0,0,0,0,0,0,-1,937,1282,0,0
-280,-258,0,0,0,0,0,0,0,0,0,-1,944,1282,0,0
-273,-258,0,0,0,0,0,0,0,0,0,-1,951,1282,0,0
-266,-258,0,0,0,0,0,0,0,0,0,-1,958,1282,0,0
-259,-258,0,0,0,0,0,0,0,0,0,-1,965,1282,0,0
-252,-258,0,0,0,0,0,0,0,0,0,-1,972,1282,0,0
-245,-258,0,0,0,0,0,0,0,0,0,-1,979,1282,0,0
-238,-258,0,0,0,0,0,0,0,0,0,-1,986,1282,0,0
-231,-258,0,0,0,0,0,0,0,0,0,-1,993,1282,0,0
-224,-258,0,0,0,0,0,0,0,0,0,-1,1000,1282,0,0
-217,-258,0,0,0,0,0,0,0,0,0,-1,1007,1282,0,0
-210,-258,0,0,0,0,0,0,0,0,0,-1,1014,1282,0,0
-203,-258,0,0,0,0,0,0,0,0,0,-1,1021,1282,0,0
-196,-258,0,0,0,0,0,0,0,0,0,-1,1028,1282,0,0
-189,-258,0,0,0,0,0,0,0,0,0,-1,1035,1282,0,0
-182,-258,0,0,0,0,0,0,0,0,0,-1,1042,1282,0,0
-175,-258,0,0,0,0,0,0,0,0,0,-1,1049,1282,0,0
-168,-258,0,0,0,0,0,0,0,0,0,-1,1056,1282,0,0
-161,-258,0,0,0,0,0,0,0,0,0,-1,1063,1282,0,0
-154,-258,0,0,0,0,0,0,0,0,0,-1,1070,1282,0,0
-147,-258,0,0,0,0,0,0,0,0,0,-1,1077,1282,0,0
-140,-258,0,0,0,0,0,0,0,0,0,-1,1084,1282,0,0
-133,-258,0,0,0,0,0,0,0,0,0,-1,1091,1282,0,0
-126,-258,0,0,0,0,0,0,0,0,0,-1,1098,1282,0,0
-119,-258,0,0,0,0,0,0,0,0,0,-1,1105,1282,0,0
-112,-258,0,0,0,0,0,0,0,0,0,-1,1112,1282,0,0
-105,-258,0,0,0,0,0,0,0,0,0,-1,1119,1282,0,0
-98,-258,0,0,0,0,0,0,0,0,0,-1,1126,1282,0,0
-91,-258,0,0,0,0,0,0,0,0,0,-1,1133,1282,0,0
-84,-258,0,0,0,0,0,0,0,0,0,-1,1140,1282,0,0
-77,-258,0,0,0,0,0,0,0,0,0,-1,1147,1282,0,0
-70,-258,0,0,0,0,0,0,0,0,0,-1,1154,1282,0,0
-63,-258,0,0,0,0,0,0,0,0,0,-1,1161,1282,0,0
-56,-258,0,0,0,0,0,0,0,0,0,-1,1168,1282,0,0
-49,-258,0,0,0,0,0,0,0,0,0,-1,1175,1282,0,0
-42,-258,0,0,0,0,0,0,0,0,0,-1,1182,1282,0,0
-35,-258,0,0,0,0,0,0,0,0,0,-1,1189,1282,0,0
-28,-258,0,0,0,0,0,0,0,0,0,-1,1196,1282,0,0
-21,-258,0,0,0,0,0,0,0,0,0,-1,1203,1282,0,0
-14,-258,0,0,0,0,0,0,0,0,0,-1,1210,1282,0,0
-7,-258,0,0,0,0,0,0,0,0,0,-1,1217,1282,0,0
0,-258,0,0,0,0,0,0,0,0,0,-1,1224,1282,0,0
7,-258,0,0,0,0,0,0,0,0,0,-1,1231,1282,0,0
14,-258,0,0,0,0,0,0,0,0,0,-1,1238,1282,0,0
21,-258,0,0,0,0,0,0,0,0,0,-1,1245,1282,0,0
28,-258,0,0,0,0,0,0,0,0,0,-1,1252,1282,0,0
35,-258,0,0,0,0,0,0,0,0,0,-1,1259,1282,0,0
42,-258,0,0,0,0,0,0,0,0,0,-1,1266,1282,0,0
49,-258,0,0,0,0,0,0,0,0,0,-1,1273,1282,0,0
56,-258,0,0,0,0,0,0,0,0,0,-1,1280,1282,0,0
63,-258,0,0,0,0,0,0,0,0,0,-1,1287,1282,0,0
70,-258,0,0,0,0,0,0,0,0,0,-1,1294,1282,0,0
77,-258,0,0,0,0,0,0,0,0,0,-1,1301,1282,0,0
84,-258,0,0,0,0,0,0,0,0,0,-1,1308,1282,0,0
91,-258,0,0,0,0,0,0,0,0,0,-1,1315,1282,0,0
98,-258,0,0,0,0,0,0,0,0,0,-1,1322,1282,0,0
105,-258,0,0,0,0,0,0,0,0,0,-1,1329,1282,0,0
112,-258,0,0,0,0,0,0,0,0,0,-1,1336,1282,0,0
119,-258,0,0,0,0,0,0,0,0,0,-1,1343,1282,0,0
126,-258,0,0,0,0,0,0,0,0,0,-1,1350,1282,0,0
133,-258,0,0,0,0,0,0,0,0,0,-1,1357,1282,0,0
140,-258,0,0,0,0,0,0,0,0,0,-1,1364,1282,0,0
147,-258,0,0,0,0,0,0,0,0,0,-1,1371,1282,0,0
154,-258,0,0,0,0,0,0,0,0,0,-1,1378,1282,0,0
161,-258,0,0,0,0,0,0,0,0,0,-1,1385,1282,0,0
168,-258,0,0,0,0,0,0,0,0,0,-1,1392,1282,0,0
175,-258,0,0,0,0,0,0,0,0,0,-1,1399,1282,0,0
182,-258,0,0,0,0,0,0,0,0,0,-1,1406,1282,0,0
189,-258,0,0,0,0,0,0,0,0,0,-1,1413,1282,0,0
196,-258,0,0,0,0,0,0,0,0,0,-1,1420,1282,0,0
203,-258,0,0,0,0,0,0,0,0,0,-1,1427,1282,0,0
210,-258,0,0,0,0,0,0,0,0,0,-1,1434,1282,0,0
217,-258,0,0,0,0,0,0,0,0,0,-1,1441,1282,0,0
224,-258,0,0,0,0,0,0,0,0,0,-1,1448,1282,0,0
231,-258,0,0,0,0,0,0,0,0,0,-1,1455,1282,0,0
238,-258,0,0,0,0,0,0,0,0,0,-1,1462,1282,0,0
245,-258,0,0,0,0,0,0,0,0,0,-1,1469,1282,0,0
252,-258,0,0,0,0,0,0,0,0,0,-1,1476,1282,0,0
259,-258,0,0,0,0,0,0,0,0,0,-1,1483,1282,0,0
266,-258,0,0,0,0,0,0,0,0,0,-1,1490,1282,0,0
273,-258,0,0,0,0,0,0,0,0,0,-1,1497,1282,0,0
280,-258,0,0,0,0,0,0,0,0,0,-1,1504,1282,0,0
287,-258,0,0,0,0,0,0,0,0,0,-1,1511,1282,0,0
294,-258,0,0,0,0,0,0,0,0,0,-1,1518,1282,0,0
301,-258,0,0,0,0,0,0,0,0,0,-1,1525,1282,0,0
308,-258,0,0,0,0,0,0,0,0,0,-1,1532,1282,0,0
315,-258,0,0,0,0,0,0,0,0,0,-1,1539,1282,0,0
322,-258,0,0,0,0,0,0,0,0,0,-1,1546,1282,0,0
329,-258,0,0,0,0,0,0,0,0,0,-1,1553,1282,0,0
336,-258,0,0,0,0,0,0,0,0,0,-1,1560,1282,0,0
343,-258,0,0,0,0,0,0,0,0,0,-1,1567,1282,0,0
350,-258,0,0,0,0,0,0,0,0,0,-1,1574,1282,0,0
357,-258,0,0,0,0,0,0,0,0,0,-1,1581,1282,0,0
364,-258,0,0,0,0,0,0,0,0,0,-1,1588,1282,0,0
371,-258,0,0,0,0,0,0,0,0,0,-1,1595,1282,0,0
378,-258,0,0,0,0,0,0,0,0,0,-1,1602,1282,0,0
385,-258,0,0,0,0,0,0,0,0,0,-1,1609,1282,0,0
392,-258,0,0,0,0,0,0,0,0,0,-1,1616,1282,0,0
399,-258,0,0,0,0,0,0,0,0,0,-1,1623,1282,0,0
406,-258,0,0,0,0,0,0,0,0,0,-1,1630,1282,0,0
413,-258,0,0,0,0,0,0,0,0,0,-1,1637,1282,0,0
420,-258,0,0,0,0,0,0,0,0,0,-1,1644,1282,0,0
427,-258,0,0,0,0,0,0,0,0,0,-1,1651,1282,0,0
434,-258,0,0,0,0,0,0,0,0,0,-1,1658,1282,0,0
441,-258,0,0,0,0,0,0,0,0,0,-1,1665,1282,0,0
448,-258,0,0,0,0,0,0,0,0,0,-1,1672,1282,0,0
455,-258,0,0,0,0,0,0,0,0,0,-1,1679,1282,0,0
462,-258,0,0,0,0,0,0,0,0,0,-1,1686,1282,0,0
469,-258,0,0,0,0,0,0,0,0,0,-1,1693,1282,0,0
476,-258,0,0,0,0,0,0,0,0,0,-1,1700,1282,0,0
483,-258,0,0,0,0,0,0,0,0,0,-1,1707,1282,0,0
490,-258,0,0,0,0,0,0,0,0,0,-1,1714,1282,0,0
497,-258,0,0,0,0,0,0,0,0,0,-1,1721,1282,0,0
504,-258,0,0,0,0,0,0,0,0,0,-1,1728,1282,0,0
511,-258,0,0,0,0,0,0,0,0,0,-1,1735,1282,0,0
518,-258,0,0,0,0,0,0,0,0,0,-1,1742,1282,0,0
525,-258,0,0,0,0,0,0,0,0,0,-1,1749,1282,0,0
532,-258,0,0,0,0,0,0,0,0,0,-1,1756,1282,0,0
539,-258,0,0,0,0,0,0,0,0,0,-1,1763,1282,0,0
546,-258,0,0,0,0,0,0,0,0,0,-1,1770,1282,0,0
553,-258,0,0,0,0,0,0,0,0,0,-1,1777,1282,0,0
560,-258,0,0,0,0,0,0,0,0,0,-1,1784,1282,0,0
567,-258,0,0,0,0,0,0,0,0,0,-1,1791,1282,0,0
574,-258,0,0,0,0,0,0,0,0,0,-1,1798,1282,0,0
581,-258,0,0,0,0,0,0,0,0,0,-1,1805,1282,0,0
588,-258,0,0,0,0,0,0,0,0,0,-1,1812,1282,0,0
595,-258,0,0,0,0,0,0,0,0,0,-1,1819,1282,0,0
602,-258,0,0,0,0,0,0,0,0,0,-1,1826,1282,0,0
609,-258,83.0282,2.40747,-0.0033105,0.0117637,-0.0016826,0.0119492,-0.00349604,-1.46098,0.00935191,0.026658,1833,1282,83.0282,-2.40751
616,-258,82.9775,2.34961,-0.00275415,0.0152702,-0.00274691,0.0156795,-0.00316349,-1.42287,0.0116516,0.0245763,1840,1282,82.9775,-2.34958
623,-258,82.9457,2.31958,-0.00251245,0.0172732,-0.00353987,0.0178874,-0.0031267,-1.39898,0.0130922,0.0346942,1847,1282,82.9457,-2.31959
630,-258,82.9343,2.23096,-0.00256311,0.0163904,-0.00352242,0.0170239,-0.00319657,-1.39286,0.0125512,0.0446103,1854,1282,82.9344,-2.23099
637,-258,82.9429,2.06824,-0.00231502,0.0133873,-0.00313443,0.0139898,-0.00291758,-1.38087,0.0104359,0.0462233,1861,1282,82.9429,-2.06829
644,-258,83.0322,1.93323,0,0,0,0,0,0,0,-1,1868,1282,83.0322,-1.93326
651,-258,77.8041,3.65466,0,0,0,0,0,0,0,-1,1875,1282,77.8041,-3.65469
658,-258,45.4424,3.1405,0,0,0,0,0,0,0,-1,1882,1282,45.4423,-3.14046
665,-258,35.4747,1.1864,0,0,0,0,0,0,0,-1,1889,1282,35.4747,-1.18637
672,-258,22.703,2.80957,0,0,0,0,0,0,0,-1,1896,1282,22.703,-2.80962
679,-258,26.8693,8.19543,0,0,0,0,0,0,0,-1,1903,1282,26.8692,-8.19548
686,-258,59.6492,16.7692,0,0,0,0,0,0,0,-1,1910,1282,59.6491,-16.7691
693,-258,59.5258,15.7804,-9.28136e-05,0.00052554,0.000658731,0.000944042,-0.000511316,1.00481,0.000852542,0.0394967,1917,1282,59.5257,-15.7804
700,-258,59.4768,14.8707,0.000632638,-0.000333487,0.000863073,0.00113864,-0.000839487,0.530268,0.00114642,0.0125026,1924,1282,59.4768,-14.8707
707,-258,59.4419,14.0194,-3.84608e-05,-0.000303757,0.00109014,0.000927069,-0.00126929,0.724856,0.00127319,0.0113905,1931,1282,59.442,-14.0194
714,-258,59.4106,13.1915,-0.000844386,0.000183166,0.00127193,0.00104116,-0.00170239,0.977345,0.00159925,0.0127142,1938,1282,59.4107,-13.1915
721,-258,59.3356,12.3292,-0.0016565,0.000737425,0.00140735,0.00138799,-0.00230706,1.13779,0.00215523,0.0228039,1945,1282,59.3355,-12.3292
728,-258,59.2318,11.5458,-0.00254186,0.00137486,0.00153662,0.00190575,-0.00307275,1.23814,0.00290054,0.02266,1952,1282,59.2318,-11.5458
735,-258,59.2228,10.6885,-0.00355,0.00214132,0.00168842,0.00260452,-0.0040132,1.30305,0.00384949,0.0194923,1959,1282,59.2228,-10.6885
742,-258,59.1755,9.87146,-0.00467657,0.00303144,0.00187153,0.00346182,-0.00510695,1.34476,0.00497748,0.0196782,1966,1282,59.1756,-9.87144
749,-258,58.9816,9.20032,-0.00588978,0.00410333,0.00206118,0.00451178,-0.00629823,1.37517,0.0062695,0.0436323,1973,1282,58.9816,-9.20037
756,-258,58.803,8.39502,0,0,0,0,0,0,0,-1,1980,1282,58.803,-8.39501
763,-258,39.3638,5.09753,0,0,0,0,0,0,0,-1,1987,1282,39.3638,-5.09751
770,-258,40.3713,4.08325,0,0,0,0,0,0,0,-1,1994,1282,40.3713,-4.08323
777,-258,31.912,4.83093,0,0,0,0,0,0,0,-1,2001,1282,31.912,-4.8309
784,-258,32.6525,6.43091,0,0,0,0,0,0,0,-1,2008,1282,32.6525,-6.43091
791,-258,0,0,0,0,0,0,0,0,0,-1,2015,1282,0,0
798,-258,0,0,0,0,0,0,0,0,0,-1,2022,1282,0,0
805,-258,0,0,0,0,0,0,0,0,0,-1,2029,1282,0,0
812,-258,0,0,0,0,0,0,0,0,0,-1,2036,1282,0,0
-700,-265,0,0,0,0,0,0,0,0,0,-1,524,1289,0,0
-693,-265,0,0,0,0,0,0,0,0,0,-1,531,1289,0,0
-686,-265,0,0,0,0,0,0,0,0,0,-1,538,1289,0,0
-679,-265,0,0,0,0,0,0,0,0,0,-1,545,1289,0,0
-672,-265,0,0,0,0,0,0,0,0,0,-1,552,1289,0,0
-665,-265,-66.4751,-0.779541,0,0,0,0,0,0,0,-1,559,1289,-66.4751,0.779578
-658,-265,-65.901,0.884277,0,0,0,0,0,0,0,-1,566,1289,-65.901,-0.884263
-651,-265,-44.821,1.0614,0,0,0,0,0,0,0,-1,573,1289,-44.821,-1.06141
-644,-265,-44.4684,0.304932,0,0,0,0,0,0,0,-1,580,1289,-44.4684,-0.304991
-637,-265,-44.6157,0.250122,0,0,0,0,0,0,0,-1,587,1289,-44.6157,-0.250067
-630,-265,-44.5689,0.900269,0,0,0,0,0,0,0,-1,594,1289,-44.5689,-0.900302
-623,-265,-41.0926,7.70276,0,0,0,0,0,0,0,-1,601,1289,-41.0926,-7.70281
-616,-265,-41.5541,8.85083,0,0,0,0,0,0,0,-1,608,1289,-41.5541,-8.8508
-609,-265,-41.4724,9.77893,0.0354482,0.0119585,0.0269851,0.0531336,-0.00572684,0.580145,0.0374775,0.0193978,615,1289,-41.4724,-9.77895
-602,-265,-41.564,10.7427,0.0167734,0.00145775,0.0101196,0.0218061,-0.00357488,0.461499,0.0158638,0.0141126,622,1289,-41.564,-10.7427
-595,-265,-41.6248,11.6447,0.00540403,-0.000800259,0.00177054,0.00587373,-0.00126996,0.259316,0.00440066,0.0126172,629,1289,-41.6248,-11.6447
-588,-265,-41.6733,12.4858,0.000626579,-0.0013131,-0.000553427,0.000773373,-0.0014599,-0.259274,0.00130953,0.0117696,636,1289,-41.6733,-12.4858
-581,-265,-41.7346,13.3523,-0.00187376,-0.00214063,-0.00163995,-0.000361822,-0.00365256,-0.744805,0.00232384,0.0138101,643,1289,-41.7346,-13.3523
-574,-265,-41.7916,14.2883,-0.00377584,-0.00321714,-0.002725,-0.000757208,-0.00623577,-0.836476,0.00392917,0.0157978,650,1289,-41.7916,-14.2883
-567,-265,-42.027,15.0319,-0.00484762,-0.00438293,-0.00375879,-0.000849307,-0.00838124,-0.816266,0.00532701,0.0336788,657,1289,-42.027,-15.0319
-560,-265,-42.4342,15.7666,-0.00511875,-0.00508681,-0.0042434,-0.000859352,-0.00934621,-0.78728,0.00596502,0.0454975,664,1289,-42.4342,-15.7666
-553,-265,-42.6188,16.6567,0,0,0,0,0,0,0,-1,671,1289,-42.6188,-16.6568
-546,-265,-24.2283,10.2581,0,0,0,0,0,0,0,-1,678,1289,-24.2283,-10.258
-539,-265,-13.7668,6.39917,0,0,0,0,0,0,0,-1,685,1289,-13.7668,-6.39915
-532,-265,-8.53998,3.41467,0,0,0,0,0,0,0,-1,692,1289,-8.53996,-3.41473
-525,-265,-12.1317,0.514648,0,0,0,0,0,0,0,-1,699,1289,-12.1317,-0.514634
-518,-265,-24.1604,0.712402,0,0,0,0,0,0,0,-1,706,1289,-24.1604,-0.712425
-511,-265,-23.233,0.791626,0,0,0,0,0,0,0,-1,713,1289,-23.233,-0.791617
-504,-265,-22.3056,0.87085,0,0,0,0,0,0,0,-1,720,1289,-22.3056,-0.87081
-497,-265,-18.689,-0.278442,0,0,0,0,0,0,0,-1,727,1289,-18.689,0.278423
-490,-265,-15.1696,0.492676,0,0,0,0,0,0,0,-1,734,1289,-15.1696,-0.492688
-483,-265,0,0,0,0,0,0,0,0,0,-1,741,1289,0,0
-476,-265,0,0,0,0,0,0,0,0,0,-1,748,1289,0,0
-469,-265,0,0,0,0,0,0,0,0,0,-1,755,1289,0,0
-462,-265,0,0,0,0,0,0,0,0,0,-1,762,1289,0,0
-455,-265,0,0,0,0,0,0,0,0,0,-1,769,1289,0,0
-448,-265,0,0,0,0,0,0,0,0,0,-1,776,1289,0,0
-441,-265,0,0,0,0,0,0,0,0,0,-1,783,1289,0,0
-434,-265,0,0,0,0,0,0,0,0,0,-1,790,1289,0,0
-427,-265,0,0,0,0,0,0,0,0,0,-1,797,1289,0,0
-420,-265,0,0,0,0,0,0,0,0,0,-1,804,1289,0,0
-413,-265,0,0,0,0,0,0,0,0,0,-1,811,1289,0,0
-406,-265,0,0,0,0,0,0,0,0,0,-1,818,1289,0,0
-399,-265,0,0,0,0,0,0,0,0,0,-1,825,1289,0,0
-392,-265,0,0,0,0,0,0,0,0,0,-1,832,1289,0,0
-385,-265,0,0,0,0,0,0,0,0,0,-1,839,1289,0,0
-378,-265,0,0,0,0,0,0,0,0,0,-1,846,1289,0,0
-371,-265,0,0,0,0,0,0,0,0,0,-1,853,1289,0,0
-364,-265,0,0,0,0,0,0,0,0,0,-1,860,1289,0,0
-357,-265,0,0,0,0,0,0,0,0,0,-1,867,1289,0,0
-350,-265,0,0,0,0,0,0,0,0,0,-1,874,1289,0,0
-343,-265,0,0,0,0,0,0,0,0,0,-1,881,1289,0,0
-336,-265,0,0,0,0,0,0,0,0,0,-1,888,1289,0,0
-329,-265,0,0,0,0,0,0,0,0,0,-1,895,1289,0,0
-322,-265,0,0,0,0,0,0,0,0,0,-1,902,1289,0,0
-315,-265,0,0,0,0,0,0,0,0,0,-1,909,1289,0,0
-308,-265,0,0,0,0,0,0,0,0,0,-1,916,1289,0,0
-301,-265,0,0,0,0,0,0,0,0,0,-1,923,1289,0,0
-294,-265,0,0,0,0,0,0,0,0,0,-1,930,1289,0,0
-287,-265,0,0,0,0,0,0,0,0,0,-1,937,1289,0,0
-280,-265,0,0,0,0,0,0,0,0,0,-1,944,1289,0,0
-273,-265,0,0,0,0,0,0,0,0,0,-1,951,1289,0,0
-266,-265,0,0,0,0,0,0,0,0,0,-1,958,1289,0,0
-259,-265,0,0,0,0,0,0,0,0,0,-1,965,1289,0,0
-252,-265,0,0,0,0,0,0,0,0,0,-1,972,1289,0,0
-245,-265,0,0,0,0,0,0,0,0,0,-1,979,1289,0,0
-238,-265,0,0,0,0,0,0,0,0,0,-1,986,1289,0,0
-231,-265,0,0,0,0,0,0,0,0,0,-1,993,1289,0,0
-224,-265,0,0,0,0,0,0,0,0,0,-1,1000,1289,0,0
-217,-265,0,0,0,0,0,0,0,0,0,-1,1007,1289,0,0
-210,-265,0,0,0,0,0,0,0,0,0,-1,1014,1289,0,0
-203,-265,0,0,0,0,0,0,0,0,0,-1,1021,1289,0,0
-196,-265,0,0,0,0,0,0,0,0,0,-1,1028,1289,0,0
-189,-265,0,0,0,0,0,0,0,0,0,-1,1035,1289,0,0
-182,-265,0,0,0,0,0,0,0,0,0,-1,1042,1289,0,0
-175,-265,0,0,0,0,0,0,0,0,0,-1,1049,1289,0,0
-168,-265,0,0,0,0,0,0,0,0,0,-1,1056,1289,0,0
-161,-265,0,0,0,0,0,0,0,0,0,-1,1063,1289,0,0
-154,-265,0,0,0,0,0,0,0,0,0,-1,1070,1289,0,0
-147,-265,0,0,0,0,0,0,0,0,0,-1,1077,1289,0,0
-140,-265,0,0,0,0,0,0,0,0,0,-1,1084,1289,0,0
-133,-265,0,0,0,0,0,0,0,0,0,-1,1091,1289,0,0
-126,-265,0,0,0,0,0,0,0,0,0,-1,1098,1289,0,0
-119,-265,0,0,0,0,0,0,0,0,0,-1,1105,1289,0,0
-112,-265,0,0,0,0,0,0,0,0,0,-1,1112,1289,0,0
-105,-265,0,0,0,0,0,0,0,0,0,-1,1119,1289,0,0
-98,-265,0,0,0,0,0,0,0,0,0,-1,1126,1289,0,0
-91,-265,0,0,0,0,0,0,0,0,0,-1,1133,1289,0,0
-84,-265,0,0,0,0,0,0,0,0,0,-1,1140,1289,0,0
-77,-265,0,0,0,0,0,0,0,0,0,-1,1147,1289,0,0
-70,-265,0,0,0,0,0,0,0,0,0,-1,1154,1289,0,0
-63,-265,0,0,0,0,0,0,0,0,0,-1,1161,1289,0,0
-56,-265,0,0,0,0,0,0,0,0,0,-1,1168,1289,0,0
-49,-265,0,0,0,0,0,0,0,0,0,-1,1175,1289,0,0
-42,-265,0,0,0,0,0,0,0,0,0,-1,1182,1289,0,0
-35,-265,0,0,0,0,0,0,0,0,0,-1,1189,1289,0,0
-28,-265,0,0,0,0,0,0,0,0,0,-1,1196,1289,0,0
-21,-265,0,0,0,0,0,0,0,0,0,-1,1203,1289,0,0
-14,-265,0,0,0,0,0,0,0,0,0,-1,1210,1289,0,0
-7,-265,0,0,0,0,0,0,0,0,0,-1,1217,1289,0,0
0,-265,0,0,0,0,0,0,0,0,0,-1,1224,1289,0,0
7,-265,0,0,0,0,0,0,0,0,0,-1,1231,1289,0,0
14,-265,0,0,0,0,0,0,0,0,0,-1,1238,1289,0,0
21,-265,0,0,0,0,0,0,0,0,0,-1,1245,1289,0,0
28,-265,0,0,0,0,0,0,0,0,0,-1,1252,1289,0,0
35,-265,0,0,0,0,0,0,0,0,0,-1,1259,1289,0,0
42,-265,0,0,0,0,0,0,0,0,0,-1,1266,1289,0,0
49,-265,0,0,0,0,0,0,0,0,0,-1,1273,1289,0,0
56,-265,0,0,0,0,0,0,0,0,0,-1,1280,1289,0,0
63,-265,0,0,0,0,0,0,0,0,0,-1,1287,1289,0,0
70,-265,0,0,0,0,0,0,0,0,0,-1,1294,1289,0,0
77,-265,0,0,0,0,0,0,0,0,0,-1,1301,1289,0,0
84,-265,0,0,0,0,0,0,0,0,0,-1,1308,1289,0,0
91,-265,0,0,0,0,0,0,0,0,0,-1,1315,1289,0,0
98,-265,0,0,0,0,0,0,0,0,0,-1,1322,1289,0,0
105,-265,0,0,0,0,0,0,0,0,0,-1,1329,1289,0,0
112,-265,0,0,0,0,0,0,0,0,0,-1,1336,1289,0,0
119,-265,0,0,0,0,0,0,0,0,0,-1,1343,1289,0,0
126,-265,0,0,0,0,0,0,0,0,0,-1,1350,1289,0,0
133,-265,0,0,0,0,0,0,0,0,0,-1,1357,1289,0,0
140,-265,0,0,0,0,0,0,0,0,0,-1,1364,1289,0,0
147,-265,0,0,0,0,0,0,0,0,0,-1,1371,1289,0,0
154,-265,0,0,0,0,0,0,0,0,0,-1,1378,1289,0,0
161,-265,0,0,0,0,0,0,0,0,0,-1,1385,1289,0,0
168,-265,0,0,0,0,0,0,0,0,0,-1,1392,1289,0,0
175,-265,0,0,0,0,0,0,0,0,0,-1,1399,1289,0,0
182,-265,0,0,0,0,0,0,0,0,0,-1,1406,1289,0,0
189,-265,0,0,0,0,0,0,0,0,0,-1,1413,1289,0,0
196,-265,0,0,0,0,0,0,0,0,0,-1,1420,1289,0,0
203,-265,0,0,0,0,0,0,0,0,0,-1,1427,1289,0,0
210,-265,0,0,0,0,0,0,0,0,0,-1,1434,1289,0,0
217,-265,0,0,0,0,0,0,0,0,0,-1,1441,1289,0,0
224,-265,0,0,0,0,0,0,0,0,0,-1,1448,1289,0,0
231,-265,0,0,0,0,0,0,0,0,0,-1,1455,1289,0,0
238,-265,0,0,0,0,0,0,0,0,0,-1,1462,1289,0,0
245,-265,0,0,0,0,0,0,0,0,0,-1,1469,1289,0,0
252,-265,0,0,0,0,0,0,0,0,0,-1,1476,1289,0,0
259,-265,0,0,0,0,0,0,0,0,0,-1,1483,1289,0,0
266,-265,0,0,0,0,0,0,0,0,0,-1,1490,1289,0,0
273,-265,0,0,0,0,0,0,0,0,0,-1,1497,1289,0,0
280,-265,0,0,0,0,0,0,0,0,0,-1,1504,1289,0,0
287,-265,0,0,0,0,0,0,0,0,0,-1,1511,1289,0,0
294,-265,0,0,0,0,0,0,0,0,0,-1,1518,1289,0,0
301,-265,0,0,0,0,0,0,0,0,0,-1,1525,1289,0,0
308,-265,0,0,0,0,0,0,0,0,0,-1,1532,1289,0,0
315,-265,0,0,0,0,0,0,0,0,0,-1,1539,1289,0,0
322,-265,0,0,0,0,0,0,0,0,0,-1,1546,1289,0,0
329,-265,0,0,0,0,0,0,0,0,0,-1,1553,1289,0,0
336,-265,0,0,0,0,0,0,0,0,0,-1,1560,1289,0,0
343,-265,0,0,0,0,0,0,0,0,0,-1,1567,1289,0,0
350,-265,0,0,0,0,0,0,0,0,0,-1,1574,1289,0,0
357,-265,0,0,0,0,0,0,0,0,0,-1,1581,1289,0,0
364,-265,0,0,0,0,0,0,0,0,0,-1,1588,1289,0,0
371,-265,0,0,0,0,0,0,0,0,0,-1,1595,1289,0,0
378,-265,0,0,0,0,0,0,0,0,0,-1,1602,1289,0,0
385,-265,0,0,0,0,0,0,0,0,0,-1,1609,1289,0,0
392,-265,0,0,0,0,0,0,0,0,0,-1,1616,1289,0,0
399,-265,0,0,0,0,0,0,0,0,0,-1,1623,1289,0,0
406,-265,0,0,0,0,0,0,0,0,0,-1,1630,1289,0,0
413,-265,0,0,0,0,0,0,0,0,0,-1,1637,1289,0,0
420,-265,0,0,0,0,0,0,0,0,0,-1,1644,1289,0,0
427,-265,0,0,0,0,0,0,0,0,0,-1,1651,1289,0,0
434,-265,0,0,0,0,0,0,0,0,0,-1,1658,1289,0,0
441,-265,0,0,0,0,0,0,0,0,0,-1,1665,1289,0,0
448,-265,0,0,0,0,0,0,0,0,0,-1,1672,1289,0,0
455,-265,0,0,0,0,0,0,0,0,0,-1,1679,1289,0,0
462,-265,0,0,0,0,0,0,0,0,0,-1,1686,1289,0,0
469,-265,0,0,0,0,0,0,0,0,0,-1,1693,1289,0,0
476,-265,0,0,0,0,0,0,0,0,0,-1,1700,1289,0,0
483,-265,0,0,0,0,0,0,0,0,0,-1,1707,1289,0,0
490,-265,0,0,0,0,0,0,0,0,0,-1,1714,1289,0,0
497,-265,0,0,0,0,0,0,0,0,0,-1,1721,1289,0,0
504,-265,0,0,0,0,0,0,0,0,0,-1,1728,1289,0,0
511,-265,0,0,0,0,0,0,0,0,0,-1,1735,1289,0,0
518,-265,0,0,0,0,0,0,0,0,0,-1,1742,1289,0,0
525,-265,0,0,0,0,0,0,0,0,0,-1,1749,1289,0,0
532,-265,0,0,0,0,0,0,0,0,0,-1,1756,1289,0,0
539,-265,0,0,0,0,0,0,0,0,0,-1,1763,1289,0,0
546,-265,0,0,0,0,0,0,0,0,0,-1,1770,1289,0,0
553,-265,0,0,0,0,0,0,0,0,0,-1,1777,1289,0,0
560,-265,0,0,0,0,0,0,0,0,0,-1,1784,1289,0,0
567,-265,0,0,0,0,0,0,0,0,0,-1,1791,1289,0,0
574,-265,0,0,0,0,0,0,0,0,0,-1,1798,1289,0,0
581,-265,0,0,0,0,0,0,0,0,0,-1,1805,1289,0,0
588,-265,0,0,0,0,0,0,0,0,0,-1,1812,1289,0,0
595,-265,0,0,0,0,0,0,0,0,0,-1,1819,1289,0,0
602,-265,83.0145,2.41309,-0.00387683,0.011742,-0.00190781,0.0119717,-0.00410648,-1.45099,0.00964585,0.0281905,1826,1289,83.0145,-2.41304
609,-265,82.9652,2.31555,-0.00244162,0.0159867,-0.00294029,0.0164444,-0.00289938,-1.41635,0.0120463,0.0287692,1833,1289,82.9652,-2.31551
616,-265,82.8895,2.26343,-0.00143319,0.019653,-0.00397087,0.020376,-0.00215618,-1.3907,0.0143568,0.0346539,1840,1289,82.8896,-2.26348
623,-265,82.9526,2.17969,-0.00122369,0.019567,-0.00416704,0.0203711,-0.00202778,-1.38017,0.0143046,0.0499117,1847,1289,82.9527,-2.17967
630,-265,82.9551,2.03394,-0.00153937,0.0168842,-0.00358735,0.0175581,-0.00221324,-1.38512,0.0125086,0.0478764,1854,1289,82.9551,-2.03395
637,-265,82.6445,1.76453,0,0,0,0,0,0,0,-1,1861,1289,82.6445,-1.76457
644,-265,77.3746,2.97742,0,0,0,0,0,0,0,-1,1868,1289,77.3746,-2.97738
651,-265,53.6781,1.57166,0,0,0,0,0,0,0,-1,1875,1289,53.6781,-1.57167
658,-265,41.7163,3.71619,0,0,0,0,0,0,0,-1,1882,1289,41.7163,-3.71624
665,-265,34.7902,1.43164,0,0,0,0,0,0,0,-1,1889,1289,34.7901,-1.43162
672,-265,20.0045,6.62671,0,0,0,0,0,0,0,-1,1896,1289,20.0045,-6.62668
679,-265,48.9694,14.0298,0,0,0,0,0,0,0,-1,1903,1289,48.9694,-14.0297
686,-265,58.6686,16.9403,0,0,0,0,0,0,0,-1,1910,1289,58.6686,-16.9403
693,-265,58.6425,15.8608,-0.000115703,0.000420226,0.00050139,0.000720765,-0.000416243,1.03081,0.000664253,0.0251169,1917,1289,58.6424,-15.8608
700,-265,58.6104,14.9445,0.000574317,-0.000438848,0.000697371,0.000929681,-0.000794212,0.47128,0.000996314,0.0103861,1924,1289,58.6104,-14.9444
707,-265,58.5645,14.073,-9.59223e-06,-0.000293439,0.00089349,0.000753176,-0.00105621,0.706635,0.00104952,0.010854,1931,1289,58.5645,-14.073
714,-265,58.5181,13.2206,-0.000709907,0.000280434,0.00103469,0.000932336,-0.00136181,1.00858,0.00133224,0.0142563,1938,1289,58.5181,-13.2206
721,-265,58.4148,12.3555,-0.00148901,0.000978368,0.00112514,0.00141439,-0.00192503,1.20109,0.00193552,0.0165285,1945,1289,58.4148,-12.3554
728,-265,58.347,11.558,-0.00239002,0.00182897,0.00118151,0.00213731,-0.00269837,1.31552,0.00279814,0.0164053,1952,1289,58.3471,-11.558
735,-265,58.4189,10.7163,-0.00345071,0.0028799,0.00120615,0.00310191,-0.00367273,1.38876,0.00391597,0.0172089,1959,1289,58.419,-10.7164
742,-265,58.3541,9.87061,-0.00467069,0.00414352,0.00118834,0.00430092,-0.00482809,1.43911,0.00527357,0.0210016,1966,1289,58.3541,-9.8706
749,-265,58.4633,9.18738,0,0,0,0,0,0,0,-1,1973,1289,58.4633,-9.18735
756,-265,58.0186,7.98047,0,0,0,0,0,0,0,-1,1980,1289,58.0186,-7.98042
763,-265,39.1299,4.9679,0,0,0,0,0,0,0,-1,1987,1289,39.1299,-4.96791
770,-265,35.1674,5.07715,0,0,0,0,0,0,0,-1,1994,1289,35.1673,-5.07718
777,-265,32.1664,5.3457,0,0,0,0,0,0,0,-1,2001,1289,32.1664,-5.34568
784,-265,0,0,0,0,0,0,0,0,0,-1,2008,1289,0,0
791,-265,0,0,0,0,0,0,0,0,0,-1,2015,1289,0,0
798,-265,0,0,0,0,0,0,0,0,0,-1,2022,1289,0,0
805,-265,0,0,0,0,0,0,0,0,0,-1,2029,1289,0,0
812,-265,0,0,0,0,0,0,0,0,0,-1,2036,1289,0,0
-700,-272,0,0,0,0,0,0,0,0,0,-1,524,1296,0,0
-693,-272,0,0,0,0,0,0,0,0,0,-1,531,1296,0,0
-686,-272,0,0,0,0,0,0,0,0,0,-1,538,1296,0,0
-679,-272,0,0,0,0,0,0,0,0,0,-1,545,1296,0,0
-672,-272,0,0,0,0,0,0,0,0,0,-1,552,1296,0,0
-665,-272,0,0,0,0,0,0,0,0,0,-1,559,1296,0,0
-658,-272,-44.6526,1.54443,0,0,0,0,0,0,0,-1,566,1296,-44.6526,-1.5444
-651,-272,-44.3723,1.53772,0,0,0,0,0,0,0,-1,573,1296,-44.3723,-1.53774
-644,-272,-44.1104,1.46021,0,0,0,0,0,0,0,-1,580,1296,-44.1104,-1.46022
-637,-272,-43.9348,1.25171,0,0,0,0,0,0,0,-1,587,1296,-43.9348,-1.25175
-630,-272,-43.5906,0.784912,0,0,0,0,0,0,0,-1,594,1296,-43.5906,-0.784935
-623,-272,-36.8673,6.23547,0,0,0,0,0,0,0,-1,601,1296,-36.8673,-6.23548
-616,-272,-40.6613,9.19543,0,0,0,0,0,0,0,-1,608,1296,-40.6612,-9.19547
-609,-272,-40.5809,10.0271,0.0357411,0.0123831,0.0268719,0.0533623,-0.00523811,0.580404,0.0374432,0.0299013,615,1296,-40.5809,-10.0271
-602,-272,-40.6658,10.7693,0.0173695,0.00205535,0.0104122,0.022637,-0.00321217,0.468354,0.0162681,0.0168354,622,1296,-40.6658,-10.7693
-595,-272,-40.733,11.6802,0.00635931,-0.000154898,0.00240986,0.0071539,-0.000949481,0.318496,0.00511522,0.0126059,629,1296,-40.7331,-11.6802
-588,-272,-40.7825,12.5496,0.00179592,-0.000702123,8.32902e-05,0.00179869,-0.000704897,0.0332929,0.00149072,0.011329,636,1296,-40.7825,-12.5496
-581,-272,-40.8611,13.4027,-0.000429905,-0.0014928,-0.00098301,0.000156119,-0.00207883,-0.537586,0.00144075,0.0104963,643,1296,-40.8611,-13.4027
-574,-272,-40.9178,14.316,-0.00210596,-0.00250856,-0.00202099,-0.000276266,-0.00433825,-0.735759,0.00280462,0.0162552,650,1296,-40.9178,-14.3161
-567,-272,-40.9991,15.136,-0.00315971,-0.00370441,-0.00301721,-0.00040259,-0.00646154,-0.740387,0.00417996,0.0255152,657,1296,-40.9991,-15.136
-560,-272,-41.3403,15.9624,-0.00346085,-0.00479241,-0.00361797,-0.000447915,-0.00780535,-0.694406,0.00506088,0.0338719,664,1296,-41.3403,-15.9624
-553,-272,-41.4364,16.86,-0.00361913,-0.0057441,-0.00337676,-0.00114165,-0.00822158,-0.632978,0.00514292,0.0476706,671,1296,-41.4364,-16.86
-546,-272,-41.7638,17.9086,0,0,0,0,0,0,0,-1,678,1296,-41.7638,-17.9086
-539,-272,-24.1416,11.0325,0,0,0,0,0,0,0,-1,685,1296,-24.1416,-11.0324
-532,-272,-10.5572,4.53943,0,0,0,0,0,0,0,-1,692,1296,-10.5572,-4.53943
-525,-272,-11.9599,0.0393066,0,0,0,0,0,0,0,-1,699,1296,-11.9599,-0.0393577
-518,-272,-21.1357,-1.41382,0,0,0,0,0,0,0,-1,706,1296,-21.1357,1.41379
-511,-272,-23.2565,0.226318,0,0,0,0,0,0,0,-1,713,1296,-23.2565,-0.22626
-504,-272,-19.7397,0.114746,0,0,0,0,0,0,0,-1,720,1296,-19.7397,-0.114701
-497,-272,-19.2225,1.71301,0,0,0,0,0,0,0,-1,727,1296,-19.2225,-1.71302
-490,-272,-20.1948,2.4032,0,0,0,0,0,0,0,-1,734,1296,-20.1948,-2.40322
-483,-272,-15.3736,0.792603,0,0,0,0,0,0,0,-1,741,1296,-15.3736,-0.79263
-476,-272,0,0,0,0,0,0,0,0,0,-1,748,1296,0,0
-469,-272,0,0,0,0,0,0,0,0,0,-1,755,1296,0,0
-462,-272,0,0,0,0,0,0,0,0,0,-1,762,1296,0,0
-455,-272,0,0,0,0,0,0,0,0,0,-1,769,1296,0,0
-448,-272,0,0,0,0,0,0,0,0,0,-1,776,1296,0,0
-441,-272,0,0,0,0,0,0,0,0,0,-1,783,1296,0,0
-434,-272,0,0,0,0,0,0,0,0,0,-1,790,1296,0,0
-427,-272,0,0,0,0,0,0,0,0,0,-1,797,1296,0,0
-420,-272,0,0,0,0,0,0,0,0,0,-1,804,1296,0,0
-413,-272,0,0,0,0,0,0,0,0,0,-1,811,1296,0,0
-406,-272,0,0,0,0,0,0,0,0,0,-1,818,1296,0,0
-399,-272,0,0,0,0,0,0,0,0,0,-1,825,1296,0,0
-392,-272,0,0,0,0,0,0,0,0,0,-1,832,1296,0,0
-385,-272,0,0,0,0,0,0,0,0,0,-1,839,1296,0,0
-378,-272,0,0,0,0,0,0,0,0,0,-1,846,1296,0,0
-371,-272,0,0,0,0,0,0,0,0,0,-1,853,1296,0,0
-364,-272,0,0,0,0,0,0,0,0,0,-1,860,1296,0,0
-357,-272,0,0,0,0,0,0,0,0,0,-1,867,1296,0,0
-350,-272,0,0,0,0,0,0,0,0,0,-1,874,1296,0,0
-343,-272,0,0,0,0,0,0,0,0,0,-1,881,1296,0,0
-336,-272,0,0,0,0,0,0,0,0,0,-1,888,1296,0,0
-329,-272,0,0,0,0,0,0,0,0,0,-1,895,1296,0,0
-322,-272,0,0,0,0,0,0,0,0,0,-1,902,1296,0,0
-315,-272,0,0,0,0,0,0,0,0,0,-1,909,1296,0,0
-308,-272,0,0,0,0,0,0,0,0,0,-1,916,1296,0,0
-301,-272,0,0,0,0,0,0,0,0,0,-1,923,1296,0,0
-294,-272,0,0,0,0,0,0,0,0,0,-1,930,1296,0,0
-287,-272,0,0,0,0,0,0,0,0,0,-1,937,1296,0,0
-280,-272,0,0,0,0,0,0,0,0,0,-1,944,1296,0,0
-273,-272,0,0,0,0,0,0,0,0,0,-1,951,1296,0,0
-266,-272,0,0,0,0,0,0,0,0,0,-1,958,1296,0,0
-259,-272,0,0,0,0,0,0,0,0,0,-1,965,1296,0,0
-252,-272,0,0,0,0,0,0,0,0,0,-1,972,1296,0,0
-245,-272,0,0,0,0,0,0,0,0,0,-1,979,1296,0,0
-238,-272,0,0,0,0,0,0,0,0,0,-1,986,1296,0,0
-231,-272,0,0,0,0,0,0,0,0,0,-1,993,1296,0,0
-224,-272,0,0,0,0,0,0,0,0,0,-1,1000,1296,0,0
-217,-272,0,0,0,0,0,0,0,0,0,-1,1007,1296,0,0
-210,-272,0,0,0,0,0,0,0,0,0,-1,1014,1296,0,0
-203,-272,0,0,0,0,0,0,0,0,0,-1,1021,1296,0,0
-196,-272,0,0,0,0,0,0,0,0,0,-1,1028,1296,0,0
-189,-272,0,0,0,0,0,0,0,0,0,-1,1035,1296,0,0
-182,-272,0,0,0,0,0,0,0,0,0,-1,1042,1296,0,0
-175,-272,0,0,0,0,0,0,0,0,0,-1,1049,1296,0,0
-168,-272,0,0,0,0,0,0,0,0,0,-1,1056,1296,0,0
-161,-272,0,0,0,0,0,0,0,0,0,-1,1063,1296,0,0
-154,-272,0,0,0,0,0,0,0,0,0,-1,1070,1296,0,0
-147,-272,0,0,0,0,0,0,0,0,0,-1,1077,1296,0,0
-140,-272,0,0,0,0,0,0,0,0,0,-1,1084,1296,0,0
-133,-272,0,0,0,0,0,0,0,0,0,-1,1091,1296,0,0
-126,-272,0,0,0,0,0,0,0,0,0,-1,1098,1296,0,0
-119,-272,0,0,0,0,0,0,0,0,0,-1,1105,1296,0,0
-112,-272,0,0,0,0,0,0,0,0,0,-1,1112,1296,0,0
-105,-272,0,0,0,0,0,0,0,0,0,-1,1119,1296,0,0
-98,-272,0,0,0,0,0,0,0,0,0,-1,1126,1296,0,0
-91,-272,0,0,0,0,0,0,0,0,0,-1,1133,1296,0,0
-84,-272,0,0,0,0,0,0,0,0,0,-1,1140,1296,0,0
-77,-272,0,0,0,0,0,0,0,0,0,-1,1147,1296,0,0
-70,-272,0,0,0,0,0,0,0,0,0,-1,1154,1296,0,0
-63,-272,0,0,0,0,0,0,0,0,0,-1,1161,1296,0,0
-56,-272,0,0,0,0,0,0,0,0,0,-1,1168,1296,0,0
-49,-272,0,0,0,0,0,0,0,0,0,-1,1175,1296,0,0
-42,-272,0,0,0,0,0,0,0,0,0,-1,1182,1296,0,0
-35,-272,0,0,0,0,0,0,0,0,0,-1,1189,1296,0,0
-28,-272,0,0,0,0,0,0,0,0,0,-1,1196,1296,0,0
-21,-272,0,0,0,0,0,0,0,0,0,-1,1203,1296,0,0
-14,-272,0,0,0,0,0,0,0,0,0,-1,1210,1296,0,0
-7,-272,0,0,0,0,0,0,0,0,0,-1,1217,1296,0,0
0,-272,0,0,0,0,0,0,0,0,0,-1,1224,1296,0,0
7,-272,0,0,0,0,0,0,0,0,0,-1,1231,1296,0,0
14,-272,0,0,0,0,0,0,0,0,0,-1,1238,1296,0,0
21,-272,0,0,0,0,0,0,0,0,0,-1,1245,1296,0,0
28,-272,0,0,0,0,0,0,0,0,0,-1,1252,1296,0,0
35,-272,0,0,0,0,0,0,0,0,0,-1,1259,1296,0,0
42,-272,0,0,0,0,0,0,0,0,0,-1,1266,1296,0,0
49,-272,0,0,0,0,0,0,0,0,0,-1,1273,1296,0,0
56,-272,0,0,0,0,0,0,0,0,0,-1,1280,1296,0,0
63,-272,0,0,0,0,0,0,0,0,0,-1,1287,1296,0,0
70,-272,0,0,0,0,0,0,0,0,0,-1,1294,1296,0,0
77,-272,0,0,0,0,0,0,0,0,0,-1,1301,1296,0,0
84,-272,0,0,0,0,0,0,0,0,0,-1,1308,1296,0,0
91,-272,0,0,0,0,0,0,0,0,0,-1,1315,1296,0,0
98,-272,0,0,0,0,0,0,0,0,0,-1,1322,1296,0,0
105,-272,0,0,0,0,0,0,0,0,0,-1,1329,1296,0,0
112,-272,0,0,0,0,0,0,0,0,0,-1,1336,1296,0,0
119,-272,0,0,0,0,0,0,0,0,0,-1,1343,1296,0,0
126,-272,0,0,0,0,0,0,0,0,0,-1,1350,1296,0,0
133,-272,0,0,0,0,0,0,0,0,0,-1,1357,1296,0,0
140,-272,0,0,0,0,0,0,0,0,0,-1,1364,1296,0,0
147,-272,0,0,0,0,0,0,0,0,0,-1,1371,1296,0,0
154,-272,0,0,0,0,0,0,0,0,0,-1,1378,1296,0,0
161,-272,0,0,0,0,0,0,0,0,0,-1,1385,1296,0,0
168,-272,0,0,0,0,0,0,0,0,0,-1,1392,1296,0,0
175,-272,0,0,0,0,0,0,0,0,0,-1,1399,1296,0,0
182,-272,0,0,0,0,0,0,0,0,0,-1,1406,1296,0,0
189,-272,0,0,0,0,0,0,0,0,0,-1,1413,1296,0,0
196,-272,0,0,0,0,0,0,0,0,0,-1,1420,1296,0,0
203,-272,0,0,0,0,0,0,0,0,0,-1,1427,1296,0,0
210,-272,0,0,0,0,0,0,0,0,0,-1,1434,1296,0,0
217,-272,0,0,0,0,0,0,0,0,0,-1,1441,1296,0,0
224,-272,0,0,0,0,0,0,0,0,0,-1,1448,1296,0,0
231,-272,0,0,0,0,0,0,0,0,0,-1,1455,1296,0,0
238,-272,0,0,0,0,0,0,0,0,0,-1,1462,1296,0,0
245,-272,0,0,0,0,0,0,0,0,0,-1,1469,1296,0,0
252,-272,0,0,0,0,0,0,0,0,0,-1,1476,1296,0,0
259,-272,0,0,0,0,0,0,0,0,0,-1,1483,1296,0,0
266,-272,0,0,0,0,0,0,0,0,0,-1,1490,1296,0,0
273,-272,0,0,0,0,0,0,0,0,0,-1,1497,1296,0,0
280,-272,0,0,0,0,0,0,0,0,0,-1,1504,1296,0,0
287,-272,0,0,0,0,0,0,0,0,0,-1,1511,1296,0,0
294,-272,0,0,0,0,0,0,0,0,0,-1,1518,1296,0,0
301,-272,0,0,0,0,0,0,0,0,0,-1,1525,1296,0,0
308,-272,0,0,0,0,0,0,0,0,0,-1,1532,1296,0,0
315,-272,0,0,0,0,0,0,0,0,0,-1,1539,1296,0,0
322,-272,0,0,0,0,0,0,0,0,0,-1,1546,1296,0,0
329,-272,0,0,0,0,0,0,0,0,0,-1,1553,1296,0,0
336,-272,0,0,0,0,0,0,0,0,0,-1,1560,1296,0,0
343,-272,0,0,0,0,0,0,0,0,0,-1,1567,1296,0,0
350,-272,0,0,0,0,0,0,0,0,0,-1,1574,1296,0,0
357,-272,0,0,0,0,0,0,0,0,0,-1,1581,1296,0,0
364,-272,0,0,0,0,0,0,0,0,0,-1,1588,1296,0,0
371,-272,0,0,0,0,0,0,0,0,0,-1,1595,1296,0,0
378,-272,0,0,0,0,0,0,0,0,0,-1,1602,1296,0,0
385,-272,0,0,0,0,0,0,0,0,0,-1,1609,1296,0,0
392,-272,0,0,0,0,0,0,0,0,0,-1,1616,1296,0,0
399,-272,0,0,0,0,0,0,0,0,0,-1,1623,1296,0,0
406,-272,0,0,0,0,0,0,0,0,0,-1,1630,1296,0,0
413,-272,0,0,0,0,0,0,0,0,0,-1,1637,1296,0,0
420,-272,0,0,0,0,0,0,0,0,0,-1,1644,1296,0,0
427,-272,0,0,0,0,0,0,0,0,0,-1,1651,1296,0,0
434,-272,0,0,0,0,0,0,0,0,0,-1,1658,1296,0,0
441,-272,0,0,0,0,0,0,0,0,0,-1,1665,1296,0,0
448,-272,0,0,0,0,0,0,0,0,0,-1,1672,1296,0,0
455,-272,0,0,0,0,0,0,0,0,0,-1,1679,1296,0,0
462,-272,0,0,0,0,0,0,0,0,0,-1,1686,1296,0,0
469,-272,0,0,0,0,0,0,0,0,0,-1,1693,1296,0,0
476,-272,0,0,0,0,0,0,0,0,0,-1,1700,1296,0,0
483,-272,0,0,0,0,0,0,0,0,0,-1,1707,1296,0,0
490,-272,0,0,0,0,0,0,0,0,0,-1,1714,1296,0,0
497,-272,0,0,0,0,0,0,0,0,0,-1,1721,1296,0,0
504,-272,0,0,0,0,0,0,0,0,0,-1,1728,1296,0,0
511,-272,0,0,0,0,0,0,0,0,0,-1,1735,1296,0,0
518,-272,0,0,0,0,0,0,0,0,0,-1,1742,1296,0,0
525,-272,0,0,0,0,0,0,0,0,0,-1,1749,1296,0,0
532,-272,0,0,0,0,0,0,0,0,0,-1,1756,1296,0,0
539,-272,0,0,0,0,0,0,0,0,0,-1,1763,1296,0,0
546,-272,0,0,0,0,0,0,0,0,0,-1,1770,1296,0,0
553,-272,0,0,0,0,0,0,0,0,0,-1,1777,1296,0,0
560,-272,0,0,0,0,0,0,0,0,0,-1,1784,1296,0,0
567,-272,0,0,0,0,0,0,0,0,0,-1,1791,1296,0,0
574,-272,0,0,0,0,0,0,0,0,0,-1,1798,1296,0,0
581,-272,0,0,0,0,0,0,0,0,0,-1,1805,1296,0,0
588,-272,0,0,0,0,0,0,0,0,0,-1,1812,1296,0,0
595,-272,0,0,0,0,0,0,0,0,0,-1,1819,1296,0,0
602,-272,82.9653,2.37585,-0.00247912,0.0160522,-0.00348248,0.016685,-0.00311195,-1.39104,0.0122927,0.030842,1826,1296,82.9654,-2.37583
609,-272,82.8657,2.25903,-0.00030576,0.0203578,-0.00442334,0.0212648,-0.00121283,-1.36854,0.0145976,0.040141,1833,1296,82.8657,-2.25906
616,-272,82.751,1.90442,0.000905202,0.0225172,-0.0049934,0.0236151,-0.000192733,-1.35436,0.015808,0.0454969,1840,1296,82.7509,-1.90447
623,-272,82.9889,1.91541,0.000548334,0.0195003,-0.00437153,0.02046,-0.000411416,-1.35468,0.0137792,0.0493646,1847,1296,82.9889,-1.91546
630,-272,83.2588,2.02344,0,0,0,0,0,0,0,-1,1854,1296,83.2589,-2.0235
637,-272,81.689,1.84167,0,0,0,0,0,0,0,-1,1861,1296,81.6889,-1.84169
644,-272,53.563,1.44336,0,0,0,0,0,0,0,-1,1868,1296,53.5629,-1.4433
651,-272,41.9225,4.27161,0,0,0,0,0,0,0,-1,1875,1296,41.9225,-4.27157
658,-272,35.1527,2.10571,0,0,0,0,0,0,0,-1,1882,1296,35.1527,-2.10573
665,-272,22.0238,4.14417,0,0,0,0,0,0,0,-1,1889,1296,22.0238,-4.14421
672,-272,22.661,7.21765,0,0,0,0,0,0,0,-1,1896,1296,22.661,-7.21761
679,-272,51.5885,15.1158,0,0,0,0,0,0,0,-1,1903,1296,51.5885,-15.1159
686,-272,57.7168,16.7332,0,0,0,0,0,0,0,-1,1910,1296,57.7168,-16.7332
693,-272,57.7655,15.886,0.00017485,0.000190045,0.000265784,0.00044834,-8.34448e-05,0.799686,0.000330241,0.014839,1917,1296,57.7655,-15.886
700,-272,57.7504,15.0164,0.000714728,-0.000405116,0.00045752,0.000877881,-0.000568269,0.342545,0.000841289,0.0126778,1924,1296,57.7503,-15.0164
707,-272,57.7043,14.1265,0.000181617,-9.78811e-05,0.000647738,0.00070451,-0.000620774,0.679152,0.000765662,0.0118468,1931,1296,57.7044,-14.1265
714,-272,57.6469,13.2609,-0.000485665,0.000535003,0.00076708,0.000946001,-0.000896663,1.07892,0.00106399,0.0148723,1938,1296,57.6469,-13.2608
721,-272,57.5541,12.4601,-0.00127639,0.00133062,0.000821518,0.0015679,-0.00151367,1.28962,0.00177924,0.019333,1945,1296,57.5541,-12.46
728,-272,57.5291,11.5776,-0.00221029,0.00233747,0.000799394,0.00247389,-0.00234671,1.40177,0.0027835,0.0198865,1952,1296,57.5291,-11.5776
735,-272,57.5293,10.751,-0.00334174,0.00361588,0.000698911,0.0036854,-0.00341125,1.47166,0.00409827,0.0174286,1959,1296,57.5293,-10.751
742,-272,57.4014,9.95703,-0.00467577,0.00521106,0.000475805,0.00523391,-0.00469861,1.52282,0.00573732,0.0258154,1966,1296,57.4014,-9.95699
749,-272,57.2705,9.0675,-0.00624126,0.00742746,-3.14532e-07,0.00742746,-0.00624126,-1.57077,0.00790154,0.0449298,1973,1296,57.2705,-9.06751
756,-272,57.2043,8.19958,0,0,0,0,0,0,0,-1,1980,1296,57.2044,-8.1996
763,-272,34.3995,5.88416,0,0,0,0,0,0,0,-1,1987,1296,34.3996,-5.88419
770,-272,25.9485,3.67749,0,0,0,0,0,0,0,-1,1994,1296,25.9485,-3.67744
777,-272,32.3619,6.13257,0,0,0,0,0,0,0,-1,2001,1296,32.362,-6.1326
784,-272,0,0,0,0,0,0,0,0,0,-1,2008,1296,0,0
791,-272,0,0,0,0,0,0,0,0,0,-1,2015,1296,0,0
798,-272,0,0,0,0,0,0,0,0,0,-1,2022,1296,0,0
805,-272,0,0,0,0,0,0,0,0,0,-1,2029,1296,0,0
812,-272,0,0,0,0,0,0,0,0,0,-1,2036,1296,0,0
-700,-279,0,0,0,0,0,0,0,0,0,-1,524,1303,0,0
-693,-279,0,0,0,0,0,0,0,0,0,-1,531,1303,0,0
-686,-279,0,0,0,0,0,0,0,0,0,-1,538,1303,0,0
-679,-279,0,0,0,0,0,0,0,0,0,-1,545,1303,0,0
-672,-279,0,0,0,0,0,0,0,0,0,-1,552,1303,0,0
-665,-279,0,0,0,0,0,0,0,0,0,-1,559,1303,0,0
-658,-279,-44.3733,1.65881,0,0,0,0,0,0,0,-1,566,1303,-44.3733,-1.65883
-651,-279,-44.1603,1.61462,0,0,0,0,0,0,0,-1,573,1303,-44.1604,-1.61462
-644,-279,-43.8069,1.50903,0,0,0,0,0,0,0,-1,580,1303,-43.8069,-1.50909
-637,-279,-43.2951,1.33704,0,0,0,0,0,0,0,-1,587,1303,-43.2951,-1.33703
-630,-279,-42.6152,1.22852,0,0,0,0,0,0,0,-1,594,1303,-42.6152,-1.22856
-623,-279,-41.8359,0.907715,0,0,0,0,0,0,0,-1,601,1303,-41.8358,-0.907688
-616,-279,-36.7089,8.0625,0,0,0,0,0,0,0,-1,608,1303,-36.7089,-8.06252
-609,-279,-39.9919,10.3347,0,0,0,0,0,0,0,-1,615,1303,-39.9919,-10.3347
-602,-279,-39.7664,10.8145,0.0173439,0.00268542,0.0103904,0.0227299,-0.00270063,0.478233,0.016129,0.0168276,622,1303,-39.7664,-10.8145
-595,-279,-39.8503,11.705,0.00694543,0.000620244,0.00299631,0.00813942,-0.000573753,0.379203,0.00562729,0.0118609,629,1303,-39.8503,-11.705
-588,-279,-39.9102,12.5884,0.00270415,4.64261e-05,0.000740566,0.00289658,-0.000145998,0.254213,0.00198151,0.0117895,636,1303,-39.9102,-12.5884
-581,-279,-39.977,13.4569,0.000751816,-0.000707203,-0.000292616,0.000808314,-0.000763702,-0.190733,0.000907725,0.0126157,643,1303,-39.977,-13.4569
-574,-279,-40.037,14.3536,-0.000629992,-0.00162768,-0.00126558,0.00023151,-0.00248918,-0.597667,0.00174176,0.014307,650,1303,-40.037,-14.3536
-567,-279,-40.0833,15.2305,-0.00148791,-0.00264113,-0.00218952,0.000199654,-0.00432869,-0.656647,0.00295459,0.0203603,657,1303,-40.0833,-15.2305
-560,-279,-40.2584,16.2124,-0.0015857,-0.00372202,-0.00288204,0.000419756,-0.00572747,-0.607933,0.00396564,0.0232465,664,1303,-40.2584,-16.2124
-553,-279,-40.3393,17.1106,-0.00141624,-0.00483581,-0.0030808,0.00039743,-0.00664948,-0.532069,0.00457122,0.0331408,671,1303,-40.3393,-17.1106
-546,-279,-40.2894,17.916,-0.000784711,-0.00560333,-0.00295731,0.000620483,-0.00700852,-0.443579,0.00489231,0.0392329,678,1303,-40.2895,-17.916
-539,-279,-40.7236,18.7427,0,0,0,0,0,0,0,-1,685,1303,-40.7236,-18.7426
-532,-279,-14.9813,7.89917,0,0,0,0,0,0,0,-1,692,1303,-14.9813,-7.89918
-525,-279,-11.7063,-0.539185,0,0,0,0,0,0,0,-1,699,1303,-11.7063,0.539166
-518,-279,-16.8138,1.11963,0,0,0,0,0,0,0,-1,706,1303,-16.8138,-1.11968
-511,-279,-20.1063,-1.37915,0,0,0,0,0,0,0,-1,713,1303,-20.1062,1.37918
-504,-279,-18.3766,1.04578,0,0,0,0,0,0,0,-1,720,1303,-18.3767,-1.04577
-497,-279,-19.0046,2.08911,0,0,0,0,0,0,0,-1,727,1303,-19.0046,-2.08905
-490,-279,-20.0176,2.55188,0,0,0,0,0,0,0,-1,734,1303,-20.0176,-2.55183
-483,-279,-20.8064,2.99792,0,0,0,0,0,0,0,-1,741,1303,-20.8064,-2.99797
-476,-279,0,0,0,0,0,0,0,0,0,-1,748,1303,0,0
-469,-279,0,0,0,0,0,0,0,0,0,-1,755,1303,0,0
-462,-279,0,0,0,0,0,0,0,0,0,-1,762,1303,0,0
-455,-279,0,0,0,0,0,0,0,0,0,-1,769,1303,0,0
-448,-279,0,0,0,0,0,0,0,0,0,-1,776,1303,0,0
-441,-279,0,0,0,0,0,0,0,0,0,-1,783,1303,0,0
-434,-279,0,0,0,0,0,0,0,0,0,-1,790,1303,0,0
-427,-279,0,0,0,0,0,0,0,0,0,-1,797,1303,0,0
-420,-279,0,0,0,0,0,0,0,0,0,-1,804,1303,0,0
-413,-279,0,0,0,0,0,0,0,0,0,-1,811,1303,0,0
-406,-279,0,0,0,0,0,0,0,0,0,-1,818,1303,0,0
-399,-279,0,0,0,0,0,0,0,0,0,-1,825,1303,0,0
-392,-279,0,0,0,0,0,0,0,0,0,-1,832,1303,0,0
-385,-279,0,0,0,0,0,0,0,0,0,-1,839,1303,0,0
-378,-279,0,0,0,0,0,0,0,0,0,-1,846,1303,0,0
-371,-279,0,0,0,0,0,0,0,0,0,-1,853,1303,0,0
-364,-279,0,0,0,0,0,0,0,0,0,-1,860,1303,0,0
-357,-279,0,0,0,0,0,0,0,0,0,-1,867,1303,0,0
-350,-279,0,0,0,0,0,0,0,0,0,-1,874,1303,0,0
-343,-279,0,0,0,0,0,0,0,0,0,-1,881,1303,0,0
-336,-279,0,0,0,0,0,0,0,0,0,-1,888,1303,0,0
-329,-279,0,0,0,0,0,0,0,0,0,-1,895,1303,0,0
-322,-279,0,0,0,0,0,0,0,0,0,-1,902,1303,0,0
-315,-279,0,0,0,0,0,0,0,0,0,-1,909,1303,0,0
-308,-279,0,0,0,0,0,0,0,0,0,-1,916,1303,0,0
-301,-279,0,0,0,0,0,0,0,0,0,-1,923,1303,0,0
-294,-279,0,0,0,0,0,0,0,0,0,-1,930,1303,0,0
-287,-279,0,0,0,0,0,0,0,0,0,-1,937,1303,0,0
-280,-279,0,0,0,0,0,0,0,0,0,-1,944,1303,0,0
-273,-279,0,0,0,0,0,0,0,0,0,-1,951,1303,0,0
-266,-279,0,0,0,0,0,0,0,0,0,-1,958,1303,0,0
-259,-279,0,0,0,0,0,0,0,0,0,-1,965,1303,0,0
-252,-279,0,0,0,0,0,0,0,0,0,-1,972,1303,0,0
-245,-279,0,0,0,0,0,0,0,0,0,-1,979,1303,0,0
-238,-279,0,0,0,0,0,0,0,0,0,-1,986,1303,0,0
-231,-279,0,0,0,0,0,0,0,0,0,-1,993,1303,0,0
-224,-279,0,0,0,0,0,0,0,0,0,-1,1000,1303,0,0
-217,-279,0,0,0,0,0,0,0,0,0,-1,1007,1303,0,0
-210,-279,0,0,0,0,0,0,0,0,0,-1,1014,1303,0,0
-203,-279,0,0,0,0,0,0,0,0,0,-1,1021,1303,0,0
-196,-279,0,0,0,0,0,0,0,0,0,-1,1028,1303,0,0
-189,-279,0,0,0,0,0,0,0,0,0,-1,1035,1303,0,0
-182,-279,0,0,0,0,0,0,0,0,0,-1,1042,1303,0,0
-175,-279,0,0,0,0,0,0,0,0,0,-1,1049,1303,0,0
-168,-279,0,0,0,0,0,0,0,0,0,-1,1056,1303,0,0
-161,-279,0,0,0,0,0,0,0,0,0,-1,1063,1303,0,0
-154,-279,0,0,0,0,0,0,0,0,0,-1,1070,1303,0,0
-147,-279,0,0,0,0,0,0,0,0,0,-1,1077,1303,0,0
-140,-279,0,0,0,0,0,0,0,0,0,-1,1084,1303,0,0
-133,-279,0,0,0,0,0,0,0,0,0,-1,1091,1303,0,0
-126,-279,0,0,0,0,0,0,0,0,0,-1,1098,1303,0,0
-119,-279,0,0,0,0,0,0,0,0,0,-1,1105,1303,0,0
-112,-279,0,0,0,0,0,0,0,0,0,-1,1112,1303,0,0
-105,-279,0,0,0,0,0,0,0,0,0,-1,1119,1303,0,0
-98,-279,0,0,0,0,0,0,0,0,0,-1,1126,1303,0,0
-91,-279,0,0,0,0,0,0,0,0,0,-1,1133,1303,0,0
-84,-279,0,0,0,0,0,0,0,0,0,-1,1140,1303,0,0
-77,-279,0,0,0,0,0,0,0,0,0,-1,1147,1303,0,0
-70,-279,0,0,0,0,0,0,0,0,0,-1,1154,1303,0,0
-63,-279,0,0,0,0,0,0,0,0,0,-1,1161,1303,0,0
-56,-279,0,0,0,0,0,0,0,0,0,-1,1168,1303,0,0
-49,-279,0,0,0,0,0,0,0,0,0,-1,1175,1303,0,0
-42,-279,0,0,0,0,0,0,0,0,0,-1,1182,1303,0,0
-35,-279,0,0,0,0,0,0,0,0,0,-1,1189,1303,0,0
-28,-279,0,0,0,0,0,0,0,0,0,-1,1196,1303,0,0
-21,-279,0,0,0,0,0,0,0,0,0,-1,1203,1303,0,0
-14,-279,0,0,0,0,0,0,0,0,0,-1,1210,1303,0,0
-7,-279,0,0,0,0,0,0,0,0,0,-1,1217,1303,0,0
0,-279,0,0,0,0,0,0,0,0,0,-1,1224,1303,0,0
7,-279,0,0,0,0,0,0,0,0,0,-1,1231,1303,0,0
14,-279,0,0,0,0,0,0,0,0,0,-1,1238,1303,0,0
21,-279,0,0,0,0,0,0,0,0,0,-1,1245,1303,0,0
28,-279,0,0,0,0,0,0,0,0,0,-1,1252,1303,0,0
35,-279,0,0,0,0,0,0,0,0,0,-1,1259,1303,0,0
42,-279,0,0,0,0,0,0,0,0,0,-1,1266,1303,0,0
49,-279,0,0,0,0,0,0,0,0,0,-1,1273,1303,0,0
56,-279,0,0,0,0,0,0,0,0,0,-1,1280,1303,0,0
63,-279,0,0,0,0,0,0,0,0,0,-1,1287,1303,0,0
70,-279,0,0,0,0,0,0,0,0,0,-1,1294,1303,0,0
77,-279,0,0,0,0,0,0,0,0,0,-1,1301,1303,0,0
84,-279,0,0,0,0,0,0,0,0,0,-1,1308,1303,0,0
91,-279,0,0,0,0,0,0,0,0,0,-1,1315,1303,0,0
98,-279,0,0,0,0,0,0,0,0,0,-1,1322,1303,0,0
105,-279,0,0,0,0,0,0,0,0,0,-1,1329,1303,0,0
112,-279,0,0,0,0,0,0,0,0,0,-1,1336,1303,0,0
119,-279,0,0,0,0,0,0,0,0,0,-1,1343,1303,0,0
126,-279,0,0,0,0,0,0,0,0,0,-1,1350,1303,0,0
133,-279,0,0,0,0,0,0,0,0,0,-1,1357,1303,0,0
140,-279,0,0,0,0,0,0,0,0,0,-1,1364,1303,0,0
147,-279,0,0,0,0,0,0,0,0,0,-1,1371,1303,0,0
154,-279,0,0,0,0,0,0,0,0,0,-1,1378,1303,0,0
161,-279,0,0,0,0,0,0,0,0,0,-1,1385,1303,0,0
168,-279,0,0,0,0,0,0,0,0,0,-1,1392,1303,0,0
175,-279,0,0,0,0,0,0,0,0,0,-1,1399,1303,0,0
182,-279,0,0,0,0,0,0,0,0,0,-1,1406,1303,0,0
189,-279,0,0,0,0,0,0,0,0,0,-1,1413,1303,0,0
196,-279,0,0,0,0,0,0,0,0,0,-1,1420,1303,0,0
203,-279,0,0,0,0,0,0,0,0,0,-1,1427,1303,0,0
210,-279,0,0,0,0,0,0,0,0,0,-1,1434,1303,0,0
217,-279,0,0,0,0,0,0,0,0,0,-1,1441,1303,0,0
224,-279,0,0,0,0,0,0,0,0,0,-1,1448,1303,0,0
231,-279,0,0,0,0,0,0,0,0,0,-1,1455,1303,0,0
238,-279,0,0,0,0,0,0,0,0,0,-1,1462,1303,0,0
245,-279,0,0,0,0,0,0,0,0,0,-1,1469,1303,0,0
252,-279,0,0,0,0,0,0,0,0,0,-1,1476,1303,0,0
259,-279,0,0,0,0,0,0,0,0,0,-1,1483,1303,0,0
266,-279,0,0,0,0,0,0,0,0,0,-1,1490,1303,0,0
273,-279,0,0,0,0,0,0,0,0,0,-1,1497,1303,0,0
280,-279,0,0,0,0,0,0,0,0,0,-1,1504,1303,0,0
287,-279,0,0,0,0,0,0,0,0,0,-1,1511,1303,0,0
294,-279,0,0,0,0,0,0,0,0,0,-1,1518,1303,0,0
301,-279,0,0,0,0,0,0,0,0,0,-1,1525,1303,0,0
308,-279,0,0,0,0,0,0,0,0,0,-1,1532,1303,0,0
315,-279,0,0,0,0,0,0,0,0,0,-1,1539,1303,0,0
322,-279,0,0,0,0,0,0,0,0,0,-1,1546,1303,0,0
329,-279,0,0,0,0,0,0,0,0,0,-1,1553,1303,0,0
336,-279,0,0,0,0,0,0,0,0,0,-1,1560,1303,0,0
343,-279,0,0,0,0,0,0,0,0,0,-1,1567,1303,0,0
350,-279,0,0,0,0,0,0,0,0,0,-1,1574,1303,0,0
357,-279,0,0,0,0,0,0,0,0,0,-1,1581,1303,0,0
364,-279,0,0,0,0,0,0,0,0,0,-1,1588,1303,0,0
371,-279,0,0,0,0,0,0,0,0,0,-1,1595,1303,0,0
378,-279,0,0,0,0,0,0,0,0,0,-1,1602,1303,0,0
385,-279,0,0,0,0,0,0,0,0,0,-1,1609,1303,0,0
392,-279,0,0,0,0,0,0,0,0,0,-1,1616,1303,0,0
399,-279,0,0,0,0,0,0,0,0,0,-1,1623,1303,0,0
406,-279,0,0,0,0,0,0,0,0,0,-1,1630,1303,0,0
413,-279,0,0,0,0,0,0,0,0,0,-1,1637,1303,0,0
420,-279,0,0,0,0,0,0,0,0,0,-1,1644,1303,0,0
427,-279,0,0,0,0,0,0,0,0,0,-1,1651,1303,0,0
434,-279,0,0,0,0,0,0,0,0,0,-1,1658,1303,0,0
441,-279,0,0,0,0,0,0,0,0,0,-1,1665,1303,0,0
448,-279,0,0,0,0,0,0,0,0,0,-1,1672,1303,0,0
455,-279,0,0,0,0,0,0,0,0,0,-1,1679,1303,0,0
462,-279,0,0,0,0,0,0,0,0,0,-1,1686,1303,0,0
469,-279,0,0,0,0,0,0,0,0,0,-1,1693,1303,0,0
476,-279,0,0,0,0,0,0,0,0,0,-1,1700,1303,0,0
483,-279,0,0,0,0,0,0,0,0,0,-1,1707,1303,0,0
490,-279,0,0,0,0,0,0,0,0,0,-1,1714,1303,0,0
497,-279,0,0,0,0,0,0,0,0,0,-1,1721,1303,0,0
504,-279,0,0,0,0,0,0,0,0,0,-1,1728,1303,0,0
511,-279,0,0,0,0,0,0,0,0,0,-1,1735,1303,0,0
518,-279,0,0,0,0,0,0,0,0,0,-1,1742,1303,0,0
525,-279,0,0,0,0,0,0,0,0,0,-1,1749,1303,0,0
532,-279,0,0,0,0,0,0,0,0,0,-1,1756,1303,0,0
539,-279,0,0,0,0,0,0,0,0,0,-1,1763,1303,0,0
546,-279,0,0,0,0,0,0,0,0,0,-1,1770,1303,0,0
553,-279,0,0,0,0,0,0,0,0,0,-1,1777,1303,0,0
560,-279,0,0,0,0,0,0,0,0,0,-1,1784,1303,0,0
567,-279,0,0,0,0,0,0,0,0,0,-1,1791,1303,0,0
574,-279,0,0,0,0,0,0,0,0,0,-1,1798,1303,0,0
581,-279,0,0,0,0,0,0,0,0,0,-1,1805,1303,0,0
588,-279,0,0,0,0,0,0,0,0,0,-1,1812,1303,0,0
595,-279,0,0,0,0,0,0,0,0,0,-1,1819,1303,0,0
602,-279,82.8997,2.21265,0,0,0,0,0,0,0,-1,1826,1303,82.8996,-2.21259
609,-279,82.8093,2.14612,0,0,0,0,0,0,0,-1,1833,1303,82.8094,-2.14606
616,-279,82.9059,1.46716,0,0,0,0,0,0,0,-1,1840,1303,82.9059,-1.46721
623,-279,82.7916,1.07117,0,0,0,0,0,0,0,-1,1847,1303,82.7917,-1.07111
630,-279,82.3967,2.03625,0,0,0,0,0,0,0,-1,1854,1303,82.3967,-2.03623
637,-279,73.1141,1.62744,0,0,0,0,0,0,0,-1,1861,1303,73.1142,-1.62742
644,-279,33.5021,3.40234,0,0,0,0,0,0,0,-1,1868,1303,33.5021,-3.40237
651,-279,29.8456,2.3562,0,0,0,0,0,0,0,-1,1875,1303,29.8455,-2.35615
658,-279,21.5076,7.65649,0,0,0,0,0,0,0,-1,1882,1303,21.5076,-7.65648
665,-279,18.9794,6.09607,0,0,0,0,0,0,0,-1,1889,1303,18.9793,-6.09601
672,-279,23.5206,8.32507,0,0,0,0,0,0,0,-1,1896,1303,23.5206,-8.32512
679,-279,56.6693,17.6709,0,0,0,0,0,0,0,-1,1903,1303,56.6694,-17.6709
686,-279,56.8597,16.7933,-8.8768e-05,0.000880972,-0.000562452,0.0011387,-0.000346495,-1.14113,0.000897218,0.0395807,1910,1303,56.8598,-16.7934
693,-279,56.9019,15.9377,0.000605149,-5.69172e-05,3.15436e-05,0.000606649,-5.84167e-05,0.0475008,0.000425244,0.0185209,1917,1303,56.9018,-15.9378
700,-279,56.887,15.0928,0.0009143,-0.000280878,0.000220881,0.000953815,-0.000320392,0.177023,0.000765364,0.0135197,1924,1303,56.8869,-15.0928
707,-279,56.8309,14.1863,0.000418349,0.000133704,0.000408386,0.000708502,-0.000156448,0.617729,0.000532205,0.0100566,1931,1303,56.8309,-14.1863
714,-279,56.7649,13.3398,-0.000213077,0.000777041,0.000515057,0.000996382,-0.000432418,1.1682,0.000846067,0.0109224,1938,1303,56.7649,-13.3398
721,-279,56.7542,12.4974,-0.00098315,0.00161658,0.000532614,0.00172147,-0.00108804,1.37636,0.00163575,0.0157799,1945,1303,56.7542,-12.4974
728,-279,56.7277,11.6501,-0.00192668,0.00272761,0.000435694,0.00276804,-0.00196711,1.47826,0.00274685,0.0176975,1952,1303,56.7276,-11.6501
735,-279,56.6467,10.8292,-0.0031143,0.00418259,0.000217851,0.00418909,-0.0031208,1.54098,0.00423536,0.0172673,1959,1303,56.6467,-10.8293
742,-279,56.5736,10.0143,-0.0045538,0.0060803,-0.000214857,0.00608464,-0.00455814,-1.5506,0.00616564,0.0285533,1966,1303,56.5737,-10.0143
749,-279,56.3777,8.73523,-0.00631529,0.00887886,-0.00105009,0.00895109,-0.00638752,-1.50212,0.00889688,0.0484523,1973,1303,56.3777,-8.73527
756,-279,56.259,7.50684,0,0,0,0,0,0,0,-1,1980,1303,56.259,-7.50686
763,-279,27.1613,3.46265,0,0,0,0,0,0,0,-1,1987,1303,27.1613,-3.4627
770,-279,21.5828,3.54199,0,0,0,0,0,0,0,-1,1994,1303,21.5827,-3.54198
777,-279,32.5369,6.99609,0,0,0,0,0,0,0,-1,2001,1303,32.5369,-6.99608
784,-279,0,0,0,0,0,0,0,0,0,-1,2008,1303,0,0
791,-279,0,0,0,0,0,0,0,0,0,-1,2015,1303,0,0
798,-279,0,0,0,0,0,0,0,0,0,-1,2022,1303,0,0
805,-279,0,0,0,0,0,0,0,0,0,-1,2029,1303,0,0
812,-279,0,0,0,0,0,0,0,0,0,-1,2036,1303,0,0
-700,-286,0,0,0,0,0,0,0,0,0,-1,524,1310,0,0
-693,-286,0,0,0,0,0,0,0,0,0,-1,531,1310,0,0
-686,-286,0,0,0,0,0,0,0,0,0,-1,538,1310,0,0
-679,-286,0,0,0,0,0,0,0,0,0,-1,545,1310,0,0
-672,-286,0,0,0,0,0,0,0,0,0,-1,552,1310,0,0
-665,-286,0,0,0,0,0,0,0,0,0,-1,559,1310,0,0
-658,-286,-44.103,1.76782,0,0,0,0,0,0,0,-1,566,1310,-44.103,-1.76778
-651,-286,-43.6417,1.98254,0,0,0,0,0,0,0,-1,573,1310,-43.6416,-1.98254
-644,-286,-43.3175,1.59558,0,0,0,0,0,0,0,-1,580,1310,-43.3175,-1.59556
-637,-286,-42.8448,1.15039,0,0,0,0,0,0,0,-1,587,1310,-42.8448,-1.15043
-630,-286,-42.1176,0.443848,0,0,0,0,0,0,0,-1,594,1310,-42.1176,-0.443802
-623,-286,-41.3121,-0.468384,0,0,0,0,0,0,0,-1,601,1310,-41.3121,0.468376
-616,-286,-22.0634,2.37744,0,0,0,0,0,0,0,-1,608,1310,-22.0633,-2.37746
-609,-286,-39.032,9.67261,0,0,0,0,0,0,0,-1,615,1310,-39.032,-9.67259
-602,-286,-38.923,10.7778,0.0163392,0.00312144,0.00960065,0.0213858,-0.00192515,0.483957,0.0149403,0.0244519,622,1310,-38.9229,-10.7778
-595,-286,-38.9956,11.7581,0.00732271,0.0014325,0.00356765,0.00900381,-0.000248605,0.440349,0.0060871,0.014466,629,1310,-38.9956,-11.758
-588,-286,-39.0514,12.6278,0.00345893,0.000806354,0.00139344,0.00405637,0.000208915,0.405043,0.00263737,0.0141864,636,1310,-39.0514,-12.6279
-581,-286,-39.0635,13.5089,0.00177032,8.1536e-05,0.000387696,0.00185507,-3.21463e-06,0.215215,0.00123779,0.0150411,643,1310,-39.0636,-13.5089
-574,-286,-39.1384,14.4088,0.000653307,-0.000756149,-0.000522744,0.00082602,-0.000928862,-0.319106,0.00101376,0.0157613,650,1310,-39.1384,-14.4088
-567,-286,-39.2318,15.3008,-6.90458e-06,-0.00162568,-0.00136104,0.000767227,-0.00239981,-0.517147,0.00190775,0.0159612,657,1310,-39.2318,-15.3008
-560,-286,-39.2575,16.2065,0.000117059,-0.00259397,-0.00201638,0.00119119,-0.00366811,-0.489468,0.00292449,0.0150372,664,1310,-39.2575,-16.2065
-553,-286,-39.2867,17.1244,0.000688664,-0.00362999,-0.00239375,0.00175312,-0.00469444,-0.41842,0.00384945,0.0159401,671,1310,-39.2867,-17.1244
-546,-286,-39.1939,18.1008,0.00182193,-0.00443038,-0.0024656,0.00267723,-0.00528569,-0.333907,0.0046789,0.0342404,678,1310,-39.1939,-18.1008
-539,-286,-39.2675,19.2062,0,0,0,0,0,0,0,-1,685,1310,-39.2675,-19.2062
-532,-286,-21.6771,10.4924,0,0,0,0,0,0,0,-1,692,1310,-21.6771,-10.4924
-525,-286,-11.4528,-1.11768,0,0,0,0,0,0,0,-1,699,1310,-11.4528,1.11769
-518,-286,-11.0701,1.37329,0,0,0,0,0,0,0,-1,706,1310,-11.0701,-1.37332
-511,-286,-17.7545,-0.0791016,0,0,0,0,0,0,0,-1,713,1310,-17.7544,0.0791606
-504,-286,-18.0455,1.29602,0,0,0,0,0,0,0,-1,720,1310,-18.0455,-1.29601
-497,-286,-18.3367,2.67114,0,0,0,0,0,0,0,-1,727,1310,-18.3366,-2.67118
-490,-286,-19.5795,2.47266,0,0,0,0,0,0,0,-1,734,1310,-19.5795,-2.4727
-483,-286,-19.7277,2.74744,0,0,0,0,0,0,0,-1,741,1310,-19.7277,-2.74747
-476,-286,-20.0391,3.06177,0,0,0,0,0,0,0,-1,748,1310,-20.0391,-3.06178
-469,-286,0,0,0,0,0,0,0,0,0,-1,755,1310,0,0
-462,-286,0,0,0,0,0,0,0,0,0,-1,762,1310,0,0
-455,-286,0,0,0,0,0,0,0,0,0,-1,769,1310,0,0
-448,-286,0,0,0,0,0,0,0,0,0,-1,776,1310,0,0
-441,-286,0,0,0,0,0,0,0,0,0,-1,783,1310,0,0
-434,-286,0,0,0,0,0,0,0,0,0,-1,790,1310,0,0
-427,-286,0,0,0,0,0,0,0,0,0,-1,797,1310,0,0
-420,-286,0,0,0,0,0,0,0,0,0,-1,804,1310,0,0
-413,-286,0,0,0,0,0,0,0,0,0,-1,811,1310,0,0
-406,-286,0,0,0,0,0,0,0,0,0,-1,818,1310,0,0
-399,-286,0,0,0,0,0,0,0,0,0,-1,825,1310,0,0
-392,-286,0,0,0,0,0,0,0,0,0,-1,832,1310,0,0
-385,-286,0,0,0,0,0,0,0,0,0,-1,839,1310,0,0
-378,-286,0,0,0,0,0,0,0,0,0,-1,846,1310,0,0
-371,-286,0,0,0,0,0,0,0,0,0,-1,853,1310,0,0
-364,-286,0,0,0,0,0,0,0,0,0,-1,860,1310,0,0
-357,-286,0,0,0,0,0,0,0,0,0,-1,867,1310,0,0
-350,-286,0,0,0,0,0,0,0,0,0,-1,874,1310,0,0
-343,-286,0,0,0,0,0,0,0,0,0,-1,881,1310,0,0
-336,-286,0,0,0,0,0,0,0,0,0,-1,888,1310,0,0
-329,-286,0,0,0,0,0,0,0,0,0,-1,895,1310,0,0
-322,-286,0,0,0,0,0,0,0,0,0,-1,902,1310,0,0
-315,-286,0,0,0,0,0,0,0,0,0,-1,909,1310,0,0
-308,-286,0,0,0,0,0,0,0,0,0,-1,916,1310,0,0
-301,-286,0,0,0,0,0,0,0,0,0,-1,923,1310,0,0
-294,-286,0,0,0,0,0,0,0,0,0,-1,930,1310,0,0
-287,-286,0,0,0,0,0,0,0,0,0,-1,937,1310,0,0
-280,-286,0,0,0,0,0,0,0,0,0,-1,944,1310,0,0
-273,-286,0,0,0,0,0,0,0,0,0,-1,951,1310,0,0
-266,-286,0,0,0,0,0,0,0,0,0,-1,958,1310,0,0
-259,-286,0,0,0,0,0,0,0,0,0,-1,965,1310,0,0
-252,-286,0,0,0,0,0,0,0,0,0,-1,972,1310,0,0
-245,-286,0,0,0,0,0,0,0,0,0,-1,979,1310,0,0
-238,-286,0,0,0,0,0,0,0,0,0,-1,986,1310,0,0
-231,-286,0,0,0,0,0,0,0,0,0,-1,993,1310,0,0
-224,-286,0,0,0,0,0,0,0,0,0,-1,1000,1310,0,0
-217,-286,0,0,0,0,0,0,0,0,0,-1,1007,1310,0,0
-210,-286,0,0,0,0,0,0,0,0,0,-1,1014,1310,0,0
-203,-286,0,0,0,0,0,0,0,0,0,-1,1021,1310,0,0
-196,-286,0,0,0,0,0,0,0,0,0,-1,1028,1310,0,0
-189,-286,0,0,0,0,0,0,0,0,0,-1,1035,1310,0,0
-182,-286,0,0,0,0,0,0,0,0,0,-1,1042,1310,0,0
-175,-286,0,0,0,0,0,0,0,0,0,-1,1049,1310,0,0
-168,-286,0,0,0,0,0,0,0,0,0,-1,1056,1310,0,0
-161,-286,0,0,0,0,0,0,0,0,0,-1,1063,1310,0,0
-154,-286,0,0,0,0,0,0,0,0,0,-1,1070,1310,0,0
-147,-286,0,0,0,0,0,0,0,0,0,-1,1077,1310,0,0
-140,-286,0,0,0,0,0,0,0,0,0,-1,1084,1310,0,0
-133,-286,0,0,0,0,0,0,0,0,0,-1,1091,1310,0,0
-126,-286,0,0,0,0,0,0,0,0,0,-1,1098,1310,0,0
-119,-286,0,0,0,0,0,0,0,0,0,-1,1105,1310,0,0
-112,-286,0,0,0,0,0,0,0,0,0,-1,1112,1310,0,0
-105,-286,0,0,0,0,0,0,0,0,0,-1,1119,1310,0,0
-98,-286,0,0,0,0,0,0,0,0,0,-1,1126,1310,0,0
-91,-286,0,0,0,0,0,0,0,0,0,-1,1133,1310,0,0
-84,-286,0,0,0,0,0,0,0,0,0,-1,1140,1310,0,0
-77,-286,0,0,0,0,0,0,0,0,0,-1,1147,1310,0,0
-70,-286,0,0,0,0,0,0,0,0,0,-1,1154,1310,0,0
-63,-286,0,0,0,0,0,0,0,0,0,-1,1161,1310,0,0
-56,-286,0,0,0,0,0,0,0,0,0,-1,1168,1310,0,0
-49,-286,0,0,0,0,0,0,0,0,0,-1,1175,1310,0,0
-42,-286,0,0,0,0,0,0,0,0,0,-1,1182,1310,0,0
-35,-286,0,0,0,0,0,0,0,0,0,-1,1189,1310,0,0
-28,-286,0,0,0,0,0,0,0,0,0,-1,1196,1310,0,0
-21,-286,0,0,0,0,0,0,0,0,0,-1,1203,1310,0,0
-14,-286,0,0,0,0,0,0,0,0,0,-1,1210,1310,0,0
-7,-286,0,0,0,0,0,0,0,0,0,-1,1217,1310,0,0
0,-286,0,0,0,0,0,0,0,0,0,-1,1224,1310,0,0
7,-286,0,0,0,0,0,0,0,0,0,-1,1231,1310,0,0
14,-286,0,0,0,0,0,0,0,0,0,-1,1238,1310,0,0
21,-286,0,0,0,0,0,0,0,0,0,-1,1245,1310,0,0
28,-286,0,0,0,0,0,0,0,0,0,-1,1252,1310,0,0
35,-286,0,0,0,0,0,0,0,0,0,-1,1259,1310,0,0
42,-286,0,0,0,0,0,0,0,0,0,-1,1266,1310,0,0
49,-286,0,0,0,0,0,0,0,0,0,-1,1273,1310,0,0
56,-286,0,0,0,0,0,0,0,0,0,-1,1280,1310,0,0
63,-286,0,0,0,0,0,0,0,0,0,-1,1287,1310,0,0
70,-286,0,0,0,0,0,0,0,0,0,-1,1294,1310,0,0
77,-286,0,0,0,0,0,0,0,0,0,-1,1301,1310,0,0
84,-286,0,0,0,0,0,0,0,0,0,-1,1308,1310,0,0
91,-286,0,0,0,0,0,0,0,0,0,-1,1315,1310,0,0
98,-286,0,0,0,0,0,0,0,0,0,-1,1322,1310,0,0
105,-286,0,0,0,0,0,0,0,0,0,-1,1329,1310,0,0
112,-286,0,0,0,0,0,0,0,0,0,-1,1336,1310,0,0
119,-286,0,0,0,0,0,0,0,0,0,-1,1343,1310,0,0
126,-286,0,0,0,0,0,0,0,0,0,-1,1350,1310,0,0
133,-286,0,0,0,0,0,0,0,0,0,-1,1357,1310,0,0
140,-286,0,0,0,0,0,0,0,0,0,-1,1364,1310,0,0
147,-286,0,0,0,0,0,0,0,0,0,-1,1371,1310,0,0
154,-286,0,0,0,0,0,0,0,0,0,-1,1378,1310,0,0
161,-286,0,0,0,0,0,0,0,0,0,-1,1385,1310,0,0
168,-286,0,0,0,0,0,0,0,0,0,-1,1392,1310,0,0
175,-286,0,0,0,0,0,0,0,0,0,-1,1399,1310,0,0
182,-286,0,0,0,0,0,0,0,0,0,-1,1406,1310,0,0
189,-286,0,0,0,0,0,0,0,0,0,-1,1413,1310,0,0
196,-286,0,0,0,0,0,0,0,0,0,-1,1420,1310,0,0
203,-286,0,0,0,0,0,0,0,0,0,-1,1427,1310,0,0
210,-286,0,0,0,0,0,0,0,0,0,-1,1434,1310,0,0
217,-286,0,0,0,0,0,0,0,0,0,-1,1441,1310,0,0
224,-286,0,0,0,0,0,0,0,0,0,-1,1448,1310,0,0
231,-286,0,0,0,0,0,0,0,0,0,-1,1455,1310,0,0
238,-286,0,0,0,0,0,0,0,0,0,-1,1462,1310,0,0
245,-286,0,0,0,0,0,0,0,0,0,-1,1469,1310,0,0
252,-286,0,0,0,0,0,0,0,0,0,-1,1476,1310,0,0
259,-286,0,0,0,0,0,0,0,0,0,-1,1483,1310,0,0
266,-286,0,0,0,0,0,0,0,0,0,-1,1490,1310,0,0
273,-286,0,0,0,0,0,0,0,0,0,-1,1497,1310,0,0
280,-286,0,0,0,0,0,0,0,0,0,-1,1504,1310,0,0
287,-286,0,0,0,0,0,0,0,0,0,-1,1511,1310,0,0
294,-286,0,0,0,0,0,0,0,0,0,-1,1518,1310,0,0
301,-286,0,0,0,0,0,0,0,0,0,-1,1525,1310,0,0
308,-286,0,0,0,0,0,0,0,0,0,-1,1532,1310,0,0
315,-286,0,0,0,0,0,0,0,0,0,-1,1539,1310,0,0
322,-286,0,0,0,0,0,0,0,0,0,-1,1546,1310,0,0
329,-286,0,0,0,0,0,0,0,0,0,-1,1553,1310,0,0
336,-286,0,0,0,0,0,0,0,0,0,-1,1560,1310,0,0
343,-286,0,0,0,0,0,0,0,0,0,-1,1567,1310,0,0
350,-286,0,0,0,0,0,0,0,0,0,-1,1574,1310,0,0
357,-286,0,0,0,0,0,0,0,0,0,-1,1581,1310,0,0
364,-286,0,0,0,0,0,0,0,0,0,-1,1588,1310,0,0
371,-286,0,0,0,0,0,0,0,0,0,-1,1595,1310,0,0
378,-286,0,0,0,0,0,0,0,0,0,-1,1602,1310,0,0
385,-286,0,0,0,0,0,0,0,0,0,-1,1609,1310,0,0
392,-286,0,0,0,0,0,0,0,0,0,-1,1616,1310,0,0
399,-286,0,0,0,0,0,0,0,0,0,-1,1623,1310,0,0
406,-286,0,0,0,0,0,0,0,0,0,-1,1630,1310,0,0
413,-286,0,0,0,0,0,0,0,0,0,-1,1637,1310,0,0
420,-286,0,0,0,0,0,0,0,0,0,-1,1644,1310,0,0
427,-286,0,0,0,0,0,0,0,0,0,-1,1651,1310,0,0
434,-286,0,0,0,0,0,0,0,0,0,-1,1658,1310,0,0
441,-286,0,0,0,0,0,0,0,0,0,-1,1665,1310,0,0
448,-286,0,0,0,0,0,0,0,0,0,-1,1672,1310,0,0
455,-286,0,0,0,0,0,0,0,0,0,-1,1679,1310,0,0
462,-286,0,0,0,0,0,0,0,0,0,-1,1686,1310,0,0
469,-286,0,0,0,0,0,0,0,0,0,-1,1693,1310,0,0
476,-286,0,0,0,0,0,0,0,0,0,-1,1700,1310,0,0
483,-286,0,0,0,0,0,0,0,0,0,-1,1707,1310,0,0
490,-286,0,0,0,0,0,0,0,0,0,-1,1714,1310,0,0
497,-286,0,0,0,0,0,0,0,0,0,-1,1721,1310,0,0
504,-286,0,0,0,0,0,0,0,0,0,-1,1728,1310,0,0
511,-286,0,0,0,0,0,0,0,0,0,-1,1735,1310,0,0
518,-286,0,0,0,0,0,0,0,0,0,-1,1742,1310,0,0
525,-286,0,0,0,0,0,0,0,0,0,-1,1749,1310,0,0
532,-286,0,0,0,0,0,0,0,0,0,-1,1756,1310,0,0
539,-286,0,0,0,0,0,0,0,0,0,-1,1763,1310,0,0
546,-286,0,0,0,0,0,0,0,0,0,-1,1770,1310,0,0
553,-286,0,0,0,0,0,0,0,0,0,-1,1777,1310,0,0
560,-286,0,0,0,0,0,0,0,0,0,-1,1784,1310,0,0
567,-286,0,0,0,0,0,0,0,0,0,-1,1791,1310,0,0
574,-286,0,0,0,0,0,0,0,0,0,-1,1798,1310,0,0
581,-286,0,0,0,0,0,0,0,0,0,-1,1805,1310,0,0
588,-286,0,0,0,0,0,0,0,0,0,-1,1812,1310,0,0
595,-286,80.5507,2.11548,0,0,0,0,0,0,0,-1,1819,1310,80.5507,-2.11547
602,-286,82.8534,1.9657,0,0,0,0,0,0,0,-1,1826,1310,82.8534,-1.96572
609,-286,82.439,1.56067,0,0,0,0,0,0,0,-1,1833,1310,82.439,-1.56065
616,-286,83.0232,1.10706,0,0,0,0,0,0,0,-1,1840,1310,83.0232,-1.10707
623,-286,82.4072,2.06226,0,0,0,0,0,0,0,-1,1847,1310,82.4072,-2.0623
630,-286,73.3732,1.46594,0,0,0,0,0,0,0,-1,1854,1310,73.3731,-1.46595
637,-286,47.8409,3.69824,0,0,0,0,0,0,0,-1,1861,1310,47.841,-3.69823
644,-286,25.6433,1.33862,0,0,0,0,0,0,0,-1,1868,1310,25.6433,-1.33858
651,-286,25.2507,1.88245,0,0,0,0,0,0,0,-1,1875,1310,25.2508,-1.88245
658,-286,25.9475,9.43689,0,0,0,0,0,0,0,-1,1882,1310,25.9475,-9.43693
665,-286,24.9838,8.03101,0,0,0,0,0,0,0,-1,1889,1310,24.9837,-8.03104
672,-286,40.2175,12.9626,0,0,0,0,0,0,0,-1,1896,1310,40.2175,-12.9627
679,-286,56.1471,17.6996,0,0,0,0,0,0,0,-1,1903,1310,56.1471,-17.6995
686,-286,56.0889,16.8671,0.000452143,0.000437213,-0.000610367,0.00105509,-0.000165735,-0.779283,0.00076465,0.0247918,1910,1310,56.0889,-16.8671
693,-286,56.0538,16.0272,0.000920448,-0.000159618,-0.000131283,0.000936177,-0.000175347,-0.119238,0.000690033,0.0177332,1917,1310,56.0538,-16.0273
700,-286,56.0232,15.1381,0.00100284,-9.64487e-05,6.178e-05,0.0010063,-9.99098e-05,0.0559652,0.000706527,0.01277,1924,1310,56.0231,-15.1381
707,-286,55.9606,14.2637,0.000564596,0.00036152,0.000243776,0.000727135,0.000198981,0.588065,0.000433914,0.00944768,1931,1310,55.9606,-14.2636
714,-286,55.8987,13.4175,3.81769e-06,0.000995136,0.000335504,0.00109801,-9.90555e-05,1.27327,0.00076716,0.00975153,1938,1310,55.8987,-13.4175
721,-286,55.889,12.5586,-0.00070236,0.00185853,0.000316037,0.00189696,-0.000740785,1.44981,0.00157091,0.0132522,1945,1310,55.8891,-12.5587
728,-286,55.8472,11.7112,-0.00161049,0.00304865,0.000147199,0.00305329,-0.00161514,1.53924,0.00273762,0.0159967,1952,1310,55.8472,-11.7112
735,-286,55.8025,10.8647,-0.00281943,0.00464002,-0.000176259,0.00464419,-0.0028236,-1.54718,0.00435403,0.0203733,1959,1310,55.8024,-10.8648
742,-286,55.7815,10.0167,-0.00434241,0.00680434,-0.000815388,0.00686368,-0.00440174,-1.49816,0.00655566,0.0361855,1966,1310,55.7814,-10.0167
749,-286,55.8621,9.15063,0,0,0,0,0,0,0,-1,1973,1310,55.862,-9.15064
756,-286,24.8226,4.43481,0,0,0,0,0,0,0,-1,1980,1310,24.8227,-4.43479
763,-286,20.6671,3.99683,0,0,0,0,0,0,0,-1,1987,1310,20.6671,-3.99683
770,-286,23.9147,4.45679,0,0,0,0,0,0,0,-1,1994,1310,23.9146,-4.45675
777,-286,0,0,0,0,0,0,0,0,0,-1,2001,1310,0,0
784,-286,0,0,0,0,0,0,0,0,0,-1,2008,1310,0,0
791,-286,0,0,0,0,0,0,0,0,0,-1,2015,1310,0,0
798,-286,0,0,0,0,0,0,0,0,0,-1,2022,1310,0,0
805,-286,0,0,0,0,0,0,0,0,0,-1,2029,1310,0,0
812,-286,0,0,0,0,0,0,0,0,0,-1,2036,1310,0,0
-700,-293,0,0,0,0,0,0,0,0,0,-1,524,1317,0,0
-693,-293,0,0,0,0,0,0,0,0,0,-1,531,1317,0,0
-686,-293,0,0,0,0,0,0,0,0,0,-1,538,1317,0,0
-679,-293,0,0,0,0,0,0,0,0,0,-1,545,1317,0,0
-672,-293,0,0,0,0,0,0,0,0,0,-1,552,1317,0,0
-665,-293,0,0,0,0,0,0,0,0,0,-1,559,1317,0,0
-658,-293,0,0,0,0,0,0,0,0,0,-1,566,1317,0,0
-651,-293,-42.6636,2.1897,0,0,0,0,0,0,0,-1,573,1317,-42.6636,-2.18965
-644,-293,-42.6672,1.56262,0,0,0,0,0,0,0,-1,580,1317,-42.6672,-1.5626
-637,-293,-42.7898,0.963745,0,0,0,0,0,0,0,-1,587,1317,-42.7898,-0.963689
-630,-293,-42.7558,0.296021,0,0,0,0,0,0,0,-1,594,1317,-42.7558,-0.295997
-623,-293,-15.6058,0.229614,0,0,0,0,0,0,0,-1,601,1317,-15.6058,-0.229666
-616,-293,-15.5056,2.17737,0,0,0,0,0,0,0,-1,608,1317,-15.5055,-2.17742
-609,-293,-25.3796,5.07373,0,0,0,0,0,0,0,-1,615,1317,-25.3796,-5.07369
-602,-293,-38.1373,10.7053,0,0,0,0,0,0,0,-1,622,1317,-38.1373,-10.7054
-595,-293,-38.1376,11.7975,0.00769459,0.00238296,0.00389748,0.00975509,0.000322457,0.486325,0.00639862,0.0249478,629,1317,-38.1376,-11.7975
-588,-293,-38.1583,12.7062,0.00411273,0.00158276,0.00184975,0.00508867,0.00060682,0.485489,0.00320936,0.0173371,636,1317,-38.1583,-12.7062
-581,-293,-38.1773,13.5688,0.00260668,0.000819577,0.000915274,0.00299226,0.000434004,0.398703,0.00186706,0.0183388,643,1317,-38.1773,-13.5689
-574,-293,-38.26,14.4849,0.00167876,1.69886e-05,0.000100066,0.00168476,1.09847e-05,0.0599278,0.00111953,0.0171472,650,1317,-38.26,-14.4848
-567,-293,-38.3484,15.3844,0.00119306,-0.000765383,-0.000598844,0.00136166,-0.000933981,-0.274434,0.00133303,0.0165916,657,1317,-38.3484,-15.3844
-560,-293,-38.3772,16.2908,0.00142278,-0.00156783,-0.00110975,0.0017896,-0.00193465,-0.319231,0.00215074,0.0163462,664,1317,-38.3772,-16.2908
-553,-293,-38.3936,17.1646,0.00222906,-0.00235408,-0.0014539,0.00265137,-0.00277639,-0.282686,0.00313399,0.0119367,671,1317,-38.3936,-17.1645
-546,-293,-38.376,18.1018,0.00360355,-0.00296566,-0.00149966,0.0039297,-0.00329182,-0.214153,0.00417477,0.0261726,678,1317,-38.376,-18.1018
-539,-293,-38.3412,19.0519,0,0,0,0,0,0,0,-1,685,1317,-38.3412,-19.0518
-532,-293,-27.4858,13.6715,0,0,0,0,0,0,0,-1,692,1317,-27.4858,-13.6715
-525,-293,-8.20642,3.62256,0,0,0,0,0,0,0,-1,699,1317,-8.20639,-3.6226
-518,-293,-10.1053,0.314209,0,0,0,0,0,0,0,-1,706,1317,-10.1053,-0.314234
-511,-293,-11.6276,0.235352,0,0,0,0,0,0,0,-1,713,1317,-11.6276,-0.235372
-504,-293,-17.9086,1.25427,0,0,0,0,0,0,0,-1,720,1317,-17.9086,-1.25423
-497,-293,-18.8006,1.62122,0,0,0,0,0,0,0,-1,727,1317,-18.8006,-1.62119
-490,-293,-18.8961,1.99255,0,0,0,0,0,0,0,-1,734,1317,-18.8961,-1.99251
-483,-293,-19.0831,2.35498,0,0,0,0,0,0,0,-1,741,1317,-19.0831,-2.35497
-476,-293,-19.5228,2.61243,0,0,0,0,0,0,0,-1,748,1317,-19.5228,-2.61237
-469,-293,0,0,0,0,0,0,0,0,0,-1,755,1317,0,0
-462,-293,0,0,0,0,0,0,0,0,0,-1,762,1317,0,0
-455,-293,0,0,0,0,0,0,0,0,0,-1,769,1317,0,0
-448,-293,0,0,0,0,0,0,0,0,0,-1,776,1317,0,0
-441,-293,0,0,0,0,0,0,0,0,0,-1,783,1317,0,0
-434,-293,0,0,0,0,0,0,0,0,0,-1,790,1317,0,0
-427,-293,0,0,0,0,0,0,0,0,0,-1,797,1317,0,0
-420,-293,0,0,0,0,0,0,0,0,0,-1,804,1317,0,0
-413,-293,0,0,0,0,0,0,0,0,0,-1,811,1317,0,0
-406,-293,0,0,0,0,0,0,0,0,0,-1,818,1317,0,0
-399,-293,0,0,0,0,0,0,0,0,0,-1,825,1317,0,0
-392,-293,0,0,0,0,0,0,0,0,0,-1,832,1317,0,0
-385,-293,0,0,0,0,0,0,0,0,0,-1,839,1317,0,0
-378,-293,0,0,0,0,0,0,0,0,0,-1,846,1317,0,0
-371,-293,0,0,0,0,0,0,0,0,0,-1,853,1317,0,0
-364,-293,0,0,0,0,0,0,0,0,0,-1,860,1317,0,0
-357,-293,0,0,0,0,0,0,0,0,0,-1,867,1317,0,0
-350,-293,0,0,0,0,0,0,0,0,0,-1,874,1317,0,0
-343,-293,0,0,0,0,0,0,0,0,0,-1,881,1317,0,0
-336,-293,0,0,0,0,0,0,0,0,0,-1,888,1317,0,0
-329,-293,0,0,0,0,0,0,0,0,0,-1,895,1317,0,0
-322,-293,0,0,0,0,0,0,0,0,0,-1,902,1317,0,0
-315,-293,0,0,0,0,0,0,0,0,0,-1,909,1317,0,0
-308,-293,0,0,0,0,0,0,0,0,0,-1,916,1317,0,0
-301,-293,0,0,0,0,0,0,0,0,0,-1,923,1317,0,0
-294,-293,0,0,0,0,0,0,0,0,0,-1,930,1317,0,0
-287,-293,0,0,0,0,0,0,0,0,0,-1,937,1317,0,0
-280,-293,0,0,0,0,0,0,0,0,0,-1,944,1317,0,0
-273,-293,0,0,0,0,0,0,0,0,0,-1,951,1317,0,0
-266,-293,0,0,0,0,0,0,0,0,0,-1,958,1317,0,0
-259,-293,0,0,0,0,0,0,0,0,0,-1,965,1317,0,0
-252,-293,0,0,0,0,0,0,0,0,0,-1,972,1317,0,0
-245,-293,0,0,0,0,0,0,0,0,0,-1,979,1317,0,0
-238,-293,0,0,0,0,0,0,0,0,0,-1,986,1317,0,0
-231,-293,0,0,0,0,0,0,0,0,0,-1,993,1317,0,0
-224,-293,0,0,0,0,0,0,0,0,0,-1,1000,1317,0,0
-217,-293,0,0,0,0,0,0,0,0,0,-1,1007,1317,0,0
-210,-293,0,0,0,0,0,0,0,0,0,-1,1014,1317,0,0
-203,-293,0,0,0,0,0,0,0,0,0,-1,1021,1317,0,0
-196,-293,0,0,0,0,0,0,0,0,0,-1,1028,1317,0,0
-189,-293,0,0,0,0,0,0,0,0,0,-1,1035,1317,0,0
-182,-293,0,0,0,0,0,0,0,0,0,-1,1042,1317,0,0
-175,-293,0,0,0,0,0,0,0,0,0,-1,1049,1317,0,0
-168,-293,0,0,0,0,0,0,0,0,0,-1,1056,1317,0,0
-161,-293,0,0,0,0,0,0,0,0,0,-1,1063,1317,0,0
-154,-293,0,0,0,0,0,0,0,0,0,-1,1070,1317,0,0
-147,-293,0,0,0,0,0,0,0,0,0,-1,1077,1317,0,0
-140,-293,0,0,0,0,0,0,0,0,0,-1,1084,1317,0,0
-133,-293,0,0,0,0,0,0,0,0,0,-1,1091,1317,0,0
-126,-293,0,0,0,0,0,0,0,0,0,-1,1098,1317,0,0
-119,-293,0,0,0,0,0,0,0,0,0,-1,1105,1317,0,0
-112,-293,0,0,0,0,0,0,0,0,0,-1,1112,1317,0,0
-105,-293,0,0,0,0,0,0,0,0,0,-1,1119,1317,0,0
-98,-293,0,0,0,0,0,0,0,0,0,-1,1126,1317,0,0
-91,-293,0,0,0,0,0,0,0,0,0,-1,1133,1317,0,0
-84,-293,0,0,0,0,0,0,0,0,0,-1,1140,1317,0,0
-77,-293,0,0,0,0,0,0,0,0,0,-1,1147,1317,0,0
-70,-293,0,0,0,0,0,0,0,0,0,-1,1154,1317,0,0
-63,-293,0,0,0,0,0,0,0,0,0,-1,1161,1317,0,0
-56,-293,0,0,0,0,0,0,0,0,0,-1,1168,1317,0,0
-49,-293,0,0,0,0,0,0,0,0,0,-1,1175,1317,0,0
-42,-293,0,0,0,0,0,0,0,0,0,-1,1182,1317,0,0
-35,-293,0,0,0,0,0,0,0,0,0,-1,1189,1317,0,0
-28,-293,0,0,0,0,0,0,0,0,0,-1,1196,1317,0,0
-21,-293,0,0,0,0,0,0,0,0,0,-1,1203,1317,0,0
-14,-293,0,0,0,0,0,0,0,0,0,-1,1210,1317,0,0
-7,-293,0,0,0,0,0,0,0,0,0,-1,1217,1317,0,0
0,-293,0,0,0,0,0,0,0,0,0,-1,1224,1317,0,0
7,-293,0,0,0,0,0,0,0,0,0,-1,1231,1317,0,0
14,-293,0,0,0,0,0,0,0,0,0,-1,1238,1317,0,0
21,-293,0,0,0,0,0,0,0,0,0,-1,1245,1317,0,0
28,-293,0,0,0,0,0,0,0,0,0,-1,1252,1317,0,0
35,-293,0,0,0,0,0,0,0,0,0,-1,1259,1317,0,0
42,-293,0,0,0,0,0,0,0,0,0,-1,1266,1317,0,0
49,-293,0,0,0,0,0,0,0,0,0,-1,1273,1317,0,0
56,-293,0,0,0,0,0,0,0,0,0,-1,1280,1317,0,0
63,-293,0,0,0,0,0,0,0,0,0,-1,1287,1317,0,0
70,-293,0,0,0,0,0,0,0,0,0,-1,1294,1317,0,0
77,-293,0,0,0,0,0,0,0,0,0,-1,1301,1317,0,0
84,-293,0,0,0,0,0,0,0,0,0,-1,1308,1317,0,0
91,-293,0,0,0,0,0,0,0,0,0,-1,1315,1317,0,0
98,-293,0,0,0,0,0,0,0,0,0,-1,1322,1317,0,0
105,-293,0,0,0,0,0,0,0,0,0,-1,1329,1317,0,0
112,-293,0,0,0,0,0,0,0,0,0,-1,1336,1317,0,0
119,-293,0,0,0,0,0,0,0,0,0,-1,1343,1317,0,0
126,-293,0,0,0,0,0,0,0,0,0,-1,1350,1317,0,0
133,-293,0,0,0,0,0,0,0,0,0,-1,1357,1317,0,0
140,-293,0,0,0,0,0,0,0,0,0,-1,1364,1317,0,0
147,-293,0,0,0,0,0,0,0,0,0,-1,1371,1317,0,0
154,-293,0,0,0,0,0,0,0,0,0,-1,1378,1317,0,0
161,-293,0,0,0,0,0,0,0,0,0,-1,1385,1317,0,0
168,-293,0,0,0,0,0,0,0,0,0,-1,1392,1317,0,0
175,-293,0,0,0,0,0,0,0,0,0,-1,1399,1317,0,0
182,-293,0,0,0,0,0,0,0,0,0,-1,1406,1317,0,0
189,-293,0,0,0,0,0,0,0,0,0,-1,1413,1317,0,0
196,-293,0,0,0,0,0,0,0,0,0,-1,1420,1317,0,0
203,-293,0,0,0,0,0,0,0,0,0,-1,1427,1317,0,0
210,-293,0,0,0,0,0,0,0,0,0,-1,1434,1317,0,0
217,-293,0,0,0,0,0,0,0,0,0,-1,1441,1317,0,0
224,-293,0,0,0,0,0,0,0,0,0,-1,1448,1317,0,0
231,-293,0,0,0,0,0,0,0,0,0,-1,1455,1317,0,0
238,-293,0,0,0,0,0,0,0,0,0,-1,1462,1317,0,0
245,-293,0,0,0,0,0,0,0,0,0,-1,1469,1317,0,0
252,-293,0,0,0,0,0,0,0,0,0,-1,1476,1317,0,0
259,-293,0,0,0,0,0,0,0,0,0,-1,1483,1317,0,0
266,-293,0,0,0,0,0,0,0,0,0,-1,1490,1317,0,0
273,-293,0,0,0,0,0,0,0,0,0,-1,1497,1317,0,0
280,-293,0,0,0,0,0,0,0,0,0,-1,1504,1317,0,0
287,-293,0,0,0,0,0,0,0,0,0,-1,1511,1317,0,0
294,-293,0,0,0,0,0,0,0,0,0,-1,1518,1317,0,0
301,-293,0,0,0,0,0,0,0,0,0,-1,1525,1317,0,0
308,-293,0,0,0,0,0,0,0,0,0,-1,1532,1317,0,0
315,-293,0,0,0,0,0,0,0,0,0,-1,1539,1317,0,0
322,-293,0,0,0,0,0,0,0,0,0,-1,1546,1317,0,0
329,-293,0,0,0,0,0,0,0,0,0,-1,1553,1317,0,0
336,-293,0,0,0,0,0,0,0,0,0,-1,1560,1317,0,0
343,-293,0,0,0,0,0,0,0,0,0,-1,1567,1317,0,0
350,-293,0,0,0,0,0,0,0,0,0,-1,1574,1317,0,0
357,-293,0,0,0,0,0,0,0,0,0,-1,1581,1317,0,0
364,-293,0,0,0,0,0,0,0,0,0,-1,1588,1317,0,0
371,-293,0,0,0,0,0,0,0,0,0,-1,1595,1317,0,0
378,-293,0,0,0,0,0,0,0,0,0,-1,1602,1317,0,0
385,-293,0,0,0,0,0,0,0,0,0,-1,1609,1317,0,0
392,-293,0,0,0,0,0,0,0,0,0,-1,1616,1317,0,0
399,-293,0,0,0,0,0,0,0,0,0,-1,1623,1317,0,0
406,-293,0,0,0,0,0,0,0,0,0,-1,1630,1317,0,0
413,-293,0,0,0,0,0,0,0,0,0,-1,1637,1317,0,0
420,-293,0,0,0,0,0,0,0,0,0,-1,1644,1317,0,0
427,-293,0,0,0,0,0,0,0,0,0,-1,1651,1317,0,0
434,-293,0,0,0,0,0,0,0,0,0,-1,1658,1317,0,0
441,-293,0,0,0,0,0,0,0,0,0,-1,1665,1317,0,0
448,-293,0,0,0,0,0,0,0,0,0,-1,1672,1317,0,0
455,-293,0,0,0,0,0,0,0,0,0,-1,1679,1317,0,0
462,-293,0,0,0,0,0,0,0,0,0,-1,1686,1317,0,0
469,-293,0,0,0,0,0,0,0,0,0,-1,1693,1317,0,0
476,-293,0,0,0,0,0,0,0,0,0,-1,1700,1317,0,0
483,-293,0,0,0,0,0,0,0,0,0,-1,1707,1317,0,0
490,-293,0,0,0,0,0,0,0,0,0,-1,1714,1317,0,0
497,-293,0,0,0,0,0,0,0,0,0,-1,1721,1317,0,0
504,-293,0,0,0,0,0,0,0,0,0,-1,1728,1317,0,0
511,-293,0,0,0,0,0,0,0,0,0,-1,1735,1317,0,0
518,-293,0,0,0,0,0,0,0,0,0,-1,1742,1317,0,0
525,-293,0,0,0,0,0,0,0,0,0,-1,1749,1317,0,0
532,-293,0,0,0,0,0,0,0,0,0,-1,1756,1317,0,0
539,-293,0,0,0,0,0,0,0,0,0,-1,1763,1317,0,0
546,-293,0,0,0,0,0,0,0,0,0,-1,1770,1317,0,0
553,-293,0,0,0,0,0,0,0,0,0,-1,1777,1317,0,0
560,-293,0,0,0,0,0,0,0,0,0,-1,1784,1317,0,0
567,-293,0,0,0,0,0,0,0,0,0,-1,1791,1317,0,0
574,-293,0,0,0,0,0,0,0,0,0,-1,1798,1317,0,0
581,-293,0,0,0,0,0,0,0,0,0,-1,1805,1317,0,0
588,-293,0,0,0,0,0,0,0,0,0,-1,1812,1317,0,0
595,-293,80.6711,1.9248,0,0,0,0,0,0,0,-1,1819,1317,80.6711,-1.92484
602,-293,80.6615,1.63855,0,0,0,0,0,0,0,-1,1826,1317,80.6615,-1.63851
609,-293,79.9369,0.984985,0,0,0,0,0,0,0,-1,1833,1317,79.9368,-0.985044
616,-293,82.6465,1.55835,0,0,0,0,0,0,0,-1,1840,1317,82.6464,-1.55832
623,-293,64.6224,0.448364,0,0,0,0,0,0,0,-1,1847,1317,64.6224,-0.448318
630,-293,46.6716,3.21558,0,0,0,0,0,0,0,-1,1854,1317,46.6716,-3.2156
637,-293,42.7729,4.95544,0,0,0,0,0,0,0,-1,1861,1317,42.773,-4.95546
644,-293,24.4565,0.520752,0,0,0,0,0,0,0,-1,1868,1317,24.4566,-0.520709
651,-293,25.8926,9.51245,0,0,0,0,0,0,0,-1,1875,1317,25.8926,-9.51246
658,-293,25.4904,9.10205,0,0,0,0,0,0,0,-1,1882,1317,25.4904,-9.10209
665,-293,39.7999,13.4221,0,0,0,0,0,0,0,-1,1889,1317,39.8,-13.4221
672,-293,55.4095,18.5916,0,0,0,0,0,0,0,-1,1896,1317,55.4095,-18.5916
679,-293,55.3533,17.754,0.000659278,0.0013565,-0.00127489,0.00232959,-0.000313803,-0.918859,0.00166753,0.0274265,1903,1317,55.3533,-17.7541
686,-293,55.286,16.931,0.0010517,0.000178359,-0.000738879,0.0014733,-0.000243238,-0.518513,0.00107251,0.0172864,1910,1317,55.286,-16.931
693,-293,55.2294,16.0756,0.00126022,-0.000172097,-0.000303188,0.00132175,-0.000233632,-0.200238,0.000968483,0.0133779,1917,1317,55.2294,-16.0756
700,-293,55.1602,15.1892,0.00115144,4.16791e-05,-7.097e-05,0.00115596,3.71588e-05,-0.0636053,0.000758558,0.0116233,1924,1317,55.1602,-15.1892
707,-293,55.1127,14.3223,0.000745886,0.000494243,0.0001252,0.000797564,0.000442566,0.39146,0.000461398,0.0119656,1931,1317,55.1127,-14.3223
714,-293,55.0592,13.4766,0.000222695,0.00113945,0.000220624,0.00118978,0.000172363,1.3465,0.000742434,0.00867126,1938,1317,55.0592,-13.4765
721,-293,55.0183,12.6168,-0.00044261,0.00205215,0.000180553,0.00206515,-0.000455609,1.49892,0.0015511,0.0105281,1945,1317,55.0183,-12.6168
728,-293,54.9958,11.7462,-0.00132013,0.00336772,-5.6126e-05,0.00336839,-0.0013208,-1.55883,0.00279202,0.0133484,1952,1317,54.9959,-11.7463
735,-293,54.9351,10.8674,-0.00253315,0.00516064,-0.000496805,0.00519259,-0.0025651,-1.50658,0.00456373,0.0249323,1959,1317,54.935,-10.8674
742,-293,55.0292,9.99292,0,0,0,0,0,0,0,-1,1966,1317,55.0291,-9.99291
749,-293,53.1185,8.14404,0,0,0,0,0,0,0,-1,1973,1317,53.1186,-8.14408
756,-293,24.978,3.9718,0,0,0,0,0,0,0,-1,1980,1317,24.978,-3.97186
763,-293,26.6713,4.74097,0,0,0,0,0,0,0,-1,1987,1317,26.6713,-4.74098
770,-293,24.1349,4.69153,0,0,0,0,0,0,0,-1,1994,1317,24.1348,-4.69159
777,-293,0,0,0,0,0,0,0,0,0,-1,2001,1317,0,0
784,-293,0,0,0,0,0,0,0,0,0,-1,2008,1317,0,0
791,-293,0,0,0,0,0,0,0,0,0,-1,2015,1317,0,0
798,-293,0,0,0,0,0,0,0,0,0,-1,2022,1317,0,0
805,-293,0,0,0,0,0,0,0,0,0,-1,2029,1317,0,0
812,-293,0,0,0,0,0,0,0,0,0,-1,2036,1317,0,0
-700,-300,0,0,0,0,0,0,0,0,0,-1,524,1324,0,0
-693,-300,0,0,0,0,0,0,0,0,0,-1,531,1324,0,0
-686,-300,0,0,0,0,0,0,0,0,0,-1,538,1324,0,0
-679,-300,0,0,0,0,0,0,0,0,0,-1,545,1324,0,0
-672,-300,0,0,0,0,0,0,0,0,0,-1,552,1324,0,0
-665,-300,0,0,0,0,0,0,0,0,0,-1,559,1324,0,0
-658,-300,0,0,0,0,0,0,0,0,0,-1,566,1324,0,0
-651,-300,-41.7632,2.33789,0,0,0,0,0,0,0,-1,573,1324,-41.7632,-2.33789
-644,-300,-42.3084,1.3728,0,0,0,0,0,0,0,-1,580,1324,-42.3084,-1.37282
-637,-300,-42.6259,0.807251,0,0,0,0,0,0,0,-1,587,1324,-42.6259,-0.807209
-630,-300,-21.1108,2.26306,0,0,0,0,0,0,0,-1,594,1324,-21.1109,-2.2631
-623,-300,-12.7067,1.48462,0,0,0,0,0,0,0,-1,601,1324,-12.7067,-1.48462
-616,-300,-14.9988,1.68628,0,0,0,0,0,0,0,-1,608,1324,-14.9988,-1.68627
-609,-300,-15.5027,3.29907,0,0,0,0,0,0,0,-1,615,1324,-15.5027,-3.29902
-602,-300,-37.3114,10.6945,0,0,0,0,0,0,0,-1,622,1324,-37.3114,-10.6945
-595,-300,-37.3279,11.7953,0.00660238,0.00307208,0.00375093,0.00898274,0.000691723,0.565476,0.00577175,0.0452555,629,1324,-37.328,-11.7953
-588,-300,-37.2519,12.7422,0.0043838,0.00218306,0.00238053,0.00590597,0.000660884,0.568907,0.00373655,0.02093,636,1324,-37.2519,-12.7421
-581,-300,-37.3219,13.6527,0.00311097,0.00145017,0.00143354,0.00393726,0.000623885,0.522882,0.00244357,0.0195018,643,1324,-37.3219,-13.6527
-574,-300,-37.3594,14.5654,0.00238185,0.00071949,0.000649543,0.00260554,0.000495792,0.331671,0.00159762,0.0167759,650,1324,-37.3595,-14.5654
-567,-300,-37.4165,15.443,0.00208291,4.07104e-05,3.56104e-05,0.00208353,4.00897e-05,0.0174302,0.00137585,0.0172127,657,1324,-37.4165,-15.443
-560,-300,-37.4865,16.3521,0.00237822,-0.000606041,-0.000374954,0.00242461,-0.00065243,-0.123095,0.00187217,0.0148563,664,1324,-37.4865,-16.3521
-553,-300,-37.4938,17.2417,0.0031943,-0.00119475,-0.000573262,0.00326794,-0.00126839,-0.127757,0.00270253,0.0107594,671,1324,-37.4938,-17.2418
-546,-300,-37.5348,18.1213,0.00450411,-0.00166942,-0.000479092,0.00454106,-0.00170637,-0.07699,0.00372867,0.0134326,678,1324,-37.5348,-18.1213
-539,-300,-37.3859,19.1481,0.00660458,-0.00201313,5.76958e-05,0.00660496,-0.00201352,0.00669462,0.00520594,0.0334663,685,1324,-37.3859,-19.1481
-532,-300,-37.1321,20.2035,0,0,0,0,0,0,0,-1,692,1324,-37.1321,-20.2034
-525,-300,-13.5115,6.27783,0,0,0,0,0,0,0,-1,699,1324,-13.5115,-6.2778
-518,-300,-9.8349,-0.537109,0,0,0,0,0,0,0,-1,706,1324,-9.83487,0.537068
-511,-300,-12.8644,0.081665,0,0,0,0,0,0,0,-1,713,1324,-12.8644,-0.0817016
-504,-300,-13.4829,-0.165527,0,0,0,0,0,0,0,-1,720,1324,-13.4829,0.165544
-497,-300,-18.1063,0.956543,0,0,0,0,0,0,0,-1,727,1324,-18.1063,-0.9565
-490,-300,-18.2293,1.53625,0,0,0,0,0,0,0,-1,734,1324,-18.2293,-1.53626
-483,-300,-18.3522,1.61084,0,0,0,0,0,0,0,-1,741,1324,-18.3522,-1.6108
-476,-300,-18.7489,1.96387,0,0,0,0,0,0,0,-1,748,1324,-18.7489,-1.96387
-469,-300,0,0,0,0,0,0,0,0,0,-1,755,1324,0,0
-462,-300,0,0,0,0,0,0,0,0,0,-1,762,1324,0,0
-455,-300,0,0,0,0,0,0,0,0,0,-1,769,1324,0,0
-448,-300,0,0,0,0,0,0,0,0,0,-1,776,1324,0,0
-441,-300,0,0,0,0,0,0,0,0,0,-1,783,1324,0,0
-434,-300,0,0,0,0,0,0,0,0,0,-1,790,1324,0,0
-427,-300,0,0,0,0,0,0,0,0,0,-1,797,1324,0,0
-420,-300,0,0,0,0,0,0,0,0,0,-1,804,1324,0,0
-413,-300,0,0,0,0,0,0,0,0,0,-1,811,1324,0,0
-406,-300,0,0,0,0,0,0,0,0,0,-1,818,1324,0,0
-399,-300,0,0,0,0,0,0,0,0,0,-1,825,1324,0,0
-392,-300,0,0,0,0,0,0,0,0,0,-1,832,1324,0,0
-385,-300,0,0,0,0,0,0,0,0,0,-1,839,1324,0,0
-378,-300,0,0,0,0,0,0,0,0,0,-1,846,1324,0,0
-371,-300,0,0,0,0,0,0,0,0,0,-1,853,1324,0,0
-364,-300,0,0,0,0,0,0,0,0,0,-1,860,1324,0,0
-357,-300,0,0,0,0,0,0,0,0,0,-1,867,1324,0,0
-350,-300,0,0,0,0,0,0,0,0,0,-1,874,1324,0,0
-343,-300,0,0,0,0,0,0,0,0,0,-1,881,1324,0,0
-336,-300,0,0,0,0,0,0,0,0,0,-1,888,1324,0,0
-329,-300,0,0,0,0,0,0,0,0,0,-1,895,1324,0,0
-322,-300,0,0,0,0,0,0,0,0,0,-1,902,1324,0,0
-315,-300,0,0,0,0,0,0,0,0,0,-1,909,1324,0,0
-308,-300,0,0,0,0,0,0,0,0,0,-1,916,1324,0,0
-301,-300,0,0,0,0,0,0,0,0,0,-1,923,1324,0,0
-294,-300,0,0,0,0,0,0,0,0,0,-1,930,1324,0,0
-287,-300,0,0,0,0,0,0,0,0,0,-1,937,1324,0,0
-280,-300,0,0,0,0,0,0,0,0,0,-1,944,1324,0,0
-273,-300,0,0,0,0,0,0,0,0,0,-1,951,1324,0,0
-266,-300,0,0,0,0,0,0,0,0,0,-1,958,1324,0,0
-259,-300,0,0,0,0,0,0,0,0,0,-1,965,1324,0,0
-252,-300,0,0,0,0,0,0,0,0,0,-1,972,1324,0,0
-245,-300,0,0,0,0,0,0,0,0,0,-1,979,1324,0,0
-238,-300,0,0,0,0,0,0,0,0,0,-1,986,1324,0,0
-231,-300,0,0,0,0,0,0,0,0,0,-1,993,1324,0,0
-224,-300,0,0,0,0,0,0,0,0,0,-1,1000,1324,0,0
-217,-300,0,0,0,0,0,0,0,0,0,-1,1007,1324,0,0
-210,-300,0,0,0,0,0,0,0,0,0,-1,1014,1324,0,0
-203,-300,0,0,0,0,0,0,0,0,0,-1,1021,1324,0,0
-196,-300,0,0,0,0,0,0,0,0,0,-1,1028,1324,0,0
-189,-300,0,0,0,0,0,0,0,0,0,-1,1035,1324,0,0
-182,-300,0,0,0,0,0,0,0,0,0,-1,1042,1324,0,0
-175,-300,0,0,0,0,0,0,0,0,0,-1,1049,1324,0,0
-168,-300,0,0,0,0,0,0,0,0,0,-1,1056,1324,0,0
-161,-300,0,0,0,0,0,0,0,0,0,-1,1063,1324,0,0
-154,-300,0,0,0,0,0,0,0,0,0,-1,1070,1324,0,0
-147,-300,0,0,0,0,0,0,0,0,0,-1,1077,1324,0,0
-140,-300,0,0,0,0,0,0,0,0,0,-1,1084,1324,0,0
-133,-300,0,0,0,0,0,0,0,0,0,-1,1091,1324,0,0
-126,-300,0,0,0,0,0,0,0,0,0,-1,1098,1324,0,0
-119,-300,0,0,0,0,0,0,0,0,0,-1,1105,1324,0,0
-112,-300,0,0,0,0,0,0,0,0,0,-1,1112,1324,0,0
-105,-300,0,0,0,0,0,0,0,0,0,-1,1119,1324,0,0
-98,-300,0,0,0,0,0,0,0,0,0,-1,1126,1324,0,0
-91,-300,0,0,0,0,0,0,0,0,0,-1,1133,1324,0,0
-84,-300,0,0,0,0,0,0,0,0,0,-1,1140,1324,0,0
-77,-300,0,0,0,0,0,0,0,0,0,-1,1147,1324,0,0
-70,-300,0,0,0,0,0,0,0,0,0,-1,1154,1324,0,0
-63,-300,0,0,0,0,0,0,0,0,0,-1,1161,1324,0,0
-56,-300,0,0,0,0,0,0,0,0,0,-1,1168,1324,0,0
-49,-300,0,0,0,0,0,0,0,0,0,-1,1175,1324,0,0
-42,-300,0,0,0,0,0,0,0,0,0,-1,1182,1324,0,0
-35,-300,0,0,0,0,0,0,0,0,0,-1,1189,1324,0,0
-28,-300,0,0,0,0,0,0,0,0,0,-1,1196,1324,0,0
-21,-300,0,0,0,0,0,0,0,0,0,-1,1203,1324,0,0
-14,-300,0,0,0,0,0,0,0,0,0,-1,1210,1324,0,0
-7,-300,0,0,0,0,0,0,0,0,0,-1,1217,1324,0,0
0,-300,0,0,0,0,0,0,0,0,0,-1,1224,1324,0,0
7,-300,0,0,0,0,0,0,0,0,0,-1,1231,1324,0,0
14,-300,0,0,0,0,0,0,0,0,0,-1,1238,1324,0,0
21,-300,0,0,0,0,0,0,0,0,0,-1,1245,1324,0,0
28,-300,0,0,0,0,0,0,0,0,0,-1,1252,1324,0,0
35,-300,0,0,0,0,0,0,0,0,0,-1,1259,1324,0,0
42,-300,0,0,0,0,0,0,0,0,0,-1,1266,1324,0,0
49,-300,0,0,0,0,0,0,0,0,0,-1,1273,1324,0,0
56,-300,0,0,0,0,0,0,0,0,0,-1,1280,1324,0,0
63,-300,0,0,0,0,0,0,0,0,0,-1,1287,1324,0,0
70,-300,0,0,0,0,0,0,0,0,0,-1,1294,1324,0,0
77,-300,0,0,0,0,0,0,0,0,0,-1,1301,1324,0,0
84,-300,0,0,0,0,0,0,0,0,0,-1,1308,1324,0,0
91,-300,0,0,0,0,0,0,0,0,0,-1,1315,1324,0,0
98,-300,0,0,0,0,0,0,0,0,0,-1,1322,1324,0,0
105,-300,0,0,0,0,0,0,0,0,0,-1,1329,1324,0,0
112,-300,0,0,0,0,0,0,0,0,0,-1,1336,1324,0,0
119,-300,0,0,0,0,0,0,0,0,0,-1,1343,1324,0,0
126,-300,0,0,0,0,0,0,0,0,0,-1,1350,1324,0,0
133,-300,0,0,0,0,0,0,0,0,0,-1,1357,1324,0,0
140,-300,0,0,0,0,0,0,0,0,0,-1,1364,1324,0,0
147,-300,0,0,0,0,0,0,0,0,0,-1,1371,1324,0,0
154,-300,0,0,0,0,0,0,0,0,0,-1,1378,1324,0,0
161,-300,0,0,0,0,0,0,0,0,0,-1,1385,1324,0,0
168,-300,0,0,0,0,0,0,0,0,0,-1,1392,1324,0,0
175,-300,0,0,0,0,0,0,0,0,0,-1,1399,1324,0,0
182,-300,0,0,0,0,0,0,0,0,0,-1,1406,1324,0,0
189,-300,0,0,0,0,0,0,0,0,0,-1,1413,1324,0,0
196,-300,0,0,0,0,0,0,0,0,0,-1,1420,1324,0,0
203,-300,0,0,0,0,0,0,0,0,0,-1,1427,1324,0,0
210,-300,0,0,0,0,0,0,0,0,0,-1,1434,1324,0,0
217,-300,0,0,0,0,0,0,0,0,0,-1,1441,1324,0,0
224,-300,0,0,0,0,0,0,0,0,0,-1,1448,1324,0,0
231,-300,0,0,0,0,0,0,0,0,0,-1,1455,1324,0,0
238,-300,0,0,0,0,0,0,0,0,0,-1,1462,1324,0,0
245,-300,0,0,0,0,0,0,0,0,0,-1,1469,1324,0,0
252,-300,0,0,0,0,0,0,0,0,0,-1,1476,1324,0,0
259,-300,0,0,0,0,0,0,0,0,0,-1,1483,1324,0,0
266,-300,0,0,0,0,0,0,0,0,0,-1,1490,1324,0,0
273,-300,0,0,0,0,0,0,0,0,0,-1,1497,1324,0,0
280,-300,0,0,0,0,0,0,0,0,0,-1,1504,1324,0,0
287,-300,0,0,0,0,0,0,0,0,0,-1,1511,1324,0,0
294,-300,0,0,0,0,0,0,0,0,0,-1,1518,1324,0,0
301,-300,0,0,0,0,0,0,0,0,0,-1,1525,1324,0,0
308,-300,0,0,0,0,0,0,0,0,0,-1,1532,1324,0,0
315,-300,0,0,0,0,0,0,0,0,0,-1,1539,1324,0,0
322,-300,0,0,0,0,0,0,0,0,0,-1,1546,1324,0,0
329,-300,0,0,0,0,0,0,0,0,0,-1,1553,1324,0,0
336,-300,0,0,0,0,0,0,0,0,0,-1,1560,1324,0,0
343,-300,0,0,0,0,0,0,0,0,0,-1,1567,1324,0,0
350,-300,0,0,0,0,0,0,0,0,0,-1,1574,1324,0,0
357,-300,0,0,0,0,0,0,0,0,0,-1,1581,1324,0,0
364,-300,0,0,0,0,0,0,0,0,0,-1,1588,1324,0,0
371,-300,0,0,0,0,0,0,0,0,0,-1,1595,1324,0,0
378,-300,0,0,0,0,0,0,0,0,0,-1,1602,1324,0,0
385,-300,0,0,0,0,0,0,0,0,0,-1,1609,1324,0,0
392,-300,0,0,0,0,0,0,0,0,0,-1,1616,1324,0,0
399,-300,0,0,0,0,0,0,0,0,0,-1,1623,1324,0,0
406,-300,0,0,0,0,0,0,0,0,0,-1,1630,1324,0,0
413,-300,0,0,0,0,0,0,0,0,0,-1,1637,1324,0,0
420,-300,0,0,0,0,0,0,0,0,0,-1,1644,1324,0,0
427,-300,0,0,0,0,0,0,0,0,0,-1,1651,1324,0,0
434,-300,0,0,0,0,0,0,0,0,0,-1,1658,1324,0,0
441,-300,0,0,0,0,0,0,0,0,0,-1,1665,1324,0,0
448,-300,0,0,0,0,0,0,0,0,0,-1,1672,1324,0,0
455,-300,0,0,0,0,0,0,0,0,0,-1,1679,1324,0,0
462,-300,0,0,0,0,0,0,0,0,0,-1,1686,1324,0,0
469,-300,0,0,0,0,0,0,0,0,0,-1,1693,1324,0,0
476,-300,0,0,0,0,0,0,0,0,0,-1,1700,1324,0,0
483,-300,0,0,0,0,0,0,0,0,0,-1,1707,1324,0,0
490,-300,0,0,0,0,0,0,0,0,0,-1,1714,1324,0,0
497,-300,0,0,0,0,0,0,0,0,0,-1,1721,1324,0,0
504,-300,0,0,0,0,0,0,0,0,0,-1,1728,1324,0,0
511,-300,0,0,0,0,0,0,0,0,0,-1,1735,1324,0,0
518,-300,0,0,0,0,0,0,0,0,0,-1,1742,1324,0,0
525,-300,0,0,0,0,0,0,0,0,0,-1,1749,1324,0,0
532,-300,0,0,0,0,0,0,0,0,0,-1,1756,1324,0,0
539,-300,0,0,0,0,0,0,0,0,0,-1,1763,1324,0,0
546,-300,0,0,0,0,0,0,0,0,0,-1,1770,1324,0,0
553,-300,0,0,0,0,0,0,0,0,0,-1,1777,1324,0,0
560,-300,0,0,0,0,0,0,0,0,0,-1,1784,1324,0,0
567,-300,0,0,0,0,0,0,0,0,0,-1,1791,1324,0,0
574,-300,0,0,0,0,0,0,0,0,0,-1,1798,1324,0,0
581,-300,0,0,0,0,0,0,0,0,0,-1,1805,1324,0,0
588,-300,66.4561,1.99207,0,0,0,0,0,0,0,-1,1812,1324,66.456,-1.99202
595,-300,66.4685,1.95496,0,0,0,0,0,0,0,-1,1819,1324,66.4685,-1.95499
602,-300,66.5259,1.72363,0,0,0,0,0,0,0,-1,1826,1324,66.5259,-1.72367
609,-300,64.2576,2.90149,0,0,0,0,0,0,0,-1,1833,1324,64.2575,-2.90154
616,-300,65.1267,2.84033,0,0,0,0,0,0,0,-1,1840,1324,65.1267,-2.84037
623,-300,47.4474,2.43188,0,0,0,0,0,0,0,-1,1847,1324,47.4474,-2.43194
630,-300,42.4099,3.9165,0,0,0,0,0,0,0,-1,1854,1324,42.4099,-3.91649
637,-300,31.1719,4.6366,0,0,0,0,0,0,0,-1,1861,1324,31.1718,-4.63665
644,-300,22.9836,3.44934,0,0,0,0,0,0,0,-1,1868,1324,22.9836,-3.4493
651,-300,25.5004,9.11853,0,0,0,0,0,0,0,-1,1875,1324,25.5004,-9.11851
658,-300,25.4012,9.20032,0,0,0,0,0,0,0,-1,1882,1324,25.4012,-9.20036
665,-300,54.6781,19.5612,0,0,0,0,0,0,0,-1,1889,1324,54.6782,-19.5611
672,-300,54.4917,18.7622,0.00206522,0.00279472,-0.00162482,0.00409523,0.000764707,-0.89581,0.00251432,0.0403874,1896,1324,54.4917,-18.7622
679,-300,54.4741,17.8383,0.00146631,0.00096027,-0.00123914,0.002478,-5.14153e-05,-0.684687,0.0016694,0.014356,1903,1324,54.4741,-17.8382
686,-300,54.4182,16.9794,0.00146575,7.76936e-05,-0.000719318,0.00177127,-0.000227825,-0.401645,0.00126365,0.0144939,1910,1324,54.4182,-16.9794
693,-300,54.3333,16.1077,0.00138691,-0.000114564,-0.000342146,0.0014612,-0.000188854,-0.213812,0.0010428,0.012923,1917,1324,54.3333,-16.1077
700,-300,54.2678,15.2228,0.00119484,0.000187349,-0.000126073,0.00121037,0.000171813,-0.122617,0.00075618,0.0138781,1924,1324,54.2678,-15.2227
707,-300,54.2542,14.3472,0.000934109,0.000649458,1.47621e-05,0.000934873,0.000648695,0.0516757,0.00055311,0.00971015,1931,1324,54.2542,-14.3471
714,-300,54.2292,13.4976,0.000562859,0.00130878,5.60121e-05,0.00131297,0.000558677,1.49626,0.000760841,0.0114916,1938,1324,54.2293,-13.4976
721,-300,54.1824,12.6515,5.48208e-05,0.00227168,-5.79634e-05,0.00227319,5.33061e-05,-1.54467,0.00149801,0.0131865,1945,1324,54.1824,-12.6515
728,-300,54.17,11.7639,-0.000672754,0.00372341,-0.000420379,0.00376325,-0.000712591,-1.47631,0.00277701,0.0179119,1952,1324,54.17,-11.7639
735,-300,54.1868,10.8955,0,0,0,0,0,0,0,-1,1959,1324,54.1868,-10.8955
742,-300,53.5487,10.2284,0,0,0,0,0,0,0,-1,1966,1324,53.5487,-10.2284
749,-300,27.4065,5.9718,0,0,0,0,0,0,0,-1,1973,1324,27.4065,-5.97181
756,-300,22.1423,3.45642,0,0,0,0,0,0,0,-1,1980,1324,22.1423,-3.45638
763,-300,22.6136,5.1571,0,0,0,0,0,0,0,-1,1987,1324,22.6136,-5.15706
770,-300,24.859,4.77979,0,0,0,0,0,0,0,-1,1994,1324,24.859,-4.77972
777,-300,0,0,0,0,0,0,0,0,0,-1,2001,1324,0,0
784,-300,0,0,0,0,0,0,0,0,0,-1,2008,1324,0,0
791,-300,0,0,0,0,0,0,0,0,0,-1,2015,1324,0,0
798,-300,0,0,0,0,0,0,0,0,0,-1,2022,1324,0,0
805,-300,0,0,0,0,0,0,0,0,0,-1,2029,1324,0,0
812,-300,0,0,0,0,0,0,0,0,0,-1,2036,1324,0,0
-700,-307,0,0,0,0,0,0,0,0,0,-1,524,1331,0,0
-693,-307,0,0,0,0,0,0,0,0,0,-1,531,1331,0,0
-686,-307,0,0,0,0,0,0,0,0,0,-1,538,1331,0,0
-679,-307,0,0,0,0,0,0,0,0,0,-1,545,1331,0,0
-672,-307,0,0,0,0,0,0,0,0,0,-1,552,1331,0,0
-665,-307,0,0,0,0,0,0,0,0,0,-1,559,1331,0,0
-658,-307,0,0,0,0,0,0,0,0,0,-1,566,1331,0,0
-651,-307,-40.7436,1.98755,0,0,0,0,0,0,0,-1,573,1331,-40.7436,-1.98753
-644,-307,-41.7838,1.24817,0,0,0,0,0,0,0,-1,580,1331,-41.7838,-1.2482
-637,-307,-41.9006,0.477783,0,0,0,0,0,0,0,-1,587,1331,-41.9006,-0.477844
-630,-307,-12.0005,0.767212,0,0,0,0,0,0,0,-1,594,1331,-12.0005,-0.767266
-623,-307,-12.2128,2.93811,0,0,0,0,0,0,0,-1,601,1331,-12.2128,-2.93813
-616,-307,-12.6612,2.08289,0,0,0,0,0,0,0,-1,608,1331,-12.6612,-2.08293
-609,-307,-12.2767,1.83228,0,0,0,0,0,0,0,-1,615,1331,-12.2768,-1.83224
-602,-307,-27.5659,6.93335,0,0,0,0,0,0,0,-1,622,1331,-27.5658,-6.9333
-595,-307,-36.61,11.7626,0,0,0,0,0,0,0,-1,629,1331,-36.61,-11.7625
-588,-307,-36.4109,12.7957,0.00415385,0.00263237,0.00296131,0.00645058,0.000335643,0.659671,0.00419298,0.0248089,636,1331,-36.4109,-12.7956
-581,-307,-36.4363,13.7032,0.00329966,0.00193637,0.00195322,0.00468676,0.000549275,0.617512,0.00295846,0.0161706,643,1331,-36.4363,-13.7032
-574,-307,-36.4387,14.588,0.00284087,0.00125338,0.00116578,0.00345747,0.000636782,0.486511,0.00212477,0.0135377,650,1331,-36.4387,-14.588
-567,-307,-36.505,15.4746,0.00278271,0.000645268,0.000601773,0.00294048,0.000487492,0.256414,0.00181972,0.0134802,657,1331,-36.505,-15.4746
-560,-307,-36.5555,16.3923,0.00311122,0.000101933,0.000250343,0.00313191,8.12493e-05,0.0824351,0.00206139,0.0143918,664,1331,-36.5556,-16.3924
-553,-307,-36.5853,17.2853,0.00386049,-0.000362097,0.000139758,0.00386511,-0.000366717,0.0330496,0.00270727,0.0118446,671,1331,-36.5853,-17.2853
-546,-307,-36.655,18.1649,0.00503079,-0.000752807,0.000301858,0.0050465,-0.000768519,0.0520038,0.00364759,0.0115332,678,1331,-36.655,-18.1649
-539,-307,-36.6331,19.1442,0.00680208,-0.00101885,0.000848977,0.00689317,-0.00110995,0.106893,0.00500661,0.029177,685,1331,-36.633,-19.1442
-532,-307,-36.5353,20.173,0,0,0,0,0,0,0,-1,692,1331,-36.5354,-20.173
-525,-307,-13.2009,6.91309,0,0,0,0,0,0,0,-1,699,1331,-13.2009,-6.9131
-518,-307,-9.77777,-1.56653,0,0,0,0,0,0,0,-1,706,1331,-9.77777,1.56651
-511,-307,-12.5226,0.26709,0,0,0,0,0,0,0,-1,713,1331,-12.5226,-0.267038
-504,-307,-12.5913,-0.308105,0,0,0,0,0,0,0,-1,720,1331,-12.5913,0.308124
-497,-307,-13.8586,-0.115845,0,0,0,0,0,0,0,-1,727,1331,-13.8587,0.115861
-490,-307,-17.9429,0.982178,0,0,0,0,0,0,0,-1,734,1331,-17.9429,-0.982198
-483,-307,-18.1066,0.927612,0,0,0,0,0,0,0,-1,741,1331,-18.1066,-0.927609
-476,-307,-18.1288,1.1228,0,0,0,0,0,0,0,-1,748,1331,-18.1289,-1.12286
-469,-307,-18.2028,0.798584,0,0,0,0,0,0,0,-1,755,1331,-18.2027,-0.798546
-462,-307,0,0,0,0,0,0,0,0,0,-1,762,1331,0,0
-455,-307,0,0,0,0,0,0,0,0,0,-1,769,1331,0,0
-448,-307,0,0,0,0,0,0,0,0,0,-1,776,1331,0,0
-441,-307,0,0,0,0,0,0,0,0,0,-1,783,1331,0,0
-434,-307,0,0,0,0,0,0,0,0,0,-1,790,1331,0,0
-427,-307,0,0,0,0,0,0,0,0,0,-1,797,1331,0,0
-420,-307,0,0,0,0,0,0,0,0,0,-1,804,1331,0,0
-413,-307,0,0,0,0,0,0,0,0,0,-1,811,1331,0,0
-406,-307,0,0,0,0,0,0,0,0,0,-1,818,1331,0,0
-399,-307,0,0,0,0,0,0,0,0,0,-1,825,1331,0,0
-392,-307,0,0,0,0,0,0,0,0,0,-1,832,1331,0,0
-385,-307,0,0,0,0,0,0,0,0,0,-1,839,1331,0,0
-378,-307,0,0,0,0,0,0,0,0,0,-1,846,1331,0,0
-371,-307,0,0,0,0,0,0,0,0,0,-1,853,1331,0,0
-364,-307,0,0,0,0,0,0,0,0,0,-1,860,1331,0,0
-357,-307,0,0,0,0,0,0,0,0,0,-1,867,1331,0,0
-350,-307,0,0,0,0,0,0,0,0,0,-1,874,1331,0,0
-343,-307,0,0,0,0,0,0,0,0,0,-1,881,1331,0,0
-336,-307,0,0,0,0,0,0,0,0,0,-1,888,1331,0,0
-329,-307,0,0,0,0,0,0,0,0,0,-1,895,1331,0,0
-322,-307,0,0,0,0,0,0,0,0,0,-1,902,1331,0,0
-315,-307,0,0,0,0,0,0,0,0,0,-1,909,1331,0,0
-308,-307,0,0,0,0,0,0,0,0,0,-1,916,1331,0,0
-301,-307,0,0,0,0,0,0,0,0,0,-1,923,1331,0,0
-294,-307,0,0,0,0,0,0,0,0,0,-1,930,1331,0,0
-287,-307,0,0,0,0,0,0,0,0,0,-1,937,1331,0,0
-280,-307,0,0,0,0,0,0,0,0,0,-1,944,1331,0,0
-273,-307,0,0,0,0,0,0,0,0,0,-1,951,1331,0,0
-266,-307,0,0,0,0,0,0,0,0,0,-1,958,1331,0,0
-259,-307,0,0,0,0,0,0,0,0,0,-1,965,1331,0,0
-252,-307,0,0,0,0,0,0,0,0,0,-1,972,1331,0,0
-245,-307,0,0,0,0,0,0,0,0,0,-1,979,1331,0,0
-238,-307,0,0,0,0,0,0,0,0,0,-1,986,1331,0,0
-231,-307,0,0,0,0,0,0,0,0,0,-1,993,1331,0,0
-224,-307,0,0,0,0,0,0,0,0,0,-1,1000,1331,0,0
-217,-307,0,0,0,0,0,0,0,0,0,-1,1007,1331,0,0
-210,-307,0,0,0,0,0,0,0,0,0,-1,1014,1331,0,0
-203,-307,0,0,0,0,0,0,0,0,0,-1,1021,1331,0,0
-196,-307,0,0,0,0,0,0,0,0,0,-1,1028,1331,0,0
-189,-307,0,0,0,0,0,0,0,0,0,-1,1035,1331,0,0
-182,-307,0,0,0,0,0,0,0,0,0,-1,1042,1331,0,0
-175,-307,0,0,0,0,0,0,0,0,0,-1,1049,1331,0,0
-168,-307,0,0,0,0,0,0,0,0,0,-1,1056,1331,0,0
-161,-307,0,0,0,0,0,0,0,0,0,-1,1063,1331,0,0
-154,-307,0,0,0,0,0,0,0,0,0,-1,1070,1331,0,0
-147,-307,0,0,0,0,0,0,0,0,0,-1,1077,1331,0,0
-140,-307,0,0,0,0,0,0,0,0,0,-1,1084,1331,0,0
-133,-307,0,0,0,0,0,0,0,0,0,-1,1091,1331,0,0
-126,-307,0,0,0,0,0,0,0,0,0,-1,1098,1331,0,0
-119,-307,0,0,0,0,0,0,0,0,0,-1,1105,1331,0,0
-112,-307,0,0,0,0,0,0,0,0,0,-1,1112,1331,0,0
-105,-307,0,0,0,0,0,0,0,0,0,-1,1119,1331,0,0
-98,-307,0,0,0,0,0,0,0,0,0,-1,1126,1331,0,0
-91,-307,0,0,0,0,0,0,0,0,0,-1,1133,1331,0,0
-84,-307,0,0,0,0,0,0,0,0,0,-1,1140,1331,0,0
-77,-307,0,0,0,0,0,0,0,0,0,-1,1147,1331,0,0
-70,-307,0,0,0,0,0,0,0,0,0,-1,1154,1331,0,0
-63,-307,0,0,0,0,0,0,0,0,0,-1,1161,1331,0,0
-56,-307,0,0,0,0,0,0,0,0,0,-1,1168,1331,0,0
-49,-307,0,0,0,0,0,0,0,0,0,-1,1175,1331,0,0
-42,-307,0,0,0,0,0,0,0,0,0,-1,1182,1331,0,0
-35,-307,0,0,0,0,0,0,0,0,0,-1,1189,1331,0,0
-28,-307,0,0,0,0,0,0,0,0,0,-1,1196,1331,0,0
-21,-307,0,0,0,0,0,0,0,0,0,-1,1203,1331,0,0
-14,-307,0,0,0,0,0,0,0,0,0,-1,1210,1331,0,0
-7,-307,0,0,0,0,0,0,0,0,0,-1,1217,1331,0,0
0,-307,0,0,0,0,0,0,0,0,0,-1,1224,1331,0,0
7,-307,0,0,0,0,0,0,0,0,0,-1,1231,1331,0,0
14,-307,0,0,0,0,0,0,0,0,0,-1,1238,1331,0,0
21,-307,0,0,0,0,0,0,0,0,0,-1,1245,1331,0,0
28,-307,0,0,0,0,0,0,0,0,0,-1,1252,1331,0,0
35,-307,0,0,0,0,0,0,0,0,0,-1,1259,1331,0,0
42,-307,0,0,0,0,0,0,0,0,0,-1,1266,1331,0,0
49,-307,0,0,0,0,0,0,0,0,0,-1,1273,1331,0,0
56,-307,0,0,0,0,0,0,0,0,0,-1,1280,1331,0,0
63,-307,0,0,0,0,0,0,0,0,0,-1,1287,1331,0,0
70,-307,0,0,0,0,0,0,0,0,0,-1,1294,1331,0,0
77,-307,0,0,0,0,0,0,0,0,0,-1,1301,1331,0,0
84,-307,0,0,0,0,0,0,0,0,0,-1,1308,1331,0,0
91,-307,0,0,0,0,0,0,0,0,0,-1,1315,1331,0,0
98,-307,0,0,0,0,0,0,0,0,0,-1,1322,1331,0,0
105,-307,0,0,0,0,0,0,0,0,0,-1,1329,1331,0,0
112,-307,0,0,0,0,0,0,0,0,0,-1,1336,1331,0,0
119,-307,0,0,0,0,0,0,0,0,0,-1,1343,1331,0,0
126,-307,0,0,0,0,0,0,0,0,0,-1,1350,1331,0,0
133,-307,0,0,0,0,0,0,0,0,0,-1,1357,1331,0,0
140,-307,0,0,0,0,0,0,0,0,0,-1,1364,1331,0,0
147,-307,0,0,0,0,0,0,0,0,0,-1,1371,1331,0,0
154,-307,0,0,0,0,0,0,0,0,0,-1,1378,1331,0,0
161,-307,0,0,0,0,0,0,0,0,0,-1,1385,1331,0,0
168,-307,0,0,0,0,0,0,0,0,0,-1,1392,1331,0,0
175,-307,0,0,0,0,0,0,0,0,0,-1,1399,1331,0,0
182,-307,0,0,0,0,0,0,0,0,0,-1,1406,1331,0,0
189,-307,0,0,0,0,0,0,0,0,0,-1,1413,1331,0,0
196,-307,0,0,0,0,0,0,0,0,0,-1,1420,1331,0,0
203,-307,0,0,0,0,0,0,0,0,0,-1,1427,1331,0,0
210,-307,0,0,0,0,0,0,0,0,0,-1,1434,1331,0,0
217,-307,0,0,0,0,0,0,0,0,0,-1,1441,1331,0,0
224,-307,0,0,0,0,0,0,0,0,0,-1,1448,1331,0,0
231,-307,0,0,0,0,0,0,0,0,0,-1,1455,1331,0,0
238,-307,0,0,0,0,0,0,0,0,0,-1,1462,1331,0,0
245,-307,0,0,0,0,0,0,0,0,0,-1,1469,1331,0,0
252,-307,0,0,0,0,0,0,0,0,0,-1,1476,1331,0,0
259,-307,0,0,0,0,0,0,0,0,0,-1,1483,1331,0,0
266,-307,0,0,0,0,0,0,0,0,0,-1,1490,1331,0,0
273,-307,0,0,0,0,0,0,0,0,0,-1,1497,1331,0,0
280,-307,0,0,0,0,0,0,0,0,0,-1,1504,1331,0,0
287,-307,0,0,0,0,0,0,0,0,0,-1,1511,1331,0,0
294,-307,0,0,0,0,0,0,0,0,0,-1,1518,1331,0,0
301,-307,0,0,0,0,0,0,0,0,0,-1,1525,1331,0,0
308,-307,0,0,0,0,0,0,0,0,0,-1,1532,1331,0,0
315,-307,0,0,0,0,0,0,0,0,0,-1,1539,1331,0,0
322,-307,0,0,0,0,0,0,0,0,0,-1,1546,1331,0,0
329,-307,0,0,0,0,0,0,0,0,0,-1,1553,1331,0,0
336,-307,0,0,0,0,0,0,0,0,0,-1,1560,1331,0,0
343,-307,0,0,0,0,0,0,0,0,0,-1,1567,1331,0,0
350,-307,0,0,0,0,0,0,0,0,0,-1,1574,1331,0,0
357,-307,0,0,0,0,0,0,0,0,0,-1,1581,1331,0,0
364,-307,0,0,0,0,0,0,0,0,0,-1,1588,1331,0,0
371,-307,0,0,0,0,0,0,0,0,0,-1,1595,1331,0,0
378,-307,0,0,0,0,0,0,0,0,0,-1,1602,1331,0,0
385,-307,0,0,0,0,0,0,0,0,0,-1,1609,1331,0,0
392,-307,0,0,0,0,0,0,0,0,0,-1,1616,1331,0,0
399,-307,0,0,0,0,0,0,0,0,0,-1,1623,1331,0,0
406,-307,0,0,0,0,0,0,0,0,0,-1,1630,1331,0,0
413,-307,0,0,0,0,0,0,0,0,0,-1,1637,1331,0,0
420,-307,0,0,0,0,0,0,0,0,0,-1,1644,1331,0,0
427,-307,0,0,0,0,0,0,0,0,0,-1,1651,1331,0,0
434,-307,0,0,0,0,0,0,0,0,0,-1,1658,1331,0,0
441,-307,0,0,0,0,0,0,0,0,0,-1,1665,1331,0,0
448,-307,0,0,0,0,0,0,0,0,0,-1,1672,1331,0,0
455,-307,0,0,0,0,0,0,0,0,0,-1,1679,1331,0,0
462,-307,0,0,0,0,0,0,0,0,0,-1,1686,1331,0,0
469,-307,0,0,0,0,0,0,0,0,0,-1,1693,1331,0,0
476,-307,0,0,0,0,0,0,0,0,0,-1,1700,1331,0,0
483,-307,0,0,0,0,0,0,0,0,0,-1,1707,1331,0,0
490,-307,0,0,0,0,0,0,0,0,0,-1,1714,1331,0,0
497,-307,0,0,0,0,0,0,0,0,0,-1,1721,1331,0,0
504,-307,0,0,0,0,0,0,0,0,0,-1,1728,1331,0,0
511,-307,0,0,0,0,0,0,0,0,0,-1,1735,1331,0,0
518,-307,0,0,0,0,0,0,0,0,0,-1,1742,1331,0,0
525,-307,0,0,0,0,0,0,0,0,0,-1,1749,1331,0,0
532,-307,0,0,0,0,0,0,0,0,0,-1,1756,1331,0,0
539,-307,0,0,0,0,0,0,0,0,0,-1,1763,1331,0,0
546,-307,0,0,0,0,0,0,0,0,0,-1,1770,1331,0,0
553,-307,0,0,0,0,0,0,0,0,0,-1,1777,1331,0,0
560,-307,0,0,0,0,0,0,0,0,0,-1,1784,1331,0,0
567,-307,0,0,0,0,0,0,0,0,0,-1,1791,1331,0,0
574,-307,0,0,0,0,0,0,0,0,0,-1,1798,1331,0,0
581,-307,0,0,0,0,0,0,0,0,0,-1,1805,1331,0,0
588,-307,66.5917,1.60864,0,0,0,0,0,0,0,-1,1812,1331,66.5917,-1.60867
595,-307,66.708,1.85352,0,0,0,0,0,0,0,-1,1819,1331,66.708,-1.85351
602,-307,66.111,1.49976,0,0,0,0,0,0,0,-1,1826,1331,66.1109,-1.49974
609,-307,63.8848,2.78992,0,0,0,0,0,0,0,-1,1833,1331,63.8848,-2.78989
616,-307,53.2878,0.135498,0,0,0,0,0,0,0,-1,1840,1331,53.2878,-0.135477
623,-307,44.3966,2.84888,0,0,0,0,0,0,0,-1,1847,1331,44.3966,-2.84884
630,-307,29.8116,1.51184,0,0,0,0,0,0,0,-1,1854,1331,29.8116,-1.51188
637,-307,24.6407,4.09106,0,0,0,0,0,0,0,-1,1861,1331,24.6407,-4.09103
644,-307,22.6885,5.80408,0,0,0,0,0,0,0,-1,1868,1331,22.6884,-5.80408
651,-307,17.5013,5.80078,0,0,0,0,0,0,0,-1,1875,1331,17.5014,-5.80072
658,-307,37.4427,13.9775,0,0,0,0,0,0,0,-1,1882,1331,37.4427,-13.9776
665,-307,53.7928,19.6067,0,0,0,0,0,0,0,-1,1889,1331,53.7929,-19.6066
672,-307,53.6511,18.752,0.00180381,0.00195609,-0.00137774,0.0032598,0.000500106,-0.813003,0.00202716,0.0230757,1896,1331,53.6511,-18.752
679,-307,53.5858,17.8918,0.00129515,0.000529759,-0.000981313,0.00196575,-0.000140842,-0.599478,0.00135988,0.0112784,1903,1331,53.5859,-17.8919
686,-307,53.5226,17.0275,0.00134194,-3.61174e-06,-0.000577539,0.00155583,-0.000217503,-0.354687,0.0011168,0.0112259,1910,1331,53.5225,-17.0275
693,-307,53.4563,16.15,0.00135838,-5.04384e-05,-0.00030422,0.00142127,-0.000113325,-0.203842,0.000987456,0.0133442,1917,1331,53.4563,-16.15
700,-307,53.4183,15.2568,0.00128881,0.000296808,-0.000160313,0.00131407,0.000271543,-0.156307,0.000801025,0.0149246,1924,1331,53.4183,-15.2569
707,-307,53.3867,14.374,0.00117276,0.000738041,-5.40947e-05,0.00117939,0.000731411,-0.121958,0.000687445,0.0161119,1931,1331,53.3868,-14.374
714,-307,53.3724,13.5613,0.000955044,0.0013762,-3.77976e-05,0.00137956,0.000951679,-1.48199,0.000815404,0.0139382,1938,1331,53.3724,-13.5613
721,-307,53.3743,12.7236,0.0006079,0.00230913,-0.000169442,0.00232584,0.000591188,-1.47248,0.00139587,0.0178696,1945,1331,53.3743,-12.7237
728,-307,53.3097,12.0203,4.07678e-05,0.00376169,-0.000559745,0.00384407,-4.16118e-05,-1.42467,0.0025767,0.047044,1952,1331,53.3097,-12.0202
735,-307,53.3395,11.0289,0,0,0,0,0,0,0,-1,1959,1331,53.3394,-11.0289
742,-307,26.677,6.09192,0,0,0,0,0,0,0,-1,1966,1331,26.677,-6.0919
749,-307,26.7727,5.9032,0,0,0,0,0,0,0,-1,1973,1331,26.7727,-5.90323
756,-307,27.1556,5.74756,0,0,0,0,0,0,0,-1,1980,1331,27.1557,-5.7475
763,-307,18.7522,3.55298,0,0,0,0,0,0,0,-1,1987,1331,18.7522,-3.55301
770,-307,0,0,0,0,0,0,0,0,0,-1,1994,1331,0,0
777,-307,0,0,0,0,0,0,0,0,0,-1,2001,1331,0,0
784,-307,0,0,0,0,0,0,0,0,0,-1,2008,1331,0,0
791,-307,0,0,0,0,0,0,0,0,0,-1,2015,1331,0,0
798,-307,0,0,0,0,0,0,0,0,0,-1,2022,1331,0,0
805,-307,0,0,0,0,0,0,0,0,0,-1,2029,1331,0,0
812,-307,0,0,0,0,0,0,0,0,0,-1,2036,1331,0,0
-700,-314,0,0,0,0,0,0,0,0,0,-1,524,1338,0,0
-693,-314,0,0,0,0,0,0,0,0,0,-1,531,1338,0,0
-686,-314,0,0,0,0,0,0,0,0,0,-1,538,1338,0,0
-679,-314,0,0,0,0,0,0,0,0,0,-1,545,1338,0,0
-672,-314,0,0,0,0,0,0,0,0,0,-1,552,1338,0,0
-665,-314,0,0,0,0,0,0,0,0,0,-1,559,1338,0,0
-658,-314,0,0,0,0,0,0,0,0,0,-1,566,1338,0,0
-651,-314,0,0,0,0,0,0,0,0,0,-1,573,1338,0,0
-644,-314,-41.2806,1.17566,0,0,0,0,0,0,0,-1,580,1338,-41.2806,-1.17565
-637,-314,-58.369,7.97375,0,0,0,0,0,0,0,-1,587,1338,-58.369,-7.97376
-630,-314,-59.7463,6.72742,0,0,0,0,0,0,0,-1,594,1338,-59.7463,-6.72739
-623,-314,-13.3542,3.00903,0,0,0,0,0,0,0,-1,601,1338,-13.3542,-3.00907
-616,-314,-9.93311,1.15088,0,0,0,0,0,0,0,-1,608,1338,-9.93308,-1.15093
-609,-314,-9.4361,2.86292,0,0,0,0,0,0,0,-1,615,1338,-9.43612,-2.86286
-602,-314,-11.8027,2.42798,0,0,0,0,0,0,0,-1,622,1338,-11.8027,-2.42802
-595,-314,-35.6733,11.8311,0,0,0,0,0,0,0,-1,629,1338,-35.6733,-11.831
-588,-314,-35.5902,12.8031,0.00487708,0.00297422,0.00339314,0.00744965,0.000401641,0.648709,0.00483811,0.0372724,636,1338,-35.5902,-12.8032
-581,-314,-35.5047,13.7507,0.00388854,0.00232492,0.00232879,0.00556325,0.000650213,0.623451,0.00351222,0.0140262,643,1338,-35.5047,-13.7507
-574,-314,-35.58,14.6185,0.00332068,0.00166015,0.00154591,0.00424518,0.000735653,0.538966,0.00261956,0.013473,650,1338,-35.58,-14.6186
-567,-314,-35.6115,15.506,0.00317921,0.00108491,0.00102254,0.00359565,0.000668468,0.386753,0.00220827,0.0141253,657,1338,-35.6115,-15.5059
-560,-314,-35.6281,16.4402,0.00344007,0.000590045,0.000747296,0.00362413,0.000405986,0.241493,0.00229277,0.0156151,664,1338,-35.6281,-16.4402
-553,-314,-35.6934,17.3286,0.00409022,0.000180521,0.000715399,0.00421701,5.37282e-05,0.175411,0.00279361,0.0183875,671,1338,-35.6934,-17.3286
-546,-314,-35.7684,18.2252,0.00513356,-0.000174227,0.000938883,0.00529474,-0.000335409,0.170017,0.00364678,0.018581,678,1338,-35.7684,-18.2252
-539,-314,-35.7693,19.1636,0.00667995,-0.000409056,0.00149638,0.00698286,-0.000711975,0.199735,0.00490981,0.0248845,685,1338,-35.7693,-19.1636
-532,-314,-35.6019,20.032,0,0,0,0,0,0,0,-1,692,1338,-35.6019,-20.032
-525,-314,-13.3017,7.50671,0,0,0,0,0,0,0,-1,699,1338,-13.3017,-7.50669
-518,-314,-8.52753,4.70032,0,0,0,0,0,0,0,-1,706,1338,-8.52755,-4.70034
-511,-314,-11.8597,0.384888,0,0,0,0,0,0,0,-1,713,1338,-11.8597,-0.384927
-504,-314,-11.4322,-0.187378,0,0,0,0,0,0,0,-1,720,1338,-11.4322,0.187381
-497,-314,-11.0047,-0.759644,0,0,0,0,0,0,0,-1,727,1338,-11.0047,0.759689
-490,-314,-18.5143,0.471069,0,0,0,0,0,0,0,-1,734,1338,-18.5143,-0.47103
-483,-314,-17.8528,0.577271,0,0,0,0,0,0,0,-1,741,1338,-17.8528,-0.577327
-476,-314,-17.714,0.665405,0,0,0,0,0,0,0,-1,748,1338,-17.714,-0.665388
-469,-314,-17.7246,0.794678,0,0,0,0,0,0,0,-1,755,1338,-17.7246,-0.794645
-462,-314,0,0,0,0,0,0,0,0,0,-1,762,1338,0,0
-455,-314,0,0,0,0,0,0,0,0,0,-1,769,1338,0,0
-448,-314,0,0,0,0,0,0,0,0,0,-1,776,1338,0,0
-441,-314,0,0,0,0,0,0,0,0,0,-1,783,1338,0,0
-434,-314,0,0,0,0,0,0,0,0,0,-1,790,1338,0,0
-427,-314,0,0,0,0,0,0,0,0,0,-1,797,1338,0,0
-420,-314,0,0,0,0,0,0,0,0,0,-1,804,1338,0,0
-413,-314,0,0,0,0,0,0,0,0,0,-1,811,1338,0,0
-406,-314,0,0,0,0,0,0,0,0,0,-1,818,1338,0,0
-399,-314,0,0,0,0,0,0,0,0,0,-1,825,1338,0,0
-392,-314,0,0,0,0,0,0,0,0,0,-1,832,1338,0,0
-385,-314,0,0,0,0,0,0,0,0,0,-1,839,1338,0,0
-378,-314,0,0,0,0,0,0,0,0,0,-1,846,1338,0,0
-371,-314,0,0,0,0,0,0,0,0,0,-1,853,1338,0,0
-364,-314,0,0,0,0,0,0,0,0,0,-1,860,1338,0,0
-357,-314,0,0,0,0,0,0,0,0,0,-1,867,1338,0,0
-350,-314,0,0,0,0,0,0,0,0,0,-1,874,1338,0,0
-343,-314,0,0,0,0,0,0,0,0,0,-1,881,1338,0,0
-336,-314,0,0,0,0,0,0,0,0,0,-1,888,1338,0,0
-329,-314,0,0,0,0,0,0,0,0,0,-1,895,1338,0,0
-322,-314,0,0,0,0,0,0,0,0,0,-1,902,1338,0,0
-315,-314,0,0,0,0,0,0,0,0,0,-1,909,1338,0,0
-308,-314,0,0,0,0,0,0,0,0,0,-1,916,1338,0,0
-301,-314,0,0,0,0,0,0,0,0,0,-1,923,1338,0,0
-294,-314,0,0,0,0,0,0,0,0,0,-1,930,1338,0,0
-287,-314,0,0,0,0,0,0,0,0,0,-1,937,1338,0,0
-280,-314,0,0,0,0,0,0,0,0,0,-1,944,1338,0,0
-273,-314,0,0,0,0,0,0,0,0,0,-1,951,1338,0,0
-266,-314,0,0,0,0,0,0,0,0,0,-1,958,1338,0,0
-259,-314,0,0,0,0,0,0,0,0,0,-1,965,1338,0,0
-252,-314,0,0,0,0,0,0,0,0,0,-1,972,1338,0,0
-245,-314,0,0,0,0,0,0,0,0,0,-1,979,1338,0,0
-238,-314,0,0,0,0,0,0,0,0,0,-1,986,1338,0,0
-231,-314,0,0,0,0,0,0,0,0,0,-1,993,1338,0,0
-224,-314,0,0,0,0,0,0,0,0,0,-1,1000,1338,0,0
-217,-314,0,0,0,0,0,0,0,0,0,-1,1007,1338,0,0
-210,-314,0,0,0,0,0,0,0,0,0,-1,1014,1338,0,0
-203,-314,0,0,0,0,0,0,0,0,0,-1,1021,1338,0,0
-196,-314,0,0,0,0,0,0,0,0,0,-1,1028,1338,0,0
-189,-314,0,0,0,0,0,0,0,0,0,-1,1035,1338,0,0
-182,-314,0,0,0,0,0,0,0,0,0,-1,1042,1338,0,0
-175,-314,0,0,0,0,0,0,0,0,0,-1,1049,1338,0,0
-168,-314,0,0,0,0,0,0,0,0,0,-1,1056,1338,0,0
-161,-314,0,0,0,0,0,0,0,0,0,-1,1063,1338,0,0
-154,-314,0,0,0,0,0,0,0,0,0,-1,1070,1338,0,0
-147,-314,0,0,0,0,0,0,0,0,0,-1,1077,1338,0,0
-140,-314,0,0,0,0,0,0,0,0,0,-1,1084,1338,0,0
-133,-314,0,0,0,0,0,0,0,0,0,-1,1091,1338,0,0
-126,-314,0,0,0,0,0,0,0,0,0,-1,1098,1338,0,0
-119,-314,0,0,0,0,0,0,0,0,0,-1,1105,1338,0,0
-112,-314,0,0,0,0,0,0,0,0,0,-1,1112,1338,0,0
-105,-314,0,0,0,0,0,0,0,0,0,-1,1119,1338,0,0
-98,-314,0,0,0,0,0,0,0,0,0,-1,1126,1338,0,0
-91,-314,0,0,0,0,0,0,0,0,0,-1,1133,1338,0,0
-84,-314,0,0,0,0,0,0,0,0,0,-1,1140,1338,0,0
-77,-314,0,0,0,0,0,0,0,0,0,-1,1147,1338,0,0
-70,-314,0,0,0,0,0,0,0,0,0,-1,1154,1338,0,0
-63,-314,0,0,0,0,0,0,0,0,0,-1,1161,1338,0,0
-56,-314,0,0,0,0,0,0,0,0,0,-1,1168,1338,0,0
-49,-314,0,0,0,0,0,0,0,0,0,-1,1175,1338,0,0
-42,-314,0,0,0,0,0,0,0,0,0,-1,1182,1338,0,0
-35,-314,0,0,0,0,0,0,0,0,0,-1,1189,1338,0,0
-28,-314,0,0,0,0,0,0,0,0,0,-1,1196,1338,0,0
-21,-314,0,0,0,0,0,0,0,0,0,-1,1203,1338,0,0
-14,-314,0,0,0,0,0,0,0,0,0,-1,1210,1338,0,0
-7,-314,0,0,0,0,0,0,0,0,0,-1,1217,1338,0,0
0,-314,0,0,0,0,0,0,0,0,0,-1,1224,1338,0,0
7,-314,0,0,0,0,0,0,0,0,0,-1,1231,1338,0,0
14,-314,0,0,0,0,0,0,0,0,0,-1,1238,1338,0,0
21,-314,0,0,0,0,0,0,0,0,0,-1,1245,1338,0,0
28,-314,0,0,0,0,0,0,0,0,0,-1,1252,1338,0,0
35,-314,0,0,0,0,0,0,0,0,0,-1,1259,1338,0,0
42,-314,0,0,0,0,0,0,0,0,0,-1,1266,1338,0,0
49,-314,0,0,0,0,0,0,0,0,0,-1,1273,1338,0,0
56,-314,0,0,0,0,0,0,0,0,0,-1,1280,1338,0,0
63,-314,0,0,0,0,0,0,0,0,0,-1,1287,1338,0,0
70,-314,0,0,0,0,0,0,0,0,0,-1,1294,1338,0,0
77,-314,0,0,0,0,0,0,0,0,0,-1,1301,1338,0,0
84,-314,0,0,0,0,0,0,0,0,0,-1,1308,1338,0,0
91,-314,0,0,0,0,0,0,0,0,0,-1,1315,1338,0,0
98,-314,0,0,0,0,0,0,0,0,0,-1,1322,1338,0,0
105,-314,0,0,0,0,0,0,0,0,0,-1,1329,1338,0,0
112,-314,0,0,0,0,0,0,0,0,0,-1,1336,1338,0,0
119,-314,0,0,0,0,0,0,0,0,0,-1,1343,1338,0,0
126,-314,0,0,0,0,0,0,0,0,0,-1,1350,1338,0,0
133,-314,0,0,0,0,0,0,0,0,0,-1,1357,1338,0,0
140,-314,0,0,0,0,0,0,0,0,0,-1,1364,1338,0,0
147,-314,0,0,0,0,0,0,0,0,0,-1,1371,1338,0,0
154,-314,0,0,0,0,0,0,0,0,0,-1,1378,1338,0,0
161,-314,0,0,0,0,0,0,0,0,0,-1,1385,1338,0,0
168,-314,0,0,0,0,0,0,0,0,0,-1,1392,1338,0,0
175,-314,0,0,0,0,0,0,0,0,0,-1,1399,1338,0,0
182,-314,0,0,0,0,0,0,0,0,0,-1,1406,1338,0,0
189,-314,0,0,0,0,0,0,0,0,0,-1,1413,1338,0,0
196,-314,0,0,0,0,0,0,0,0,0,-1,1420,1338,0,0
203,-314,0,0,0,0,0,0,0,0,0,-1,1427,1338,0,0
210,-314,0,0,0,0,0,0,0,0,0,-1,1434,1338,0,0
217,-314,0,0,0,0,0,0,0,0,0,-1,1441,1338,0,0
224,-314,0,0,0,0,0,0,0,0,0,-1,1448,1338,0,0
231,-314,0,0,0,0,0,0,0,0,0,-1,1455,1338,0,0
238,-314,0,0,0,0,0,0,0,0,0,-1,1462,1338,0,0
245,-314,0,0,0,0,0,0,0,0,0,-1,1469,1338,0,0
252,-314,0,0,0,0,0,0,0,0,0,-1,1476,1338,0,0
259,-314,0,0,0,0,0,0,0,0,0,-1,1483,1338,0,0
266,-314,0,0,0,0,0,0,0,0,0,-1,1490,1338,0,0
273,-314,0,0,0,0,0,0,0,0,0,-1,1497,1338,0,0
280,-314,0,0,0,0,0,0,0,0,0,-1,1504,1338,0,0
287,-314,0,0,0,0,0,0,0,0,0,-1,1511,1338,0,0
294,-314,0,0,0,0,0,0,0,0,0,-1,1518,1338,0,0
301,-314,0,0,0,0,0,0,0,0,0,-1,1525,1338,0,0
308,-314,0,0,0,0,0,0,0,0,0,-1,1532,1338,0,0
315,-314,0,0,0,0,0,0,0,0,0,-1,1539,1338,0,0
322,-314,0,0,0,0,0,0,0,0,0,-1,1546,1338,0,0
329,-314,0,0,0,0,0,0,0,0,0,-1,1553,1338,0,0
336,-314,0,0,0,0,0,0,0,0,0,-1,1560,1338,0,0
343,-314,0,0,0,0,0,0,0,0,0,-1,1567,1338,0,0
350,-314,0,0,0,0,0,0,0,0,0,-1,1574,1338,0,0
357,-314,0,0,0,0,0,0,0,0,0,-1,1581,1338,0,0
364,-314,0,0,0,0,0,0,0,0,0,-1,1588,1338,0,0
371,-314,0,0,0,0,0,0,0,0,0,-1,1595,1338,0,0
378,-314,0,0,0,0,0,0,0,0,0,-1,1602,1338,0,0
385,-314,0,0,0,0,0,0,0,0,0,-1,1609,1338,0,0
392,-314,0,0,0,0,0,0,0,0,0,-1,1616,1338,0,0
399,-314,0,0,0,0,0,0,0,0,0,-1,1623,1338,0,0
406,-314,0,0,0,0,0,0,0,0,0,-1,1630,1338,0,0
413,-314,0,0,0,0,0,0,0,0,0,-1,1637,1338,0,0
420,-314,0,0,0,0,0,0,0,0,0,-1,1644,1338,0,0
427,-314,0,0,0,0,0,0,0,0,0,-1,1651,1338,0,0
434,-314,0,0,0,0,0,0,0,0,0,-1,1658,1338,0,0
441,-314,0,0,0,0,0,0,0,0,0,-1,1665,1338,0,0
448,-314,0,0,0,0,0,0,0,0,0,-1,1672,1338,0,0
455,-314,0,0,0,0,0,0,0,0,0,-1,1679,1338,0,0
462,-314,0,0,0,0,0,0,0,0,0,-1,1686,1338,0,0
469,-314,0,0,0,0,0,0,0,0,0,-1,1693,1338,0,0
476,-314,0,0,0,0,0,0,0,0,0,-1,1700,1338,0,0
483,-314,0,0,0,0,0,0,0,0,0,-1,1707,1338,0,0
490,-314,0,0,0,0,0,0,0,0,0,-1,1714,1338,0,0
497,-314,0,0,0,0,0,0,0,0,0,-1,1721,1338,0,0
504,-314,0,0,0,0,0,0,0,0,0,-1,1728,1338,0,0
511,-314,0,0,0,0,0,0,0,0,0,-1,1735,1338,0,0
518,-314,0,0,0,0,0,0,0,0,0,-1,1742,1338,0,0
525,-314,0,0,0,0,0,0,0,0,0,-1,1749,1338,0,0
532,-314,0,0,0,0,0,0,0,0,0,-1,1756,1338,0,0
539,-314,0,0,0,0,0,0,0,0,0,-1,1763,1338,0,0
546,-314,0,0,0,0,0,0,0,0,0,-1,1770,1338,0,0
553,-314,0,0,0,0,0,0,0,0,0,-1,1777,1338,0,0
560,-314,0,0,0,0,0,0,0,0,0,-1,1784,1338,0,0
567,-314,0,0,0,0,0,0,0,0,0,-1,1791,1338,0,0
574,-314,0,0,0,0,0,0,0,0,0,-1,1798,1338,0,0
581,-314,66.1637,1.86658,0,0,0,0,0,0,0,-1,1805,1338,66.1637,-1.86663
588,-314,66.4303,1.43481,0,0,0,0,0,0,0,-1,1812,1338,66.4303,-1.43487
595,-314,66.7465,0.982788,0,0,0,0,0,0,0,-1,1819,1338,66.7464,-0.982795
602,-314,66.322,1.38416,0,0,0,0,0,0,0,-1,1826,1338,66.322,-1.3842
609,-314,60.2225,1.27014,0,0,0,0,0,0,0,-1,1833,1338,60.2225,-1.27017
616,-314,48.1149,3.005,0,0,0,0,0,0,0,-1,1840,1338,48.1149,-3.00505
623,-314,38.7728,2.71741,0,0,0,0,0,0,0,-1,1847,1338,38.7728,-2.71737
630,-314,29.4308,6.23206,0,0,0,0,0,0,0,-1,1854,1338,29.4308,-6.23202
637,-314,22.1349,5.16418,0,0,0,0,0,0,0,-1,1861,1338,22.1349,-5.16414
644,-314,18.7517,6.2605,0,0,0,0,0,0,0,-1,1868,1338,18.7517,-6.26053
651,-314,23.1317,8.005,0,0,0,0,0,0,0,-1,1875,1338,23.1317,-8.00506
658,-314,49.9191,18.822,0,0,0,0,0,0,0,-1,1882,1338,49.9191,-18.8221
665,-314,52.8256,19.7599,0,0,0,0,0,0,0,-1,1889,1338,52.8256,-19.7599
672,-314,52.7585,18.8558,0.00145504,0.000943888,-0.00102577,0.0022566,0.000142328,-0.663308,0.00145927,0.0140906,1896,1338,52.7586,-18.8559
679,-314,52.707,17.9645,0.00115808,0.000154698,-0.000749925,0.00155865,-0.000245876,-0.490595,0.00113001,0.0107001,1903,1338,52.7071,-17.9645
686,-314,52.6307,17.0901,0.00133612,-1.7856e-05,-0.000514412,0.00150939,-0.000191123,-0.324889,0.00107564,0.0136414,1910,1338,52.6308,-17.0901
693,-314,52.5653,16.1959,0.00150782,6.81526e-05,-0.000363318,0.00159431,-1.83394e-05,-0.233711,0.00106904,0.0136531,1917,1338,52.5653,-16.1959
700,-314,52.5349,15.2925,0.00161299,0.000433959,-0.000299015,0.00168448,0.000362461,-0.234705,0.00102378,0.0152498,1924,1338,52.5349,-15.2925
707,-314,52.5316,14.4299,0.0016715,0.000865249,-0.000247654,0.0017415,0.000795254,-0.275446,0.00100671,0.015387,1931,1338,52.5316,-14.43
714,-314,52.4744,13.62,0.0016363,0.0014901,-0.000264446,0.00183756,0.00128883,-0.650549,0.00108922,0.0125074,1938,1338,52.4743,-13.62
721,-314,52.4406,12.8113,0.00146359,0.00237745,-0.000396647,0.00252559,0.00131544,-1.21335,0.00145857,0.0261427,1945,1338,52.4405,-12.8113
728,-314,52.6869,12.2692,0,0,0,0,0,0,0,-1,1952,1338,52.6869,-12.2692
735,-314,26.3665,6.21582,0,0,0,0,0,0,0,-1,1959,1338,26.3664,-6.21581
742,-314,26.2235,6.0166,0,0,0,0,0,0,0,-1,1966,1338,26.2235,-6.01662
749,-314,26.2223,5.47046,0,0,0,0,0,0,0,-1,1973,1338,26.2223,-5.47041
756,-314,24.2521,5.93408,0,0,0,0,0,0,0,-1,1980,1338,24.252,-5.93413
763,-314,19.2207,4.07239,0,0,0,0,0,0,0,-1,1987,1338,19.2206,-4.07239
770,-314,0,0,0,0,0,0,0,0,0,-1,1994,1338,0,0
777,-314,0,0,0,0,0,0,0,0,0,-1,2001,1338,0,0
784,-314,0,0,0,0,0,0,0,0,0,-1,2008,1338,0,0
791,-314,0,0,0,0,0,0,0,0,0,-1,2015,1338,0,0
798,-314,0,0,0,0,0,0,0,0,0,-1,2022,1338,0,0
805,-314,0,0,0,0,0,0,0,0,0,-1,2029,1338,0,0
812,-314,0,0,0,0,0,0,0,0,0,-1,2036,1338,0,0
-700,-321,0,0,0,0,0,0,0,0,0,-1,524,1345,0,0
-693,-321,0,0,0,0,0,0,0,0,0,-1,531,1345,0,0
-686,-321,0,0,0,0,0,0,0,0,0,-1,538,1345,0,0
-679,-321,0,0,0,0,0,0,0,0,0,-1,545,1345,0,0
-672,-321,0,0,0,0,0,0,0,0,0,-1,552,1345,0,0
-665,-321,0,0,0,0,0,0,0,0,0,-1,559,1345,0,0
-658,-321,0,0,0,0,0,0,0,0,0,-1,566,1345,0,0
-651,-321,0,0,0,0,0,0,0,0,0,-1,573,1345,0,0
-644,-321,-58.7329,10.2313,0,0,0,0,0,0,0,-1,580,1345,-58.7329,-10.2313
-637,-321,-59.9981,9.06421,0,0,0,0,0,0,0,-1,587,1345,-59.9981,-9.06417
-630,-321,-61.377,8.07166,0,0,0,0,0,0,0,-1,594,1345,-61.3769,-8.07168
-623,-321,-13.2242,3.14148,0,0,0,0,0,0,0,-1,601,1345,-13.2243,-3.14146
-616,-321,-11.6754,3.13794,0,0,0,0,0,0,0,-1,608,1345,-11.6754,-3.13789
-609,-321,-7.95209,1.14758,0,0,0,0,0,0,0,-1,615,1345,-7.95208,-1.14757
-602,-321,-8.85791,2.50049,0,0,0,0,0,0,0,-1,622,1345,-8.85791,-2.50048
-595,-321,-19.8463,5.36584,0,0,0,0,0,0,0,-1,629,1345,-19.8462,-5.36589
-588,-321,-34.7714,12.8367,0,0,0,0,0,0,0,-1,636,1345,-34.7714,-12.8366
-581,-321,-34.6208,13.801,0.0044436,0.0027704,0.00261348,0.00635112,0.000862882,0.630496,0.00397777,0.0156481,643,1345,-34.6209,-13.8011
-574,-321,-34.6962,14.6838,0.00387869,0.00209263,0.00188246,0.0050692,0.000902115,0.56392,0.00312251,0.0172403,650,1345,-34.6962,-14.6838
-567,-321,-34.7352,15.5891,0.0037305,0.00152621,0.00141563,0.00442244,0.00083427,0.454636,0.0027133,0.0227575,657,1345,-34.7352,-15.5891
-560,-321,-34.8002,16.5336,0.00395145,0.00105421,0.00120436,0.0043867,0.000618955,0.346795,0.00274154,0.0260349,664,1345,-34.8002,-16.5335
-553,-321,-34.8171,17.3677,0.00450525,0.000669978,0.00122187,0.00486144,0.000313786,0.283653,0.00314159,0.0286126,671,1345,-34.8171,-17.3677
-546,-321,-34.8627,18.2771,0.00538915,0.00033546,0.00145735,0.00577929,-5.46831e-05,0.261574,0.00387122,0.027878,678,1345,-34.8627,-18.2771
-539,-321,-34.9284,19.1772,0.00665478,0.000103938,0.00196137,0.00719713,-0.00043841,0.269774,0.0049507,0.023367,685,1345,-34.9284,-19.1772
-532,-321,-34.8792,20.0618,0.0084593,-3.50258e-05,0.002784,0.00929043,-0.000866157,0.290115,0.0065016,0.0376294,692,1345,-34.8792,-20.0617
-525,-321,-34.8558,20.9385,0,0,0,0,0,0,0,-1,699,1345,-34.8558,-20.9385
-518,-321,-10.3564,6.75696,0,0,0,0,0,0,0,-1,706,1345,-10.3564,-6.75694
-511,-321,-9.3302,5.29297,0,0,0,0,0,0,0,-1,713,1345,-9.33023,-5.29294
-504,-321,-10.4713,0.0145264,0,0,0,0,0,0,0,-1,720,1345,-10.4713,-0.0145296
-497,-321,-9.96771,0.313599,0,0,0,0,0,0,0,-1,727,1345,-9.96769,-0.313618
-490,-321,-10.7631,0.973511,0,0,0,0,0,0,0,-1,734,1345,-10.7631,-0.97353
-483,-321,-17.5908,0.2323,0,0,0,0,0,0,0,-1,741,1345,-17.5908,-0.232355
-476,-321,-17.2915,0.297363,0,0,0,0,0,0,0,-1,748,1345,-17.2915,-0.297342
-469,-321,-17.2441,0.478027,0,0,0,0,0,0,0,-1,755,1345,-17.2441,-0.477994
-462,-321,-17.1672,0.526489,0,0,0,0,0,0,0,-1,762,1345,-17.1672,-0.526533
-455,-321,0,0,0,0,0,0,0,0,0,-1,769,1345,0,0
-448,-321,0,0,0,0,0,0,0,0,0,-1,776,1345,0,0
-441,-321,0,0,0,0,0,0,0,0,0,-1,783,1345,0,0
-434,-321,0,0,0,0,0,0,0,0,0,-1,790,1345,0,0
-427,-321,0,0,0,0,0,0,0,0,0,-1,797,1345,0,0
-420,-321,0,0,0,0,0,0,0,0,0,-1,804,1345,0,0
-413,-321,0,0,0,0,0,0,0,0,0,-1,811,1345,0,0
-406,-321,0,0,0,0,0,0,0,0,0,-1,818,1345,0,0
-399,-321,0,0,0,0,0,0,0,0,0,-1,825,1345,0,0
-392,-321,0,0,0,0,0,0,0,0,0,-1,832,1345,0,0
-385,-321,0,0,0,0,0,0,0,0,0,-1,839,1345,0,0
-378,-321,0,0,0,0,0,0,0,0,0,-1,846,1345,0,0
-371,-321,0,0,0,0,0,0,0,0,0,-1,853,1345,0,0
-364,-321,0,0,0,0,0,0,0,0,0,-1,860,1345,0,0
-357,-321,0,0,0,0,0,0,0,0,0,-1,867,1345,0,0
-350,-321,0,0,0,0,0,0,0,0,0,-1,874,1345,0,0
-343,-321,0,0,0,0,0,0,0,0,0,-1,881,1345,0,0
-336,-321,0,0,0,0,0,0,0,0,0,-1,888,1345,0,0
-329,-321,0,0,0,0,0,0,0,0,0,-1,895,1345,0,0
-322,-321,0,0,0,0,0,0,0,0,0,-1,902,1345,0,0
-315,-321,0,0,0,0,0,0,0,0,0,-1,909,1345,0,0
-308,-321,0,0,0,0,0,0,0,0,0,-1,916,1345,0,0
-301,-321,0,0,0,0,0,0,0,0,0,-1,923,1345,0,0
-294,-321,0,0,0,0,0,0,0,0,0,-1,930,1345,0,0
-287,-321,0,0,0,0,0,0,0,0,0,-1,937,1345,0,0
-280,-321,0,0,0,0,0,0,0,0,0,-1,944,1345,0,0
-273,-321,0,0,0,0,0,0,0,0,0,-1,951,1345,0,0
-266,-321,0,0,0,0,0,0,0,0,0,-1,958,1345,0,0
-259,-321,0,0,0,0,0,0,0,0,0,-1,965,1345,0,0
-252,-321,0,0,0,0,0,0,0,0,0,-1,972,1345,0,0
-245,-321,0,0,0,0,0,0,0,0,0,-1,979,1345,0,0
-238,-321,0,0,0,0,0,0,0,0,0,-1,986,1345,0,0
-231,-321,0,0,0,0,0,0,0,0,0,-1,993,1345,0,0
-224,-321,0,0,0,0,0,0,0,0,0,-1,1000,1345,0,0
-217,-321,0,0,0,0,0,0,0,0,0,-1,1007,1345,0,0
-210,-321,0,0,0,0,0,0,0,0,0,-1,1014,1345,0,0
-203,-321,0,0,0,0,0,0,0,0,0,-1,1021,1345,0,0
-196,-321,0,0,0,0,0,0,0,0,0,-1,1028,1345,0,0
-189,-321,0,0,0,0,0,0,0,0,0,-1,1035,1345,0,0
-182,-321,0,0,0,0,0,0,0,0,0,-1,1042,1345,0,0
-175,-321,0,0,0,0,0,0,0,0,0,-1,1049,1345,0,0
-168,-321,0,0,0,0,0,0,0,0,0,-1,1056,1345,0,0
-161,-321,0,0,0,0,0,0,0,0,0,-1,1063,1345,0,0
-154,-321,0,0,0,0,0,0,0,0,0,-1,1070,1345,0,0
-147,-321,0,0,0,0,0,0,0,0,0,-1,1077,1345,0,0
-140,-321,0,0,0,0,0,0,0,0,0,-1,1084,1345,0,0
-133,-321,0,0,0,0,0,0,0,0,0,-1,1091,1345,0,0
-126,-321,0,0,0,0,0,0,0,0,0,-1,1098,1345,0,0
-119,-321,0,0,0,0,0,0,0,0,0,-1,1105,1345,0,0
-112,-321,0,0,0,0,0,0,0,0,0,-1,1112,1345,0,0
-105,-321,0,0,0,0,0,0,0,0,0,-1,1119,1345,0,0
-98,-321,0,0,0,0,0,0,0,0,0,-1,1126,1345,0,0
-91,-321,0,0,0,0,0,0,0,0,0,-1,1133,1345,0,0
-84,-321,0,0,0,0,0,0,0,0,0,-1,1140,1345,0,0
-77,-321,0,0,0,0,0,0,0,0,0,-1,1147,1345,0,0
-70,-321,0,0,0,0,0,0,0,0,0,-1,1154,1345,0,0
-63,-321,0,0,0,0,0,0,0,0,0,-1,1161,1345,0,0
-56,-321,0,0,0,0,0,0,0,0,0,-1,1168,1345,0,0
-49,-321,0,0,0,0,0,0,0,0,0,-1,1175,1345,0,0
-42,-321,0,0,0,0,0,0,0,0,0,-1,1182,1345,0,0
-35,-321,0,0,0,0,0,0,0,0,0,-1,1189,1345,0,0
-28,-321,0,0,0,0,0,0,0,0,0,-1,1196,1345,0,0
-21,-321,0,0,0,0,0,0,0,0,0,-1,1203,1345,0,0
-14,-321,0,0,0,0,0,0,0,0,0,-1,1210,1345,0,0
-7,-321,0,0,0,0,0,0,0,0,0,-1,1217,1345,0,0
0,-321,0,0,0,0,0,0,0,0,0,-1,1224,1345,0,0
7,-321,0,0,0,0,0,0,0,0,0,-1,1231,1345,0,0
14,-321,0,0,0,0,0,0,0,0,0,-1,1238,1345,0,0
21,-321,0,0,0,0,0,0,0,0,0,-1,1245,1345,0,0
28,-321,0,0,0,0,0,0,0,0,0,-1,1252,1345,0,0
35,-321,0,0,0,0,0,0,0,0,0,-1,1259,1345,0,0
42,-321,0,0,0,0,0,0,0,0,0,-1,1266,1345,0,0
49,-321,0,0,0,0,0,0,0,0,0,-1,1273,1345,0,0
56,-321,0,0,0,0,0,0,0,0,0,-1,1280,1345,0,0
63,-321,0,0,0,0,0,0,0,0,0,-1,1287,1345,0,0
70,-321,0,0,0,0,0,0,0,0,0,-1,1294,1345,0,0
77,-321,0,0,0,0,0,0,0,0,0,-1,1301,1345,0,0
84,-321,0,0,0,0,0,0,0,0,0,-1,1308,1345,0,0
91,-321,0,0,0,0,0,0,0,0,0,-1,1315,1345,0,0
98,-321,0,0,0,0,0,0,0,0,0,-1,1322,1345,0,0
105,-321,0,0,0,0,0,0,0,0,0,-1,1329,1345,0,0
112,-321,0,0,0,0,0,0,0,0,0,-1,1336,1345,0,0
119,-321,0,0,0,0,0,0,0,0,0,-1,1343,1345,0,0
126,-321,0,0,0,0,0,0,0,0,0,-1,1350,1345,0,0
133,-321,0,0,0,0,0,0,0,0,0,-1,1357,1345,0,0
140,-321,0,0,0,0,0,0,0,0,0,-1,1364,1345,0,0
147,-321,0,0,0,0,0,0,0,0,0,-1,1371,1345,0,0
154,-321,0,0,0,0,0,0,0,0,0,-1,1378,1345,0,0
161,-321,0,0,0,0,0,0,0,0,0,-1,1385,1345,0,0
168,-321,0,0,0,0,0,0,0,0,0,-1,1392,1345,0,0
175,-321,0,0,0,0,0,0,0,0,0,-1,1399,1345,0,0
182,-321,0,0,0,0,0,0,0,0,0,-1,1406,1345,0,0
189,-321,0,0,0,0,0,0,0,0,0,-1,1413,1345,0,0
196,-321,0,0,0,0,0,0,0,0,0,-1,1420,1345,0,0
203,-321,0,0,0,0,0,0,0,0,0,-1,1427,1345,0,0
210,-321,0,0,0,0,0,0,0,0,0,-1,1434,1345,0,0
217,-321,0,0,0,0,0,0,0,0,0,-1,1441,1345,0,0
224,-321,0,0,0,0,0,0,0,0,0,-1,1448,1345,0,0
231,-321,0,0,0,0,0,0,0,0,0,-1,1455,1345,0,0
238,-321,0,0,0,0,0,0,0,0,0,-1,1462,1345,0,0
245,-321,0,0,0,0,0,0,0,0,0,-1,1469,1345,0,0
252,-321,0,0,0,0,0,0,0,0,0,-1,1476,1345,0,0
259,-321,0,0,0,0,0,0,0,0,0,-1,1483,1345,0,0
266,-321,0,0,0,0,0,0,0,0,0,-1,1490,1345,0,0
273,-321,0,0,0,0,0,0,0,0,0,-1,1497,1345,0,0
280,-321,0,0,0,0,0,0,0,0,0,-1,1504,1345,0,0
287,-321,0,0,0,0,0,0,0,0,0,-1,1511,1345,0,0
294,-321,0,0,0,0,0,0,0,0,0,-1,1518,1345,0,0
301,-321,0,0,0,0,0,0,0,0,0,-1,1525,1345,0,0
308,-321,0,0,0,0,0,0,0,0,0,-1,1532,1345,0,0
315,-321,0,0,0,0,0,0,0,0,0,-1,1539,1345,0,0
322,-321,0,0,0,0,0,0,0,0,0,-1,1546,1345,0,0
329,-321,0,0,0,0,0,0,0,0,0,-1,1553,1345,0,0
336,-321,0,0,0,0,0,0,0,0,0,-1,1560,1345,0,0
343,-321,0,0,0,0,0,0,0,0,0,-1,1567,1345,0,0
350,-321,0,0,0,0,0,0,0,0,0,-1,1574,1345,0,0
357,-321,0,0,0,0,0,0,0,0,0,-1,1581,1345,0,0
364,-321,0,0,0,0,0,0,0,0,0,-1,1588,1345,0,0
371,-321,0,0,0,0,0,0,0,0,0,-1,1595,1345,0,0
378,-321,0,0,0,0,0,0,0,0,0,-1,1602,1345,0,0
385,-321,0,0,0,0,0,0,0,0,0,-1,1609,1345,0,0
392,-321,0,0,0,0,0,0,0,0,0,-1,1616,1345,0,0
399,-321,0,0,0,0,0,0,0,0,0,-1,1623,1345,0,0
406,-321,0,0,0,0,0,0,0,0,0,-1,1630,1345,0,0
413,-321,0,0,0,0,0,0,0,0,0,-1,1637,1345,0,0
420,-321,0,0,0,0,0,0,0,0,0,-1,1644,1345,0,0
427,-321,0,0,0,0,0,0,0,0,0,-1,1651,1345,0,0
434,-321,0,0,0,0,0,0,0,0,0,-1,1658,1345,0,0
441,-321,0,0,0,0,0,0,0,0,0,-1,1665,1345,0,0
448,-321,0,0,0,0,0,0,0,0,0,-1,1672,1345,0,0
455,-321,0,0,0,0,0,0,0,0,0,-1,1679,1345,0,0
462,-321,0,0,0,0,0,0,0,0,0,-1,1686,1345,0,0
469,-321,0,0,0,0,0,0,0,0,0,-1,1693,1345,0,0
476,-321,0,0,0,0,0,0,0,0,0,-1,1700,1345,0,0
483,-321,0,0,0,0,0,0,0,0,0,-1,1707,1345,0,0
490,-321,0,0,0,0,0,0,0,0,0,-1,1714,1345,0,0
497,-321,0,0,0,0,0,0,0,0,0,-1,1721,1345,0,0
504,-321,0,0,0,0,0,0,0,0,0,-1,1728,1345,0,0
511,-321,0,0,0,0,0,0,0,0,0,-1,1735,1345,0,0
518,-321,0,0,0,0,0,0,0,0,0,-1,1742,1345,0,0
525,-321,0,0,0,0,0,0,0,0,0,-1,1749,1345,0,0
532,-321,0,0,0,0,0,0,0,0,0,-1,1756,1345,0,0
539,-321,0,0,0,0,0,0,0,0,0,-1,1763,1345,0,0
546,-321,0,0,0,0,0,0,0,0,0,-1,1770,1345,0,0
553,-321,0,0,0,0,0,0,0,0,0,-1,1777,1345,0,0
560,-321,0,0,0,0,0,0,0,0,0,-1,1784,1345,0,0
567,-321,0,0,0,0,0,0,0,0,0,-1,1791,1345,0,0
574,-321,0,0,0,0,0,0,0,0,0,-1,1798,1345,0,0
581,-321,66.1073,1.6543,0,0,0,0,0,0,0,-1,1805,1345,66.1073,-1.65427
588,-321,66.6576,0.7948,0,0,0,0,0,0,0,-1,1812,1345,66.6575,-0.794774
595,-321,67.2585,-0.216431,0,0,0,0,0,0,0,-1,1819,1345,67.2586,0.216484
602,-321,60.3523,1.24133,0,0,0,0,0,0,0,-1,1826,1345,60.3523,-1.2413
609,-321,48.311,3.39575,0,0,0,0,0,0,0,-1,1833,1345,48.311,-3.39571
616,-321,37.8107,2.58704,0,0,0,0,0,0,0,-1,1840,1345,37.8106,-2.58705
623,-321,37.6854,3.68933,0,0,0,0,0,0,0,-1,1847,1345,37.6854,-3.68931
630,-321,23.6674,4.34106,0,0,0,0,0,0,0,-1,1854,1345,23.6674,-4.34112
637,-321,21.7925,6.79224,0,0,0,0,0,0,0,-1,1861,1345,21.7925,-6.7922
644,-321,16.8844,6.71973,0,0,0,0,0,0,0,-1,1868,1345,16.8844,-6.71971
651,-321,27.4924,10.0319,0,0,0,0,0,0,0,-1,1875,1345,27.4924,-10.0319
658,-321,51.9156,20.6299,0,0,0,0,0,0,0,-1,1882,1345,51.9157,-20.6299
665,-321,51.9203,19.7845,0.00131929,0.0015798,-0.00088631,0.00234538,0.000553715,-0.858359,0.00141558,0.0330862,1889,1345,51.9203,-19.7845
672,-321,51.8884,18.9119,0.00115436,0.000368583,-0.000714917,0.00157723,-5.42907e-05,-0.534146,0.00107004,0.0140937,1896,1345,51.8884,-18.9119
679,-321,51.8336,18.0254,0.00113385,0.00010801,-0.000624666,0.0014292,-0.000187336,-0.441657,0.00102099,0.0128539,1903,1345,51.8336,-18.0254
686,-321,51.7629,17.1393,0.00140018,0.000131141,-0.000535423,0.0015959,-6.45755e-05,-0.350449,0.0010861,0.0139785,1910,1345,51.7629,-17.1393
693,-321,51.7034,16.2673,0.00166139,0.000250774,-0.00047999,0.00180922,0.000102941,-0.298774,0.00117334,0.0133296,1917,1345,51.7034,-16.2673
700,-321,51.6824,15.3809,0.00186822,0.000634132,-0.000496318,0.00204306,0.000459295,-0.338693,0.00123768,0.0141562,1924,1345,51.6824,-15.3808
707,-321,51.6582,14.5074,0.00203078,0.00107414,-0.00051212,0.00225322,0.000851703,-0.409754,0.00131374,0.016369,1931,1345,51.6582,-14.5074
714,-321,51.5955,13.6563,0.00211713,0.00171791,-0.000582702,0.00253346,0.00130158,-0.620383,0.00146288,0.0145591,1938,1345,51.5954,-13.6562
721,-321,51.481,12.7936,0.00205532,0.00259149,-0.000735768,0.00310649,0.00154032,-0.960105,0.00179355,0.0425298,1945,1345,51.481,-12.7935
728,-321,51.4688,11.9922,0,0,0,0,0,0,0,-1,1952,1345,51.4687,-11.9922
735,-321,22.0081,5.65479,0,0,0,0,0,0,0,-1,1959,1345,22.008,-5.65481
742,-321,24.5398,5.05725,0,0,0,0,0,0,0,-1,1966,1345,24.5398,-5.05729
749,-321,24.0675,5.4458,0,0,0,0,0,0,0,-1,1973,1345,24.0675,-5.44581
756,-321,19.6251,4.98315,0,0,0,0,0,0,0,-1,1980,1345,19.6251,-4.98311
763,-321,19.6747,4.61438,0,0,0,0,0,0,0,-1,1987,1345,19.6747,-4.61436
770,-321,0,0,0,0,0,0,0,0,0,-1,1994,1345,0,0
777,-321,0,0,0,0,0,0,0,0,0,-1,2001,1345,0,0
784,-321,0,0,0,0,0,0,0,0,0,-1,2008,1345,0,0
791,-321,0,0,0,0,0,0,0,0,0,-1,2015,1345,0,0
798,-321,0,0,0,0,0,0,0,0,0,-1,2022,1345,0,0
805,-321,0,0,0,0,0,0,0,0,0,-1,2029,1345,0,0
812,-321,0,0,0,0,0,0,0,0,0,-1,2036,1345,0,0
-700,-328,0,0,0,0,0,0,0,0,0,-1,524,1352,0,0
-693,-328,0,0,0,0,0,0,0,0,0,-1,531,1352,0,0
-686,-328,0,0,0,0,0,0,0,0,0,-1,538,1352,0,0
-679,-328,0,0,0,0,0,0,0,0,0,-1,545,1352,0,0
-672,-328,0,0,0,0,0,0,0,0,0,-1,552,1352,0,0
-665,-328,0,0,0,0,0,0,0,0,0,-1,559,1352,0,0
-658,-328,0,0,0,0,0,0,0,0,0,-1,566,1352,0,0
-651,-328,0,0,0,0,0,0,0,0,0,-1,573,1352,0,0
-644,-328,0,0,0,0,0,0,0,0,0,-1,580,1352,0,0
-637,-328,-61.3883,10.1125,0,0,0,0,0,0,0,-1,587,1352,-61.3883,-10.1126
-630,-328,-62.8012,9.14563,0,0,0,0,0,0,0,-1,594,1352,-62.8012,-9.14564
-623,-328,-10.7739,4.55042,0,0,0,0,0,0,0,-1,601,1352,-10.7739,-4.55041
-616,-328,-8.22198,-0.25708,0,0,0,0,0,0,0,-1,608,1352,-8.22201,0.257067
-609,-328,-7.87439,0.192871,0,0,0,0,0,0,0,-1,615,1352,-7.87441,-0.192822
-602,-328,-7.63062,1.31665,0,0,0,0,0,0,0,-1,622,1352,-7.63064,-1.3166
-595,-328,-9.42639,2.93494,0,0,0,0,0,0,0,-1,629,1352,-9.42638,-2.93499
-588,-328,-33.8529,12.6863,0,0,0,0,0,0,0,-1,636,1352,-33.8529,-12.6863
-581,-328,-33.7563,13.7864,0.00512535,0.00311046,0.00296173,0.00724629,0.000989523,0.62146,0.00453713,0.0280403,643,1352,-33.7563,-13.7864
-574,-328,-33.7685,14.7502,0.00436331,0.00240131,0.00218488,0.00577732,0.000987298,0.57439,0.00356827,0.0166752,650,1352,-33.7685,-14.7502
-567,-328,-33.8488,15.684,0.00405993,0.00184317,0.0017018,0.00498247,0.000920627,0.496754,0.00306127,0.0215786,657,1352,-33.8488,-15.684
-560,-328,-33.9181,16.6033,0.00413993,0.00140303,0.00150218,0.00480352,0.00073944,0.415974,0.00298654,0.029004,664,1352,-33.9181,-16.6032
-553,-328,-33.9315,17.4419,0.00452366,0.00104578,0.00152475,0.00509746,0.000471974,0.359932,0.00325242,0.031946,671,1352,-33.9314,-17.4419
-546,-328,-33.9771,18.3363,0.00521451,0.00075515,0.00175355,0.00582145,0.000148208,0.333215,0.00383252,0.0300917,678,1352,-33.9771,-18.3363
-539,-328,-34.0665,19.2428,0.00621939,0.000545928,0.00220424,0.00697511,-0.000209792,0.33029,0.00472155,0.0237371,685,1352,-34.0665,-19.2428
-532,-328,-34.0767,20.1493,0.00764287,0.000410791,0.00290654,0.00866619,-0.000612534,0.338524,0.00599209,0.0194588,692,1352,-34.0767,-20.1493
-525,-328,-34.0727,21.1278,0.00943795,0.000409119,0.00385622,0.0108607,-0.00101367,0.353464,0.00760095,0.0343254,699,1352,-34.0727,-21.1278
-518,-328,-34.2218,22.1263,0,0,0,0,0,0,0,-1,706,1352,-34.2218,-22.1263
-511,-328,-9.39868,7.16113,0,0,0,0,0,0,0,-1,713,1352,-9.39869,-7.16113
-504,-328,-8.60626,-0.905762,0,0,0,0,0,0,0,-1,720,1352,-8.60623,0.905787
-497,-328,-9.29102,-0.0517578,0,0,0,0,0,0,0,-1,727,1352,-9.29104,0.0518175
-490,-328,-10.0663,0.882813,0,0,0,0,0,0,0,-1,734,1352,-10.0663,-0.882795
-483,-328,-10.8181,1.72375,0,0,0,0,0,0,0,-1,741,1352,-10.8181,-1.72374
-476,-328,-16.8951,-0.150757,0,0,0,0,0,0,0,-1,748,1352,-16.8951,0.150795
-469,-328,-16.8412,0.00158691,0,0,0,0,0,0,0,-1,755,1352,-16.8412,-0.00161515
-462,-328,-16.3546,-0.203491,0,0,0,0,0,0,0,-1,762,1352,-16.3545,0.203532
-455,-328,0,0,0,0,0,0,0,0,0,-1,769,1352,0,0
-448,-328,0,0,0,0,0,0,0,0,0,-1,776,1352,0,0
-441,-328,0,0,0,0,0,0,0,0,0,-1,783,1352,0,0
-434,-328,0,0,0,0,0,0,0,0,0,-1,790,1352,0,0
-427,-328,0,0,0,0,0,0,0,0,0,-1,797,1352,0,0
-420,-328,0,0,0,0,0,0,0,0,0,-1,804,1352,0,0
-413,-328,0,0,0,0,0,0,0,0,0,-1,811,1352,0,0
-406,-328,0,0,0,0,0,0,0,0,0,-1,818,1352,0,0
-399,-328,0,0,0,0,0,0,0,0,0,-1,825,1352,0,0
-392,-328,0,0,0,0,0,0,0,0,0,-1,832,1352,0,0
-385,-328,0,0,0,0,0,0,0,0,0,-1,839,1352,0,0
-378,-328,0,0,0,0,0,0,0,0,0,-1,846,1352,0,0
-371,-328,0,0,0,0,0,0,0,0,0,-1,853,1352,0,0
-364,-328,0,0,0,0,0,0,0,0,0,-1,860,1352,0,0
-357,-328,0,0,0,0,0,0,0,0,0,-1,867,1352,0,0
-350,-328,0,0,0,0,0,0,0,0,0,-1,874,1352,0,0
-343,-328,0,0,0,0,0,0,0,0,0,-1,881,1352,0,0
-336,-328,0,0,0,0,0,0,0,0,0,-1,888,1352,0,0
-329,-328,0,0,0,0,0,0,0,0,0,-1,895,1352,0,0
-322,-328,0,0,0,0,0,0,0,0,0,-1,902,1352,0,0
-315,-328,0,0,0,0,0,0,0,0,0,-1,909,1352,0,0
-308,-328,0,0,0,0,0,0,0,0,0,-1,916,1352,0,0
-301,-328,0,0,0,0,0,0,0,0,0,-1,923,1352,0,0
-294,-328,0,0,0,0,0,0,0,0,0,-1,930,1352,0,0
-287,-328,0,0,0,0,0,0,0,0,0,-1,937,1352,0,0
-280,-328,0,0,0,0,0,0,0,0,0,-1,944,1352,0,0
-273,-328,0,0,0,0,0,0,0,0,0,-1,951,1352,0,0
-266,-328,0,0,0,0,0,0,0,0,0,-1,958,1352,0,0
-259,-328,0,0,0,0,0,0,0,0,0,-1,965,1352,0,0
-252,-328,0,0,0,0,0,0,0,0,0,-1,972,1352,0,0
-245,-328,0,0,0,0,0,0,0,0,0,-1,979,1352,0,0
-238,-328,0,0,0,0,0,0,0,0,0,-1,986,1352,0,0
-231,-328,0,0,0,0,0,0,0,0,0,-1,993,1352,0,0
-224,-328,0,0,0,0,0,0,0,0,0,-1,1000,1352,0,0
-217,-328,0,0,0,0,0,0,0,0,0,-1,1007,1352,0,0
-210,-328,0,0,0,0,0,0,0,0,0,-1,1014,1352,0,0
-203,-328,0,0,0,0,0,0,0,0,0,-1,1021,1352,0,0
-196,-328,0,0,0,0,0,0,0,0,0,-1,1028,1352,0,0
-189,-328,0,0,0,0,0,0,0,0,0,-1,1035,1352,0,0
-182,-328,0,0,0,0,0,0,0,0,0,-1,1042,1352,0,0
-175,-328,0,0,0,0,0,0,0,0,0,-1,1049,1352,0,0
-168,-328,0,0,0,0,0,0,0,0,0,-1,1056,1352,0,0
-161,-328,0,0,0,0,0,0,0,0,0,-1,1063,1352,0,0
-154,-328,0,0,0,0,0,0,0,0,0,-1,1070,1352,0,0
-147,-328,0,0,0,0,0,0,0,0,0,-1,1077,1352,0,0
-140,-328,0,0,0,0,0,0,0,0,0,-1,1084,1352,0,0
-133,-328,0,0,0,0,0,0,0,0,0,-1,1091,1352,0,0
-126,-328,0,0,0,0,0,0,0,0,0,-1,1098,1352,0,0
-119,-328,0,0,0,0,0,0,0,0,0,-1,1105,1352,0,0
-112,-328,0,0,0,0,0,0,0,0,0,-1,1112,1352,0,0
-105,-328,0,0,0,0,0,0,0,0,0,-1,1119,1352,0,0
-98,-328,0,0,0,0,0,0,0,0,0,-1,1126,1352,0,0
-91,-328,0,0,0,0,0,0,0,0,0,-1,1133,1352,0,0
-84,-328,0,0,0,0,0,0,0,0,0,-1,1140,1352,0,0
-77,-328,0,0,0,0,0,0,0,0,0,-1,1147,1352,0,0
-70,-328,0,0,0,0,0,0,0,0,0,-1,1154,1352,0,0
-63,-328,0,0,0,0,0,0,0,0,0,-1,1161,1352,0,0
-56,-328,0,0,0,0,0,0,0,0,0,-1,1168,1352,0,0
-49,-328,0,0,0,0,0,0,0,0,0,-1,1175,1352,0,0
-42,-328,0,0,0,0,0,0,0,0,0,-1,1182,1352,0,0
-35,-328,0,0,0,0,0,0,0,0,0,-1,1189,1352,0,0
-28,-328,0,0,0,0,0,0,0,0,0,-1,1196,1352,0,0
-21,-328,0,0,0,0,0,0,0,0,0,-1,1203,1352,0,0
-14,-328,0,0,0,0,0,0,0,0,0,-1,1210,1352,0,0
-7,-328,0,0,0,0,0,0,0,0,0,-1,1217,1352,0,0
0,-328,0,0,0,0,0,0,0,0,0,-1,1224,1352,0,0
7,-328,0,0,0,0,0,0,0,0,0,-1,1231,1352,0,0
14,-328,0,0,0,0,0,0,0,0,0,-1,1238,1352,0,0
21,-328,0,0,0,0,0,0,0,0,0,-1,1245,1352,0,0
28,-328,0,0,0,0,0,0,0,0,0,-1,1252,1352,0,0
35,-328,0,0,0,0,0,0,0,0,0,-1,1259,1352,0,0
42,-328,0,0,0,0,0,0,0,0,0,-1,1266,1352,0,0
49,-328,0,0,0,0,0,0,0,0,0,-1,1273,1352,0,0
56,-328,0,0,0,0,0,0,0,0,0,-1,1280,1352,0,0
63,-328,0,0,0,0,0,0,0,0,0,-1,1287,1352,0,0
70,-328,0,0,0,0,0,0,0,0,0,-1,1294,1352,0,0
77,-328,0,0,0,0,0,0,0,0,0,-1,1301,1352,0,0
84,-328,0,0,0,0,0,0,0,0,0,-1,1308,1352,0,0
91,-328,0,0,0,0,0,0,0,0,0,-1,1315,1352,0,0
98,-328,0,0,0,0,0,0,0,0,0,-1,1322,1352,0,0
105,-328,0,0,0,0,0,0,0,0,0,-1,1329,1352,0,0
112,-328,0,0,0,0,0,0,0,0,0,-1,1336,1352,0,0
119,-328,0,0,0,0,0,0,0,0,0,-1,1343,1352,0,0
126,-328,0,0,0,0,0,0,0,0,0,-1,1350,1352,0,0
133,-328,0,0,0,0,0,0,0,0,0,-1,1357,1352,0,0
140,-328,0,0,0,0,0,0,0,0,0,-1,1364,1352,0,0
147,-328,0,0,0,0,0,0,0,0,0,-1,1371,1352,0,0
154,-328,0,0,0,0,0,0,0,0,0,-1,1378,1352,0,0
161,-328,0,0,0,0,0,0,0,0,0,-1,1385,1352,0,0
168,-328,0,0,0,0,0,0,0,0,0,-1,1392,1352,0,0
175,-328,0,0,0,0,0,0,0,0,0,-1,1399,1352,0,0
182,-328,0,0,0,0,0,0,0,0,0,-1,1406,1352,0,0
189,-328,0,0,0,0,0,0,0,0,0,-1,1413,1352,0,0
196,-328,0,0,0,0,0,0,0,0,0,-1,1420,1352,0,0
203,-328,0,0,0,0,0,0,0,0,0,-1,1427,1352,0,0
210,-328,0,0,0,0,0,0,0,0,0,-1,1434,1352,0,0
217,-328,0,0,0,0,0,0,0,0,0,-1,1441,1352,0,0
224,-328,0,0,0,0,0,0,0,0,0,-1,1448,1352,0,0
231,-328,0,0,0,0,0,0,0,0,0,-1,1455,1352,0,0
238,-328,0,0,0,0,0,0,0,0,0,-1,1462,1352,0,0
245,-328,0,0,0,0,0,0,0,0,0,-1,1469,1352,0,0
252,-328,0,0,0,0,0,0,0,0,0,-1,1476,1352,0,0
259,-328,0,0,0,0,0,0,0,0,0,-1,1483,1352,0,0
266,-328,0,0,0,0,0,0,0,0,0,-1,1490,1352,0,0
273,-328,0,0,0,0,0,0,0,0,0,-1,1497,1352,0,0
280,-328,0,0,0,0,0,0,0,0,0,-1,1504,1352,0,0
287,-328,0,0,0,0,0,0,0,0,0,-1,1511,1352,0,0
294,-328,0,0,0,0,0,0,0,0,0,-1,1518,1352,0,0
301,-328,0,0,0,0,0,0,0,0,0,-1,1525,1352,0,0
308,-328,0,0,0,0,0,0,0,0,0,-1,1532,1352,0,0
315,-328,0,0,0,0,0,0,0,0,0,-1,1539,1352,0,0
322,-328,0,0,0,0,0,0,0,0,0,-1,1546,1352,0,0
329,-328,0,0,0,0,0,0,0,0,0,-1,1553,1352,0,0
336,-328,0,0,0,0,0,0,0,0,0,-1,1560,1352,0,0
343,-328,0,0,0,0,0,0,0,0,0,-1,1567,1352,0,0
350,-328,0,0,0,0,0,0,0,0,0,-1,1574,1352,0,0
357,-328,0,0,0,0,0,0,0,0,0,-1,1581,1352,0,0
364,-328,0,0,0,0,0,0,0,0,0,-1,1588,1352,0,0
371,-328,0,0,0,0,0,0,0,0,0,-1,1595,1352,0,0
378,-328,0,0,0,0,0,0,0,0,0,-1,1602,1352,0,0
385,-328,0,0,0,0,0,0,0,0,0,-1,1609,1352,0,0
392,-328,0,0,0,0,0,0,0,0,0,-1,1616,1352,0,0
399,-328,0,0,0,0,0,0,0,0,0,-1,1623,1352,0,0
406,-328,0,0,0,0,0,0,0,0,0,-1,1630,1352,0,0
413,-328,0,0,0,0,0,0,0,0,0,-1,1637,1352,0,0
420,-328,0,0,0,0,0,0,0,0,0,-1,1644,1352,0,0
427,-328,0,0,0,0,0,0,0,0,0,-1,1651,1352,0,0
434,-328,0,0,0,0,0,0,0,0,0,-1,1658,1352,0,0
441,-328,0,0,0,0,0,0,0,0,0,-1,1665,1352,0,0
448,-328,0,0,0,0,0,0,0,0,0,-1,1672,1352,0,0
455,-328,0,0,0,0,0,0,0,0,0,-1,1679,1352,0,0
462,-328,0,0,0,0,0,0,0,0,0,-1,1686,1352,0,0
469,-328,0,0,0,0,0,0,0,0,0,-1,1693,1352,0,0
476,-328,0,0,0,0,0,0,0,0,0,-1,1700,1352,0,0
483,-328,0,0,0,0,0,0,0,0,0,-1,1707,1352,0,0
490,-328,0,0,0,0,0,0,0,0,0,-1,1714,1352,0,0
497,-328,0,0,0,0,0,0,0,0,0,-1,1721,1352,0,0
504,-328,0,0,0,0,0,0,0,0,0,-1,1728,1352,0,0
511,-328,0,0,0,0,0,0,0,0,0,-1,1735,1352,0,0
518,-328,0,0,0,0,0,0,0,0,0,-1,1742,1352,0,0
525,-328,0,0,0,0,0,0,0,0,0,-1,1749,1352,0,0
532,-328,0,0,0,0,0,0,0,0,0,-1,1756,1352,0,0
539,-328,0,0,0,0,0,0,0,0,0,-1,1763,1352,0,0
546,-328,0,0,0,0,0,0,0,0,0,-1,1770,1352,0,0
553,-328,0,0,0,0,0,0,0,0,0,-1,1777,1352,0,0
560,-328,0,0,0,0,0,0,0,0,0,-1,1784,1352,0,0
567,-328,0,0,0,0,0,0,0,0,0,-1,1791,1352,0,0
574,-328,65.0565,3.09021,0,0,0,0,0,0,0,-1,1798,1352,65.0565,-3.09019
581,-328,66.3988,1.74048,0,0,0,0,0,0,0,-1,1805,1352,66.3989,-1.74051
588,-328,67.0304,0.506714,0,0,0,0,0,0,0,-1,1812,1352,67.0304,-0.506669
595,-328,60.5831,1.52856,0,0,0,0,0,0,0,-1,1819,1352,60.5832,-1.52861
602,-328,48.7734,3.66785,0,0,0,0,0,0,0,-1,1826,1352,48.7734,-3.66782
609,-328,37.0468,1.17407,0,0,0,0,0,0,0,-1,1833,1352,37.0468,-1.17407
616,-328,36.999,2.42859,0,0,0,0,0,0,0,-1,1840,1352,36.999,-2.42862
623,-328,34.345,5.14722,0,0,0,0,0,0,0,-1,1847,1352,34.3449,-5.14718
630,-328,22.0211,5.026,0,0,0,0,0,0,0,-1,1854,1352,22.0212,-5.02603
637,-328,21.15,5.53699,0,0,0,0,0,0,0,-1,1861,1352,21.15,-5.53704
644,-328,16.9579,6.3396,0,0,0,0,0,0,0,-1,1868,1352,16.9579,-6.33959
651,-328,36.2629,14.6906,0,0,0,0,0,0,0,-1,1875,1352,36.263,-14.6905
658,-328,50.9485,20.8585,0,0,0,0,0,0,0,-1,1882,1352,50.9485,-20.8585
665,-328,51.0884,19.8385,0.000436741,0.000411124,-0.000577117,0.00100119,-0.000153327,-0.774303,0.000724002,0.0147965,1889,1352,51.0884,-19.8385
672,-328,51.0275,18.9767,0.000822333,0.000209585,-0.000611729,0.00120012,-0.000168203,-0.553241,0.000861638,0.0124935,1896,1352,51.0275,-18.9767
679,-328,50.9684,18.0886,0.00120577,0.000229585,-0.000614466,0.00150241,-6.70539e-05,-0.44976,0.00102469,0.0161965,1903,1352,50.9684,-18.0886
686,-328,50.9081,17.1913,0.00161689,0.000304555,-0.000632389,0.00187203,4.94212e-05,-0.383473,0.00123188,0.0162462,1910,1352,50.9081,-17.1913
693,-328,50.8616,16.3254,0.00204069,0.000480308,-0.000690895,0.00230263,0.00021837,-0.362386,0.00146772,0.0102381,1917,1352,50.8616,-16.3255
700,-328,50.8208,15.4413,0.00243626,0.000832085,-0.000806399,0.00277155,0.000496796,-0.39404,0.00170638,0.014429,1924,1352,50.8208,-15.4413
707,-328,50.7992,14.5651,0.00278696,0.00124737,-0.000916597,0.00321413,0.000820195,-0.436115,0.0019284,0.0169667,1931,1352,50.7992,-14.565
714,-328,50.7378,13.6917,0.00310851,0.00184965,-0.00107397,0.00372391,0.00123425,-0.520338,0.00219035,0.0180914,1938,1352,50.7378,-13.6917
721,-328,50.6802,12.7178,0,0,0,0,0,0,0,-1,1945,1352,50.6802,-12.7178
728,-328,29.2787,6.74695,0,0,0,0,0,0,0,-1,1952,1352,29.2787,-6.74693
735,-328,20.8927,5.23523,0,0,0,0,0,0,0,-1,1959,1352,20.8927,-5.23528
742,-328,20.3547,4.11316,0,0,0,0,0,0,0,-1,1966,1352,20.3547,-4.11321
749,-328,20.0669,5.66321,0,0,0,0,0,0,0,-1,1973,1352,20.0669,-5.66319
756,-328,19.9543,5.50464,0,0,0,0,0,0,0,-1,1980,1352,19.9543,-5.50463
763,-328,0,0,0,0,0,0,0,0,0,-1,1987,1352,0,0
770,-328,0,0,0,0,0,0,0,0,0,-1,1994,1352,0,0
777,-328,0,0,0,0,0,0,0,0,0,-1,2001,1352,0,0
784,-328,0,0,0,0,0,0,0,0,0,-1,2008,1352,0,0
791,-328,0,0,0,0,0,0,0,0,0,-1,2015,1352,0,0
798,-328,0,0,0,0,0,0,0,0,0,-1,2022,1352,0,0
805,-328,0,0,0,0,0,0,0,0,0,-1,2029,1352,0,0
812,-328,0,0,0,0,0,0,0,0,0,-1,2036,1352,0,0
-700,-335,0,0,0,0,0,0,0,0,0,-1,524,1359,0,0
-693,-335,0,0,0,0,0,0,0,0,0,-1,531,1359,0,0
-686,-335,0,0,0,0,0,0,0,0,0,-1,538,1359,0,0
-679,-335,0,0,0,0,0,0,0,0,0,-1,545,1359,0,0
-672,-335,0,0,0,0,0,0,0,0,0,-1,552,1359,0,0
-665,-335,0,0,0,0,0,0,0,0,0,-1,559,1359,0,0
-658,-335,0,0,0,0,0,0,0,0,0,-1,566,1359,0,0
-651,-335,0,0,0,0,0,0,0,0,0,-1,573,1359,0,0
-644,-335,0,0,0,0,0,0,0,0,0,-1,580,1359,0,0
-637,-335,-62.7114,11.0491,0,0,0,0,0,0,0,-1,587,1359,-62.7114,-11.0491
-630,-335,-64.2532,9.91284,0,0,0,0,0,0,0,-1,594,1359,-64.2532,-9.91285
-623,-335,-8.43304,1.09509,0,0,0,0,0,0,0,-1,601,1359,-8.43301,-1.09507
-616,-335,-7.80927,-0.485352,0,0,0,0,0,0,0,-1,608,1359,-7.80926,0.485291
-609,-335,-7.12256,-2.03601,0,0,0,0,0,0,0,-1,615,1359,-7.12253,2.03601
-602,-335,-9.39935,2.25146,0,0,0,0,0,0,0,-1,622,1359,-9.39935,-2.25145
-595,-335,-9.54767,3.01917,0,0,0,0,0,0,0,-1,629,1359,-9.54768,-3.01911
-588,-335,-32.5884,12.3756,0,0,0,0,0,0,0,-1,636,1359,-32.5884,-12.3756
-581,-335,-32.8466,13.78,0,0,0,0,0,0,0,-1,643,1359,-32.8466,-13.78
-574,-335,-32.8661,14.7678,0.0049543,0.00252894,0.00226874,0.00631413,0.00116911,0.539959,0.0038789,0.0143869,650,1359,-32.8661,-14.7678
-567,-335,-32.9041,15.729,0.00435257,0.00196942,0.00178578,0.00530782,0.00101417,0.491192,0.00325361,0.0180018,657,1359,-32.9041,-15.729
-560,-335,-32.967,16.5582,0.00419214,0.00153697,0.00161089,0.004952,0.000777111,0.440756,0.0030752,0.0260841,664,1359,-32.967,-16.5582
-553,-335,-33.0789,17.441,0.00434909,0.0011927,0.00166149,0.00506246,0.000479336,0.405553,0.00322708,0.0299302,671,1359,-33.0789,-17.441
-546,-335,-33.1122,18.376,0.00481019,0.000917107,0.00190642,0.00558825,0.000139046,0.387493,0.00368002,0.0268996,678,1359,-33.1123,-18.376
-539,-335,-33.1309,19.3107,0.00557047,0.000720119,0.00234325,0.00651758,-0.000226991,0.38411,0.00442266,0.0219867,685,1359,-33.1309,-19.3106
-532,-335,-33.2,20.2432,0.00669575,0.000602064,0.00298648,0.00791533,-0.000617513,0.387697,0.0054943,0.0168721,692,1359,-33.2,-20.2432
-525,-335,-33.1878,21.1765,0.00816271,0.000610268,0.00383236,0.00976671,-0.000993737,0.396388,0.0068664,0.014408,699,1359,-33.1878,-21.1765
-518,-335,-33.3173,22.0073,0,0,0,0,0,0,0,-1,706,1359,-33.3172,-22.0074
-511,-335,-17.3098,11.6718,0,0,0,0,0,0,0,-1,713,1359,-17.3097,-11.6717
-504,-335,-9.35767,5.99695,0,0,0,0,0,0,0,-1,720,1359,-9.35767,-5.99694
-497,-335,-8.75024,-0.650513,0,0,0,0,0,0,0,-1,727,1359,-8.75024,0.650521
-490,-335,-9.51971,0.417603,0,0,0,0,0,0,0,-1,734,1359,-9.51974,-0.41765
-483,-335,-10.2883,1.29224,0,0,0,0,0,0,0,-1,741,1359,-10.2883,-1.2922
-476,-335,-11.9938,-0.173462,0,0,0,0,0,0,0,-1,748,1359,-11.9938,0.173429
-469,-335,-12.8704,-0.204102,0,0,0,0,0,0,0,-1,755,1359,-12.8704,0.204117
-462,-335,-13.486,0.0218506,0,0,0,0,0,0,0,-1,762,1359,-13.4859,-0.0217908
-455,-335,-14.1504,0.549561,0,0,0,0,0,0,0,-1,769,1359,-14.1504,-0.549583
-448,-335,0,0,0,0,0,0,0,0,0,-1,776,1359,0,0
-441,-335,0,0,0,0,0,0,0,0,0,-1,783,1359,0,0
-434,-335,0,0,0,0,0,0,0,0,0,-1,790,1359,0,0
-427,-335,0,0,0,0,0,0,0,0,0,-1,797,1359,0,0
-420,-335,0,0,0,0,0,0,0,0,0,-1,804,1359,0,0
-413,-335,0,0,0,0,0,0,0,0,0,-1,811,1359,0,0
-406,-335,0,0,0,0,0,0,0,0,0,-1,818,1359,0,0
-399,-335,0,0,0,0,0,0,0,0,0,-1,825,1359,0,0
-392,-335,0,0,0,0,0,0,0,0,0,-1,832,1359,0,0
-385,-335,0,0,0,0,0,0,0,0,0,-1,839,1359,0,0
-378,-335,0,0,0,0,0,0,0,0,0,-1,846,1359,0,0
-371,-335,0,0,0,0,0,0,0,0,0,-1,853,1359,0,0
-364,-335,0,0,0,0,0,0,0,0,0,-1,860,1359,0,0
-357,-335,0,0,0,0,0,0,0,0,0,-1,867,1359,0,0
-350,-335,0,0,0,0,0,0,0,0,0,-1,874,1359,0,0
-343,-335,0,0,0,0,0,0,0,0,0,-1,881,1359,0,0
-336,-335,0,0,0,0,0,0,0,0,0,-1,888,1359,0,0
-329,-335,0,0,0,0,0,0,0,0,0,-1,895,1359,0,0
-322,-335,0,0,0,0,0,0,0,0,0,-1,902,1359,0,0
-315,-335,0,0,0,0,0,0,0,0,0,-1,909,1359,0,0
-308,-335,0,0,0,0,0,0,0,0,0,-1,916,1359,0,0
-301,-335,0,0,0,0,0,0,0,0,0,-1,923,1359,0,0
-294,-335,0,0,0,0,0,0,0,0,0,-1,930,1359,0,0
-287,-335,0,0,0,0,0,0,0,0,0,-1,937,1359,0,0
-280,-335,0,0,0,0,0,0,0,0,0,-1,944,1359,0,0
-273,-335,0,0,0,0,0,0,0,0,0,-1,951,1359,0,0
-266,-335,0,0,0,0,0,0,0,0,0,-1,958,1359,0,0
-259,-335,0,0,0,0,0,0,0,0,0,-1,965,1359,0,0
-252,-335,0,0,0,0,0,0,0,0,0,-1,972,1359,0,0
-245,-335,0,0,0,0,0,0,0,0,0,-1,979,1359,0,0
-238,-335,0,0,0,0,0,0,0,0,0,-1,986,1359,0,0
-231,-335,0,0,0,0,0,0,0,0,0,-1,993,1359,0,0
-224,-335,0,0,0,0,0,0,0,0,0,-1,1000,1359,0,0
-217,-335,0,0,0,0,0,0,0,0,0,-1,1007,1359,0,0
-210,-335,0,0,0,0,0,0,0,0,0,-1,1014,1359,0,0
-203,-335,0,0,0,0,0,0,0,0,0,-1,1021,1359,0,0
-196,-335,0,0,0,0,0,0,0,0,0,-1,1028,1359,0,0
-189,-335,0,0,0,0,0,0,0,0,0,-1,1035,1359,0,0
-182,-335,0,0,0,0,0,0,0,0,0,-1,1042,1359,0,0
-175,-335,0,0,0,0,0,0,0,0,0,-1,1049,1359,0,0
-168,-335,0,0,0,0,0,0,0,0,0,-1,1056,1359,0,0
-161,-335,0,0,0,0,0,0,0,0,0,-1,1063,1359,0,0
-154,-335,0,0,0,0,0,0,0,0,0,-1,1070,1359,0,0
-147,-335,0,0,0,0,0,0,0,0,0,-1,1077,1359,0,0
-140,-335,0,0,0,0,0,0,0,0,0,-1,1084,1359,0,0
-133,-335,0,0,0,0,0,0,0,0,0,-1,1091,1359,0,0
-126,-335,0,0,0,0,0,0,0,0,0,-1,1098,1359,0,0
-119,-335,0,0,0,0,0,0,0,0,0,-1,1105,1359,0,0
-112,-335,0,0,0,0,0,0,0,0,0,-1,1112,1359,0,0
-105,-335,0,0,0,0,0,0,0,0,0,-1,1119,1359,0,0
-98,-335,0,0,0,0,0,0,0,0,0,-1,1126,1359,0,0
-91,-335,0,0,0,0,0,0,0,0,0,-1,1133,1359,0,0
-84,-335,0,0,0,0,0,0,0,0,0,-1,1140,1359,0,0
-77,-335,0,0,0,0,0,0,0,0,0,-1,1147,1359,0,0
-70,-335,0,0,0,0,0,0,0,0,0,-1,1154,1359,0,0
-63,-335,0,0,0,0,0,0,0,0,0,-1,1161,1359,0,0
-56,-335,0,0,0,0,0,0,0,0,0,-1,1168,1359,0,0
-49,-335,0,0,0,0,0,0,0,0,0,-1,1175,1359,0,0
-42,-335,0,0,0,0,0,0,0,0,0,-1,1182,1359,0,0
-35,-335,0,0,0,0,0,0,0,0,0,-1,1189,1359,0,0
-28,-335,0,0,0,0,0,0,0,0,0,-1,1196,1359,0,0
-21,-335,0,0,0,0,0,0,0,0,0,-1,1203,1359,0,0
-14,-335,0,0,0,0,0,0,0,0,0,-1,1210,1359,0,0
-7,-335,0,0,0,0,0,0,0,0,0,-1,1217,1359,0,0
0,-335,0,0,0,0,0,0,0,0,0,-1,1224,1359,0,0
7,-335,0,0,0,0,0,0,0,0,0,-1,1231,1359,0,0
14,-335,0,0,0,0,0,0,0,0,0,-1,1238,1359,0,0
21,-335,0,0,0,0,0,0,0,0,0,-1,1245,1359,0,0
28,-335,0,0,0,0,0,0,0,0,0,-1,1252,1359,0,0
35,-335,0,0,0,0,0,0,0,0,0,-1,1259,1359,0,0
42,-335,0,0,0,0,0,0,0,0,0,-1,1266,1359,0,0
49,-335,0,0,0,0,0,0,0,0,0,-1,1273,1359,0,0
56,-335,0,0,0,0,0,0,0,0,0,-1,1280,1359,0,0
63,-335,0,0,0,0,0,0,0,0,0,-1,1287,1359,0,0
70,-335,0,0,0,0,0,0,0,0,0,-1,1294,1359,0,0
77,-335,0,0,0,0,0,0,0,0,0,-1,1301,1359,0,0
84,-335,0,0,0,0,0,0,0,0,0,-1,1308,1359,0,0
91,-335,0,0,0,0,0,0,0,0,0,-1,1315,1359,0,0
98,-335,0,0,0,0,0,0,0,0,0,-1,1322,1359,0,0
105,-335,0,0,0,0,0,0,0,0,0,-1,1329,1359,0,0
112,-335,0,0,0,0,0,0,0,0,0,-1,1336,1359,0,0
119,-335,0,0,0,0,0,0,0,0,0,-1,1343,1359,0,0
126,-335,0,0,0,0,0,0,0,0,0,-1,1350,1359,0,0
133,-335,0,0,0,0,0,0,0,0,0,-1,1357,1359,0,0
140,-335,0,0,0,0,0,0,0,0,0,-1,1364,1359,0,0
147,-335,0,0,0,0,0,0,0,0,0,-1,1371,1359,0,0
154,-335,0,0,0,0,0,0,0,0,0,-1,1378,1359,0,0
161,-335,0,0,0,0,0,0,0,0,0,-1,1385,1359,0,0
168,-335,0,0,0,0,0,0,0,0,0,-1,1392,1359,0,0
175,-335,0,0,0,0,0,0,0,0,0,-1,1399,1359,0,0
182,-335,0,0,0,0,0,0,0,0,0,-1,1406,1359,0,0
189,-335,0,0,0,0,0,0,0,0,0,-1,1413,1359,0,0
196,-335,0,0,0,0,0,0,0,0,0,-1,1420,1359,0,0
203,-335,0,0,0,0,0,0,0,0,0,-1,1427,1359,0,0
210,-335,0,0,0,0,0,0,0,0,0,-1,1434,1359,0,0
217,-335,0,0,0,0,0,0,0,0,0,-1,1441,1359,0,0
224,-335,0,0,0,0,0,0,0,0,0,-1,1448,1359,0,0
231,-335,0,0,0,0,0,0,0,0,0,-1,1455,1359,0,0
238,-335,0,0,0,0,0,0,0,0,0,-1,1462,1359,0,0
245,-335,0,0,0,0,0,0,0,0,0,-1,1469,1359,0,0
252,-335,0,0,0,0,0,0,0,0,0,-1,1476,1359,0,0
259,-335,0,0,0,0,0,0,0,0,0,-1,1483,1359,0,0
266,-335,0,0,0,0,0,0,0,0,0,-1,1490,1359,0,0
273,-335,0,0,0,0,0,0,0,0,0,-1,1497,1359,0,0
280,-335,0,0,0,0,0,0,0,0,0,-1,1504,1359,0,0
287,-335,0,0,0,0,0,0,0,0,0,-1,1511,1359,0,0
294,-335,0,0,0,0,0,0,0,0,0,-1,1518,1359,0,0
301,-335,0,0,0,0,0,0,0,0,0,-1,1525,1359,0,0
308,-335,0,0,0,0,0,0,0,0,0,-1,1532,1359,0,0
315,-335,0,0,0,0,0,0,0,0,0,-1,1539,1359,0,0
322,-335,0,0,0,0,0,0,0,0,0,-1,1546,1359,0,0
329,-335,0,0,0,0,0,0,0,0,0,-1,1553,1359,0,0
336,-335,0,0,0,0,0,0,0,0,0,-1,1560,1359,0,0
343,-335,0,0,0,0,0,0,0,0,0,-1,1567,1359,0,0
350,-335,0,0,0,0,0,0,0,0,0,-1,1574,1359,0,0
357,-335,0,0,0,0,0,0,0,0,0,-1,1581,1359,0,0
364,-335,0,0,0,0,0,0,0,0,0,-1,1588,1359,0,0
371,-335,0,0,0,0,0,0,0,0,0,-1,1595,1359,0,0
378,-335,0,0,0,0,0,0,0,0,0,-1,1602,1359,0,0
385,-335,0,0,0,0,0,0,0,0,0,-1,1609,1359,0,0
392,-335,0,0,0,0,0,0,0,0,0,-1,1616,1359,0,0
399,-335,0,0,0,0,0,0,0,0,0,-1,1623,1359,0,0
406,-335,0,0,0,0,0,0,0,0,0,-1,1630,1359,0,0
413,-335,0,0,0,0,0,0,0,0,0,-1,1637,1359,0,0
420,-335,0,0,0,0,0,0,0,0,0,-1,1644,1359,0,0
427,-335,0,0,0,0,0,0,0,0,0,-1,1651,1359,0,0
434,-335,0,0,0,0,0,0,0,0,0,-1,1658,1359,0,0
441,-335,0,0,0,0,0,0,0,0,0,-1,1665,1359,0,0
448,-335,0,0,0,0,0,0,0,0,0,-1,1672,1359,0,0
455,-335,0,0,0,0,0,0,0,0,0,-1,1679,1359,0,0
462,-335,0,0,0,0,0,0,0,0,0,-1,1686,1359,0,0
469,-335,0,0,0,0,0,0,0,0,0,-1,1693,1359,0,0
476,-335,0,0,0,0,0,0,0,0,0,-1,1700,1359,0,0
483,-335,0,0,0,0,0,0,0,0,0,-1,1707,1359,0,0
490,-335,0,0,0,0,0,0,0,0,0,-1,1714,1359,0,0
497,-335,0,0,0,0,0,0,0,0,0,-1,1721,1359,0,0
504,-335,0,0,0,0,0,0,0,0,0,-1,1728,1359,0,0
511,-335,0,0,0,0,0,0,0,0,0,-1,1735,1359,0,0
518,-335,0,0,0,0,0,0,0,0,0,-1,1742,1359,0,0
525,-335,0,0,0,0,0,0,0,0,0,-1,1749,1359,0,0
532,-335,0,0,0,0,0,0,0,0,0,-1,1756,1359,0,0
539,-335,0,0,0,0,0,0,0,0,0,-1,1763,1359,0,0
546,-335,0,0,0,0,0,0,0,0,0,-1,1770,1359,0,0
553,-335,0,0,0,0,0,0,0,0,0,-1,1777,1359,0,0
560,-335,0,0,0,0,0,0,0,0,0,-1,1784,1359,0,0
567,-335,0,0,0,0,0,0,0,0,0,-1,1791,1359,0,0
574,-335,65.0712,2.80188,0,0,0,0,0,0,0,-1,1798,1359,65.0712,-2.80193
581,-335,66.5206,1.60327,0,0,0,0,0,0,0,-1,1805,1359,66.5206,-1.60333
588,-335,67.826,0.334961,0,0,0,0,0,0,0,-1,1812,1359,67.8261,-0.335018
595,-335,49.984,3.76465,0,0,0,0,0,0,0,-1,1819,1359,49.984,-3.76467
602,-335,36.5643,0.0861816,0,0,0,0,0,0,0,-1,1826,1359,36.5643,-0.0862283
609,-335,36.2933,0.993896,0,0,0,0,0,0,0,-1,1833,1359,36.2934,-0.993911
616,-335,34.6969,4.82666,0,0,0,0,0,0,0,-1,1840,1359,34.6969,-4.82667
623,-335,26.6051,6.54333,0,0,0,0,0,0,0,-1,1847,1359,26.6051,-6.54339
630,-335,19.1707,1.00952,0,0,0,0,0,0,0,-1,1854,1359,19.1707,-1.00953
637,-335,18.2009,6.65454,0,0,0,0,0,0,0,-1,1861,1359,18.2009,-6.6546
644,-335,28.1042,12.067,0,0,0,0,0,0,0,-1,1868,1359,28.1042,-12.067
651,-335,50.0992,21.8855,0,0,0,0,0,0,0,-1,1875,1359,50.0992,-21.8855
658,-335,50.2133,20.854,-4.86202e-05,0.000960636,-0.000625645,0.0012598,-0.000347784,-1.12477,0.000976658,0.0466339,1882,1359,50.2132,-20.854
665,-335,50.208,19.9041,0.000345845,0.000484477,-0.000491845,0.000911866,-8.15443e-05,-0.855403,0.000636835,0.0148941,1889,1359,50.208,-19.904
672,-335,50.1538,19.0142,0.000814597,0.000353296,-0.000555212,0.00118516,-1.72685e-05,-0.588531,0.000795926,0.0182763,1896,1359,50.1538,-19.0142
679,-335,50.0826,18.1265,0.00130687,0.000384205,-0.000633361,0.0016291,6.19729e-05,-0.470635,0.00106601,0.0166714,1903,1359,50.0826,-18.1265
686,-335,50.0466,17.2317,0.00185001,0.000513281,-0.000758526,0.00219262,0.00017067,-0.424251,0.00140831,0.014119,1910,1359,50.0466,-17.2317
693,-335,49.978,16.3752,0.00243794,0.000746589,-0.000921811,0.00284322,0.000341304,-0.414224,0.00179258,0.0108602,1917,1359,49.9781,-16.3753
700,-335,49.9279,15.5328,0.00304089,0.00106876,-0.00109405,0.00352767,0.000581981,-0.418634,0.00218379,0.0110848,1924,1359,49.9278,-15.5328
707,-335,49.8879,14.6588,0.00361512,0.00146824,-0.00125462,0.00419284,0.000890517,-0.431534,0.00255074,0.014607,1931,1359,49.888,-14.6588
714,-335,49.8761,13.6418,0.00426236,0.00203616,-0.00140904,0.00494492,0.0013536,-0.451099,0.00295078,0.0383922,1938,1359,49.8761,-13.6419
721,-335,49.7681,12.521,0,0,0,0,0,0,0,-1,1945,1359,49.768,-12.521
728,-335,20.8126,5.21167,0,0,0,0,0,0,0,-1,1952,1359,20.8127,-5.21172
735,-335,20.2725,5.34729,0,0,0,0,0,0,0,-1,1959,1359,20.2724,-5.34734
742,-335,19.8624,4.72229,0,0,0,0,0,0,0,-1,1966,1359,19.8624,-4.72225
749,-335,20.5887,6.05322,0,0,0,0,0,0,0,-1,1973,1359,20.5887,-6.05322
756,-335,20.7832,6.00452,0,0,0,0,0,0,0,-1,1980,1359,20.7832,-6.00447
763,-335,0,0,0,0,0,0,0,0,0,-1,1987,1359,0,0
770,-335,0,0,0,0,0,0,0,0,0,-1,1994,1359,0,0
777,-335,0,0,0,0,0,0,0,0,0,-1,2001,1359,0,0
784,-335,0,0,0,0,0,0,0,0,0,-1,2008,1359,0,0
791,-335,0,0,0,0,0,0,0,0,0,-1,2015,1359,0,0
798,-335,0,0,0,0,0,0,0,0,0,-1,2022,1359,0,0
805,-335,0,0,0,0,0,0,0,0,0,-1,2029,1359,0,0
812,-335,0,0,0,0,0,0,0,0,0,-1,2036,1359,0,0
-700,-342,0,0,0,0,0,0,0,0,0,-1,524,1366,0,0
-693,-342,0,0,0,0,0,0,0,0,0,-1,531,1366,0,0
-686,-342,0,0,0,0,0,0,0,0,0,-1,538,1366,0,0
-679,-342,0,0,0,0,0,0,0,0,0,-1,545,1366,0,0
-672,-342,0,0,0,0,0,0,0,0,0,-1,552,1366,0,0
-665,-342,0,0,0,0,0,0,0,0,0,-1,559,1366,0,0
-658,-342,0,0,0,0,0,0,0,0,0,-1,566,1366,0,0
-651,-342,0,0,0,0,0,0,0,0,0,-1,573,1366,0,0
-644,-342,0,0,0,0,0,0,0,0,0,-1,580,1366,0,0
-637,-342,-63.7546,12.2344,0,0,0,0,0,0,0,-1,587,1366,-63.7546,-12.2343
-630,-342,-8.60132,2.71777,0,0,0,0,0,0,0,-1,594,1366,-8.60135,-2.71779
-623,-342,-8.41168,0.662476,0,0,0,0,0,0,0,-1,601,1366,-8.41168,-0.662442
-616,-342,-6.625,-1.28015,0,0,0,0,0,0,0,-1,608,1366,-6.62499,1.28011
-609,-342,-7.83154,0.674561,0,0,0,0,0,0,0,-1,615,1366,-7.83155,-0.674598
-602,-342,-9.65765,2.25195,0,0,0,0,0,0,0,-1,622,1366,-9.65767,-2.25192
-595,-342,-9.47687,3.00671,0,0,0,0,0,0,0,-1,629,1366,-9.47686,-3.00668
-588,-342,-9.78467,3.57727,0,0,0,0,0,0,0,-1,636,1366,-9.78468,-3.57723
-581,-342,-32.1247,13.9293,0,0,0,0,0,0,0,-1,643,1366,-32.1247,-13.9294
-574,-342,-32.0297,14.8427,0.00589484,0.00280941,0.00257241,0.00735166,0.00135259,0.515293,0.00451824,0.0195892,650,1366,-32.0297,-14.8426
-567,-342,-31.9783,15.772,0.00486144,0.00214338,0.00197339,0.0058985,0.00110633,0.483854,0.00362035,0.0180186,657,1366,-31.9782,-15.7719
-560,-342,-32.072,16.5959,0.00437143,0.00163188,0.00170499,0.00518873,0.000814581,0.446995,0.00322213,0.0276668,664,1366,-32.0719,-16.596
-553,-342,-32.1434,17.4275,0.00423896,0.0012292,0.00167329,0.00498454,0.000483627,0.419169,0.00317412,0.0303209,671,1366,-32.1434,-17.4275
-546,-342,-32.1279,18.3483,0.00441138,0.000914824,0.00182933,0.0051935,0.0001327,0.404025,0.00341896,0.0285141,678,1366,-32.1278,-18.3483
-539,-342,-32.1632,19.3666,0.00488463,0.000686664,0.00215449,0.00579356,-0.000222269,0.399224,0.00393855,0.0245402,685,1366,-32.1632,-19.3666
-532,-342,-32.2629,20.3336,0.00569216,0.000557559,0.00265815,0.00682037,-0.000570651,0.401391,0.00474857,0.0198516,692,1366,-32.2629,-20.3337
-525,-342,-32.2684,21.245,0.00682085,0.00056112,0.00333828,0.00826703,-0.000885061,0.408805,0.00582882,0.014876,699,1366,-32.2683,-21.245
-518,-342,-32.1917,22.1874,0.00837283,0.000593484,0.00425054,0.0102448,-0.0012785,0.41485,0.00729349,0.0491432,706,1366,-32.1917,-22.1874
-511,-342,-32.1692,23.1117,0,0,0,0,0,0,0,-1,713,1366,-32.1692,-23.1117
-504,-342,-8.95709,6.5719,0,0,0,0,0,0,0,-1,720,1366,-8.95707,-6.57192
-497,-342,-8.26587,-0.943604,0,0,0,0,0,0,0,-1,727,1366,-8.26586,0.943543
-490,-342,-9.07153,-0.0227051,0,0,0,0,0,0,0,-1,734,1366,-9.07155,0.0227087
-483,-342,-9.87726,0.898071,0,0,0,0,0,0,0,-1,741,1366,-9.87724,-0.898125
-476,-342,-11.6371,-0.736328,0,0,0,0,0,0,0,-1,748,1366,-11.6371,0.736281
-469,-342,-12.6245,-0.987549,0,0,0,0,0,0,0,-1,755,1366,-12.6245,0.987553
-462,-342,-13.0912,-0.533203,0,0,0,0,0,0,0,-1,762,1366,-13.0912,0.533224
-455,-342,-13.7612,0.122925,0,0,0,0,0,0,0,-1,769,1366,-13.7612,-0.122896
-448,-342,-14.5278,0.826904,0,0,0,0,0,0,0,-1,776,1366,-14.5277,-0.826861
-441,-342,0,0,0,0,0,0,0,0,0,-1,783,1366,0,0
-434,-342,0,0,0,0,0,0,0,0,0,-1,790,1366,0,0
-427,-342,0,0,0,0,0,0,0,0,0,-1,797,1366,0,0
-420,-342,0,0,0,0,0,0,0,0,0,-1,804,1366,0,0
-413,-342,0,0,0,0,0,0,0,0,0,-1,811,1366,0,0
-406,-342,0,0,0,0,0,0,0,0,0,-1,818,1366,0,0
-399,-342,0,0,0,0,0,0,0,0,0,-1,825,1366,0,0
-392,-342,0,0,0,0,0,0,0,0,0,-1,832,1366,0,0
-385,-342,0,0,0,0,0,0,0,0,0,-1,839,1366,0,0
-378,-342,0,0,0,0,0,0,0,0,0,-1,846,1366,0,0
-371,-342,0,0,0,0,0,0,0,0,0,-1,853,1366,0,0
-364,-342,0,0,0,0,0,0,0,0,0,-1,860,1366,0,0
-357,-342,0,0,0,0,0,0,0,0,0,-1,867,1366,0,0
-350,-342,0,0,0,0,0,0,0,0,0,-1,874,1366,0,0
-343,-342,0,0,0,0,0,0,0,0,0,-1,881,1366,0,0
-336,-342,0,0,0,0,0,0,0,0,0,-1,888,1366,0,0
-329,-342,0,0,0,0,0,0,0,0,0,-1,895,1366,0,0
-322,-342,0,0,0,0,0,0,0,0,0,-1,902,1366,0,0
-315,-342,0,0,0,0,0,0,0,0,0,-1,909,1366,0,0
-308,-342,0,0,0,0,0,0,0,0,0,-1,916,1366,0,0
-301,-342,0,0,0,0,0,0,0,0,0,-1,923,1366,0,0
-294,-342,0,0,0,0,0,0,0,0,0,-1,930,1366,0,0
-287,-342,0,0,0,0,0,0,0,0,0,-1,937,1366,0,0
-280,-342,0,0,0,0,0,0,0,0,0,-1,944,1366,0,0
-273,-342,0,0,0,0,0,0,0,0,0,-1,951,1366,0,0
-266,-342,0,0,0,0,0,0,0,0,0,-1,958,1366,0,0
-259,-342,0,0,0,0,0,0,0,0,0,-1,965,1366,0,0
-252,-342,0,0,0,0,0,0,0,0,0,-1,972,1366,0,0
-245,-342,0,0,0,0,0,0,0,0,0,-1,979,1366,0,0
-238,-342,0,0,0,0,0,0,0,0,0,-1,986,1366,0,0
-231,-342,0,0,0,0,0,0,0,0,0,-1,993,1366,0,0
-224,-342,0,0,0,0,0,0,0,0,0,-1,1000,1366,0,0
-217,-342,0,0,0,0,0,0,0,0,0,-1,1007,1366,0,0
-210,-342,0,0,0,0,0,0,0,0,0,-1,1014,1366,0,0
-203,-342,0,0,0,0,0,0,0,0,0,-1,1021,1366,0,0
-196,-342,0,0,0,0,0,0,0,0,0,-1,1028,1366,0,0
-189,-342,0,0,0,0,0,0,0,0,0,-1,1035,1366,0,0
-182,-342,0,0,0,0,0,0,0,0,0,-1,1042,1366,0,0
-175,-342,0,0,0,0,0,0,0,0,0,-1,1049,1366,0,0
-168,-342,0,0,0,0,0,0,0,0,0,-1,1056,1366,0,0
-161,-342,0,0,0,0,0,0,0,0,0,-1,1063,1366,0,0
-154,-342,0,0,0,0,0,0,0,0,0,-1,1070,1366,0,0
-147,-342,0,0,0,0,0,0,0,0,0,-1,1077,1366,0,0
-140,-342,0,0,0,0,0,0,0,0,0,-1,1084,1366,0,0
-133,-342,0,0,0,0,0,0,0,0,0,-1,1091,1366,0,0
-126,-342,0,0,0,0,0,0,0,0,0,-1,1098,1366,0,0
-119,-342,0,0,0,0,0,0,0,0,0,-1,1105,1366,0,0
-112,-342,0,0,0,0,0,0,0,0,0,-1,1112,1366,0,0
-105,-342,0,0,0,0,0,0,0,0,0,-1,1119,1366,0,0
-98,-342,0,0,0,0,0,0,0,0,0,-1,1126,1366,0,0
-91,-342,0,0,0,0,0,0,0,0,0,-1,1133,1366,0,0
-84,-342,0,0,0,0,0,0,0,0,0,-1,1140,1366,0,0
-77,-342,0,0,0,0,0,0,0,0,0,-1,1147,1366,0,0
-70,-342,0,0,0,0,0,0,0,0,0,-1,1154,1366,0,0
-63,-342,0,0,0,0,0,0,0,0,0,-1,1161,1366,0,0
-56,-342,0,0,0,0,0,0,0,0,0,-1,1168,1366,0,0
-49,-342,0,0,0,0,0,0,0,0,0,-1,1175,1366,0,0
-42,-342,0,0,0,0,0,0,0,0,0,-1,1182,1366,0,0
-35,-342,0,0,0,0,0,0,0,0,0,-1,1189,1366,0,0
-28,-342,0,0,0,0,0,0,0,0,0,-1,1196,1366,0,0
-21,-342,0,0,0,0,0,0,0,0,0,-1,1203,1366,0,0
-14,-342,0,0,0,0,0,0,0,0,0,-1,1210,1366,0,0
-7,-342,0,0,0,0,0,0,0,0,0,-1,1217,1366,0,0
0,-342,0,0,0,0,0,0,0,0,0,-1,1224,1366,0,0
7,-342,0,0,0,0,0,0,0,0,0,-1,1231,1366,0,0
14,-342,0,0,0,0,0,0,0,0,0,-1,1238,1366,0,0
21,-342,0,0,0,0,0,0,0,0,0,-1,1245,1366,0,0
28,-342,0,0,0,0,0,0,0,0,0,-1,1252,1366,0,0
35,-342,0,0,0,0,0,0,0,0,0,-1,1259,1366,0,0
42,-342,0,0,0,0,0,0,0,0,0,-1,1266,1366,0,0
49,-342,0,0,0,0,0,0,0,0,0,-1,1273,1366,0,0
56,-342,0,0,0,0,0,0,0,0,0,-1,1280,1366,0,0
63,-342,0,0,0,0,0,0,0,0,0,-1,1287,1366,0,0
70,-342,0,0,0,0,0,0,0,0,0,-1,1294,1366,0,0
77,-342,0,0,0,0,0,0,0,0,0,-1,1301,1366,0,0
84,-342,0,0,0,0,0,0,0,0,0,-1,1308,1366,0,0
91,-342,0,0,0,0,0,0,0,0,0,-1,1315,1366,0,0
98,-342,0,0,0,0,0,0,0,0,0,-1,1322,1366,0,0
105,-342,0,0,0,0,0,0,0,0,0,-1,1329,1366,0,0
112,-342,0,0,0,0,0,0,0,0,0,-1,1336,1366,0,0
119,-342,0,0,0,0,0,0,0,0,0,-1,1343,1366,0,0
126,-342,0,0,0,0,0,0,0,0,0,-1,1350,1366,0,0
133,-342,0,0,0,0,0,0,0,0,0,-1,1357,1366,0,0
140,-342,0,0,0,0,0,0,0,0,0,-1,1364,1366,0,0
147,-342,0,0,0,0,0,0,0,0,0,-1,1371,1366,0,0
154,-342,0,0,0,0,0,0,0,0,0,-1,1378,1366,0,0
161,-342,0,0,0,0,0,0,0,0,0,-1,1385,1366,0,0
168,-342,0,0,0,0,0,0,0,0,0,-1,1392,1366,0,0
175,-342,0,0,0,0,0,0,0,0,0,-1,1399,1366,0,0
182,-342,0,0,0,0,0,0,0,0,0,-1,1406,1366,0,0
189,-342,0,0,0,0,0,0,0,0,0,-1,1413,1366,0,0
196,-342,0,0,0,0,0,0,0,0,0,-1,1420,1366,0,0
203,-342,0,0,0,0,0,0,0,0,0,-1,1427,1366,0,0
210,-342,0,0,0,0,0,0,0,0,0,-1,1434,1366,0,0
217,-342,0,0,0,0,0,0,0,0,0,-1,1441,1366,0,0
224,-342,0,0,0,0,0,0,0,0,0,-1,1448,1366,0,0
231,-342,0,0,0,0,0,0,0,0,0,-1,1455,1366,0,0
238,-342,0,0,0,0,0,0,0,0,0,-1,1462,1366,0,0
245,-342,0,0,0,0,0,0,0,0,0,-1,1469,1366,0,0
252,-342,0,0,0,0,0,0,0,0,0,-1,1476,1366,0,0
259,-342,0,0,0,0,0,0,0,0,0,-1,1483,1366,0,0
266,-342,0,0,0,0,0,0,0,0,0,-1,1490,1366,0,0
273,-342,0,0,0,0,0,0,0,0,0,-1,1497,1366,0,0
280,-342,0,0,0,0,0,0,0,0,0,-1,1504,1366,0,0
287,-342,0,0,0,0,0,0,0,0,0,-1,1511,1366,0,0
294,-342,0,0,0,0,0,0,0,0,0,-1,1518,1366,0,0
301,-342,0,0,0,0,0,0,0,0,0,-1,1525,1366,0,0
308,-342,0,0,0,0,0,0,0,0,0,-1,1532,1366,0,0
315,-342,0,0,0,0,0,0,0,0,0,-1,1539,1366,0,0
322,-342,0,0,0,0,0,0,0,0,0,-1,1546,1366,0,0
329,-342,0,0,0,0,0,0,0,0,0,-1,1553,1366,0,0
336,-342,0,0,0,0,0,0,0,0,0,-1,1560,1366,0,0
343,-342,0,0,0,0,0,0,0,0,0,-1,1567,1366,0,0
350,-342,0,0,0,0,0,0,0,0,0,-1,1574,1366,0,0
357,-342,0,0,0,0,0,0,0,0,0,-1,1581,1366,0,0
364,-342,0,0,0,0,0,0,0,0,0,-1,1588,1366,0,0
371,-342,0,0,0,0,0,0,0,0,0,-1,1595,1366,0,0
378,-342,0,0,0,0,0,0,0,0,0,-1,1602,1366,0,0
385,-342,0,0,0,0,0,0,0,0,0,-1,1609,1366,0,0
392,-342,0,0,0,0,0,0,0,0,0,-1,1616,1366,0,0
399,-342,0,0,0,0,0,0,0,0,0,-1,1623,1366,0,0
406,-342,0,0,0,0,0,0,0,0,0,-1,1630,1366,0,0
413,-342,0,0,0,0,0,0,0,0,0,-1,1637,1366,0,0
420,-342,0,0,0,0,0,0,0,0,0,-1,1644,1366,0,0
427,-342,0,0,0,0,0,0,0,0,0,-1,1651,1366,0,0
434,-342,0,0,0,0,0,0,0,0,0,-1,1658,1366,0,0
441,-342,0,0,0,0,0,0,0,0,0,-1,1665,1366,0,0
448,-342,0,0,0,0,0,0,0,0,0,-1,1672,1366,0,0
455,-342,0,0,0,0,0,0,0,0,0,-1,1679,1366,0,0
462,-342,0,0,0,0,0,0,0,0,0,-1,1686,1366,0,0
469,-342,0,0,0,0,0,0,0,0,0,-1,1693,1366,0,0
476,-342,0,0,0,0,0,0,0,0,0,-1,1700,1366,0,0
483,-342,0,0,0,0,0,0,0,0,0,-1,1707,1366,0,0
490,-342,0,0,0,0,0,0,0,0,0,-1,1714,1366,0,0
497,-342,0,0,0,0,0,0,0,0,0,-1,1721,1366,0,0
504,-342,0,0,0,0,0,0,0,0,0,-1,1728,1366,0,0
511,-342,0,0,0,0,0,0,0,0,0,-1,1735,1366,0,0
518,-342,0,0,0,0,0,0,0,0,0,-1,1742,1366,0,0
525,-342,0,0,0,0,0,0,0,0,0,-1,1749,1366,0,0
532,-342,0,0,0,0,0,0,0,0,0,-1,1756,1366,0,0
539,-342,0,0,0,0,0,0,0,0,0,-1,1763,1366,0,0
546,-342,0,0,0,0,0,0,0,0,0,-1,1770,1366,0,0
553,-342,0,0,0,0,0,0,0,0,0,-1,1777,1366,0,0
560,-342,0,0,0,0,0,0,0,0,0,-1,1784,1366,0,0
567,-342,64.6937,3.24878,0,0,0,0,0,0,0,-1,1791,1366,64.6938,-3.24881
574,-342,65.4669,2.18384,0,0,0,0,0,0,0,-1,1798,1366,65.4669,-2.18381
581,-342,66.542,1.36292,0,0,0,0,0,0,0,-1,1805,1366,66.542,-1.36295
588,-342,43.9108,7.22559,0,0,0,0,0,0,0,-1,1812,1366,43.9107,-7.22554
595,-342,35.7993,0.709961,0,0,0,0,0,0,0,-1,1819,1366,35.7993,-0.709913
602,-342,36.3618,3.28723,0,0,0,0,0,0,0,-1,1826,1366,36.3619,-3.28719
609,-342,35.3777,4.14978,0,0,0,0,0,0,0,-1,1833,1366,35.3777,-4.14976
616,-342,34.199,5.8158,0,0,0,0,0,0,0,-1,1840,1366,34.199,-5.81579
623,-342,26.0299,6.86865,0,0,0,0,0,0,0,-1,1847,1366,26.0299,-6.86863
630,-342,17.3431,0.773071,0,0,0,0,0,0,0,-1,1854,1366,17.3432,-0.773095
637,-342,16.196,6.76172,0,0,0,0,0,0,0,-1,1861,1366,16.1961,-6.76174
644,-342,31.8916,14.0614,0,0,0,0,0,0,0,-1,1868,1366,31.8916,-14.0613
651,-342,49.3075,21.782,0,0,0,0,0,0,0,-1,1875,1366,49.3075,-21.782
658,-342,49.327,20.8613,-8.43062e-05,0.000891638,-0.000540983,0.00113221,-0.00032488,-1.15236,0.000883248,0.0228069,1882,1366,49.327,-20.8613
665,-342,49.3156,19.9293,0.000411454,0.000515838,-0.000473755,0.000940267,-1.29749e-05,-0.84026,0.000631214,0.018045,1889,1366,49.3155,-19.9294
672,-342,49.2633,19.0723,0.000970223,0.000429211,-0.000576952,0.00133694,6.2499e-05,-0.566187,0.000871205,0.0143824,1896,1366,49.2634,-19.0723
679,-342,49.1997,18.2128,0.00157233,0.000475265,-0.000736218,0.00194189,0.000105699,-0.46523,0.00126084,0.0144709,1903,1366,49.1998,-18.2127
686,-342,49.1924,17.3425,0.0022381,0.00064914,-0.000972116,0.00269909,0.000188149,-0.442807,0.00174007,0.0136756,1910,1366,49.1924,-17.3425
693,-342,49.0935,16.4509,0.00296017,0.000933962,-0.00126436,0.00356725,0.000326889,-0.447637,0.00227704,0.0132808,1917,1366,49.0935,-16.4509
700,-342,49.0371,15.5845,0.00371005,0.00133786,-0.00160036,0.00451593,0.000531976,-0.466495,0.0028499,0.0147252,1924,1366,49.0371,-15.5844
707,-342,48.9991,14.6783,0.00443076,0.00183412,-0.00193892,0.00546591,0.000798978,-0.49038,0.00340897,0.0153219,1931,1366,48.9991,-14.6783
714,-342,49.073,13.5659,0,0,0,0,0,0,0,-1,1938,1366,49.073,-13.5659
721,-342,22.4666,6.08679,0,0,0,0,0,0,0,-1,1945,1366,22.4666,-6.08678
728,-342,19.8912,5.26636,0,0,0,0,0,0,0,-1,1952,1366,19.8913,-5.26636
735,-342,19.481,4.41968,0,0,0,0,0,0,0,-1,1959,1366,19.4809,-4.41962
742,-342,19.309,2.66943,0,0,0,0,0,0,0,-1,1966,1366,19.3089,-2.66948
749,-342,21.0934,6.47729,0,0,0,0,0,0,0,-1,1973,1366,21.0934,-6.4773
756,-342,0,0,0,0,0,0,0,0,0,-1,1980,1366,0,0
763,-342,0,0,0,0,0,0,0,0,0,-1,1987,1366,0,0
770,-342,0,0,0,0,0,0,0,0,0,-1,1994,1366,0,0
777,-342,0,0,0,0,0,0,0,0,0,-1,2001,1366,0,0
784,-342,0,0,0,0,0,0,0,0,0,-1,2008,1366,0,0
791,-342,0,0,0,0,0,0,0,0,0,-1,2015,1366,0,0
798,-342,0,0,0,0,0,0,0,0,0,-1,2022,1366,0,0
805,-342,0,0,0,0,0,0,0,0,0,-1,2029,1366,0,0
812,-342,0,0,0,0,0,0,0,0,0,-1,2036,1366,0,0
-700,-349,0,0,0,0,0,0,0,0,0,-1,524,1373,0,0
-693,-349,0,0,0,0,0,0,0,0,0,-1,531,1373,0,0
-686,-349,0,0,0,0,0,0,0,0,0,-1,538,1373,0,0
-679,-349,0,0,0,0,0,0,0,0,0,-1,545,1373,0,0
-672,-349,0,0,0,0,0,0,0,0,0,-1,552,1373,0,0
-665,-349,0,0,0,0,0,0,0,0,0,-1,559,1373,0,0
-658,-349,0,0,0,0,0,0,0,0,0,-1,566,1373,0,0
-651,-349,0,0,0,0,0,0,0,0,0,-1,573,1373,0,0
-644,-349,0,0,0,0,0,0,0,0,0,-1,580,1373,0,0
-637,-349,0,0,0,0,0,0,0,0,0,-1,587,1373,0,0
-630,-349,-7.64117,-5.06177,0,0,0,0,0,0,0,-1,594,1373,-7.64118,5.0618
-623,-349,-8.63507,0.51123,0,0,0,0,0,0,0,-1,601,1373,-8.63505,-0.511275
-616,-349,-5.2066,-0.188232,0,0,0,0,0,0,0,-1,608,1373,-5.20659,0.188211
-609,-349,-7.12073,1.37048,0,0,0,0,0,0,0,-1,615,1373,-7.12072,-1.37044
-602,-349,-9.00623,3.39587,0,0,0,0,0,0,0,-1,622,1373,-9.0062,-3.39591
-595,-349,-9.50568,2.96912,0,0,0,0,0,0,0,-1,629,1373,-9.50569,-2.96906
-588,-349,-8.60046,3.56042,0,0,0,0,0,0,0,-1,636,1373,-8.60046,-3.56047
-581,-349,-30.5856,13.6941,0,0,0,0,0,0,0,-1,643,1373,-30.5856,-13.6941
-574,-349,-31.2939,14.8457,0,0,0,0,0,0,0,-1,650,1373,-31.294,-14.8457
-567,-349,-31.1418,15.8075,0.0055915,0.00247274,0.00242231,0.00691296,0.00115128,0.499411,0.00427685,0.0205064,657,1373,-31.1418,-15.8075
-560,-349,-31.1572,16.7264,0.00478808,0.00184843,0.00197575,0.00578077,0.000855741,0.465595,0.00360264,0.0239549,664,1373,-31.1572,-16.7264
-553,-349,-31.1229,17.5503,0.00438813,0.00136338,0.00179778,0.00522508,0.000526437,0.435703,0.00332184,0.0308286,671,1373,-31.1229,-17.5503
-546,-349,-31.1219,18.4407,0.00428503,0.000981362,0.00180111,0.00507707,0.000189318,0.414301,0.00332341,0.0314495,678,1373,-31.1219,-18.4407
-539,-349,-31.2548,19.403,0.00447502,0.000696753,0.00196767,0.00531362,-0.000141848,0.402879,0.00359063,0.0246572,685,1373,-31.2547,-19.403
-532,-349,-31.3679,20.3833,0.00496809,0.000518142,0.00229235,0.0059377,-0.000451466,0.400155,0.00411721,0.0189306,692,1373,-31.3679,-20.3833
-525,-349,-31.369,21.2865,0.00575674,0.000464711,0.00277386,0.00694422,-0.000722769,0.404491,0.00488824,0.0156133,699,1373,-31.369,-21.2866
-518,-349,-31.3779,22.2408,0.00688591,0.000470729,0.0034351,0.00837816,-0.00102152,0.409817,0.00595523,0.0314465,706,1373,-31.3778,-22.2408
-511,-349,-31.3459,23.2208,0,0,0,0,0,0,0,-1,713,1373,-31.3459,-23.2209
-504,-349,-9.60516,7.88831,0,0,0,0,0,0,0,-1,720,1373,-9.60519,-7.88825
-497,-349,-7.9339,5.58789,0,0,0,0,0,0,0,-1,727,1373,-7.93388,-5.58785
-490,-349,-8.73969,-0.503784,0,0,0,0,0,0,0,-1,734,1373,-8.73966,0.503752
-483,-349,-5.66974,3.7395,0,0,0,0,0,0,0,-1,741,1373,-5.66975,-3.73949
-476,-349,-10.8496,1.15759,0,0,0,0,0,0,0,-1,748,1373,-10.8496,-1.15756
-469,-349,-12.3314,-1.74878,0,0,0,0,0,0,0,-1,755,1373,-12.3314,1.74882
-462,-349,-12.6559,-0.995361,0,0,0,0,0,0,0,-1,762,1373,-12.656,0.995351
-455,-349,-13.2897,-0.234253,0,0,0,0,0,0,0,-1,769,1373,-13.2897,0.234261
-448,-349,-14.045,0.712891,0,0,0,0,0,0,0,-1,776,1373,-14.045,-0.712838
-441,-349,0,0,0,0,0,0,0,0,0,-1,783,1373,0,0
-434,-349,0,0,0,0,0,0,0,0,0,-1,790,1373,0,0
-427,-349,0,0,0,0,0,0,0,0,0,-1,797,1373,0,0
-420,-349,0,0,0,0,0,0,0,0,0,-1,804,1373,0,0
-413,-349,0,0,0,0,0,0,0,0,0,-1,811,1373,0,0
-406,-349,0,0,0,0,0,0,0,0,0,-1,818,1373,0,0
-399,-349,0,0,0,0,0,0,0,0,0,-1,825,1373,0,0
-392,-349,0,0,0,0,0,0,0,0,0,-1,832,1373,0,0
-385,-349,0,0,0,0,0,0,0,0,0,-1,839,1373,0,0
-378,-349,0,0,0,0,0,0,0,0,0,-1,846,1373,0,0
-371,-349,0,0,0,0,0,0,0,0,0,-1,853,1373,0,0
-364,-349,0,0,0,0,0,0,0,0,0,-1,860,1373,0,0
-357,-349,0,0,0,0,0,0,0,0,0,-1,867,1373,0,0
-350,-349,0,0,0,0,0,0,0,0,0,-1,874,1373,0,0
-343,-349,0,0,0,0,0,0,0,0,0,-1,881,1373,0,0
-336,-349,0,0,0,0,0,0,0,0,0,-1,888,1373,0,0
-329,-349,0,0,0,0,0,0,0,0,0,-1,895,1373,0,0
-322,-349,0,0,0,0,0,0,0,0,0,-1,902,1373,0,0
-315,-349,0,0,0,0,0,0,0,0,0,-1,909,1373,0,0
-308,-349,0,0,0,0,0,0,0,0,0,-1,916,1373,0,0
-301,-349,0,0,0,0,0,0,0,0,0,-1,923,1373,0,0
-294,-349,0,0,0,0,0,0,0,0,0,-1,930,1373,0,0
-287,-349,0,0,0,0,0,0,0,0,0,-1,937,1373,0,0
-280,-349,0,0,0,0,0,0,0,0,0,-1,944,1373,0,0
-273,-349,0,0,0,0,0,0,0,0,0,-1,951,1373,0,0
-266,-349,0,0,0,0,0,0,0,0,0,-1,958,1373,0,0
-259,-349,0,0,0,0,0,0,0,0,0,-1,965,1373,0,0
-252,-349,0,0,0,0,0,0,0,0,0,-1,972,1373,0,0
-245,-349,0,0,0,0,0,0,0,0,0,-1,979,1373,0,0
-238,-349,0,0,0,0,0,0,0,0,0,-1,986,1373,0,0
-231,-349,0,0,0,0,0,0,0,0,0,-1,993,1373,0,0
-224,-349,0,0,0,0,0,0,0,0,0,-1,1000,1373,0,0
-217,-349,0,0,0,0,0,0,0,0,0,-1,1007,1373,0,0
-210,-349,0,0,0,0,0,0,0,0,0,-1,1014,1373,0,0
-203,-349,0,0,0,0,0,0,0,0,0,-1,1021,1373,0,0
-196,-349,0,0,0,0,0,0,0,0,0,-1,1028,1373,0,0
-189,-349,0,0,0,0,0,0,0,0,0,-1,1035,1373,0,0
-182,-349,0,0,0,0,0,0,0,0,0,-1,1042,1373,0,0
-175,-349,0,0,0,0,0,0,0,0,0,-1,1049,1373,0,0
-168,-349,0,0,0,0,0,0,0,0,0,-1,1056,1373,0,0
-161,-349,0,0,0,0,0,0,0,0,0,-1,1063,1373,0,0
-154,-349,0,0,0,0,0,0,0,0,0,-1,1070,1373,0,0
-147,-349,0,0,0,0,0,0,0,0,0,-1,1077,1373,0,0
-140,-349,0,0,0,0,0,0,0,0,0,-1,1084,1373,0,0
-133,-349,0,0,0,0,0,0,0,0,0,-1,1091,1373,0,0
-126,-349,0,0,0,0,0,0,0,0,0,-1,1098,1373,0,0
-119,-349,0,0,0,0,0,0,0,0,0,-1,1105,1373,0,0
-112,-349,0,0,0,0,0,0,0,0,0,-1,1112,1373,0,0
-105,-349,0,0,0,0,0,0,0,0,0,-1,1119,1373,0,0
-98,-349,0,0,0,0,0,0,0,0,0,-1,1126,1373,0,0
-91,-349,0,0,0,0,0,0,0,0,0,-1,1133,1373,0,0
-84,-349,0,0,0,0,0,0,0,0,0,-1,1140,1373,0,0
-77,-349,0,0,0,0,0,0,0,0,0,-1,1147,1373,0,0
-70,-349,0,0,0,0,0,0,0,0,0,-1,1154,1373,0,0
-63,-349,0,0,0,0,0,0,0,0,0,-1,1161,1373,0,0
-56,-349,0,0,0,0,0,0,0,0,0,-1,1168,1373,0,0
-49,-349,0,0,0,0,0,0,0,0,0,-1,1175,1373,0,0
-42,-349,0,0,0,0,0,0,0,0,0,-1,1182,1373,0,0
-35,-349,0,0,0,0,0,0,0,0,0,-1,1189,1373,0,0
-28,-349,0,0,0,0,0,0,0,0,0,-1,1196,1373,0,0
-21,-349,0,0,0,0,0,0,0,0,0,-1,1203,1373,0,0
-14,-349,0,0,0,0,0,0,0,0,0,-1,1210,1373,0,0
-7,-349,0,0,0,0,0,0,0,0,0,-1,1217,1373,0,0
0,-349,0,0,0,0,0,0,0,0,0,-1,1224,1373,0,0
7,-349,0,0,0,0,0,0,0,0,0,-1,1231,1373,0,0
14,-349,0,0,0,0,0,0,0,0,0,-1,1238,1373,0,0
21,-349,0,0,0,0,0,0,0,0,0,-1,1245,1373,0,0
28,-349,0,0,0,0,0,0,0,0,0,-1,1252,1373,0,0
35,-349,0,0,0,0,0,0,0,0,0,-1,1259,1373,0,0
42,-349,0,0,0,0,0,0,0,0,0,-1,1266,1373,0,0
49,-349,0,0,0,0,0,0,0,0,0,-1,1273,1373,0,0
56,-349,0,0,0,0,0,0,0,0,0,-1,1280,1373,0,0
63,-349,0,0,0,0,0,0,0,0,0,-1,1287,1373,0,0
70,-349,0,0,0,0,0,0,0,0,0,-1,1294,1373,0,0
77,-349,0,0,0,0,0,0,0,0,0,-1,1301,1373,0,0
84,-349,0,0,0,0,0,0,0,0,0,-1,1308,1373,0,0
91,-349,0,0,0,0,0,0,0,0,0,-1,1315,1373,0,0
98,-349,0,0,0,0,0,0,0,0,0,-1,1322,1373,0,0
105,-349,0,0,0,0,0,0,0,0,0,-1,1329,1373,0,0
112,-349,0,0,0,0,0,0,0,0,0,-1,1336,1373,0,0
119,-349,0,0,0,0,0,0,0,0,0,-1,1343,1373,0,0
126,-349,0,0,0,0,0,0,0,0,0,-1,1350,1373,0,0
133,-349,0,0,0,0,0,0,0,0,0,-1,1357,1373,0,0
140,-349,0,0,0,0,0,0,0,0,0,-1,1364,1373,0,0
147,-349,0,0,0,0,0,0,0,0,0,-1,1371,1373,0,0
154,-349,0,0,0,0,0,0,0,0,0,-1,1378,1373,0,0
161,-349,0,0,0,0,0,0,0,0,0,-1,1385,1373,0,0
168,-349,0,0,0,0,0,0,0,0,0,-1,1392,1373,0,0
175,-349,0,0,0,0,0,0,0,0,0,-1,1399,1373,0,0
182,-349,0,0,0,0,0,0,0,0,0,-1,1406,1373,0,0
189,-349,0,0,0,0,0,0,0,0,0,-1,1413,1373,0,0
196,-349,0,0,0,0,0,0,0,0,0,-1,1420,1373,0,0
203,-349,0,0,0,0,0,0,0,0,0,-1,1427,1373,0,0
210,-349,0,0,0,0,0,0,0,0,0,-1,1434,1373,0,0
217,-349,0,0,0,0,0,0,0,0,0,-1,1441,1373,0,0
224,-349,0,0,0,0,0,0,0,0,0,-1,1448,1373,0,0
231,-349,0,0,0,0,0,0,0,0,0,-1,1455,1373,0,0
238,-349,0,0,0,0,0,0,0,0,0,-1,1462,1373,0,0
245,-349,0,0,0,0,0,0,0,0,0,-1,1469,1373,0,0
252,-349,0,0,0,0,0,0,0,0,0,-1,1476,1373,0,0
259,-349,0,0,0,0,0,0,0,0,0,-1,1483,1373,0,0
266,-349,0,0,0,0,0,0,0,0,0,-1,1490,1373,0,0
273,-349,0,0,0,0,0,0,0,0,0,-1,1497,1373,0,0
280,-349,0,0,0,0,0,0,0,0,0,-1,1504,1373,0,0
287,-349,0,0,0,0,0,0,0,0,0,-1,1511,1373,0,0
294,-349,0,0,0,0,0,0,0,0,0,-1,1518,1373,0,0
301,-349,0,0,0,0,0,0,0,0,0,-1,1525,1373,0,0
308,-349,0,0,0,0,0,0,0,0,0,-1,1532,1373,0,0
315,-349,0,0,0,0,0,0,0,0,0,-1,1539,1373,0,0
322,-349,0,0,0,0,0,0,0,0,0,-1,1546,1373,0,0
329,-349,0,0,0,0,0,0,0,0,0,-1,1553,1373,0,0
336,-349,0,0,0,0,0,0,0,0,0,-1,1560,1373,0,0
343,-349,0,0,0,0,0,0,0,0,0,-1,1567,1373,0,0
350,-349,0,0,0,0,0,0,0,0,0,-1,1574,1373,0,0
357,-349,0,0,0,0,0,0,0,0,0,-1,1581,1373,0,0
364,-349,0,0,0,0,0,0,0,0,0,-1,1588,1373,0,0
371,-349,0,0,0,0,0,0,0,0,0,-1,1595,1373,0,0
378,-349,0,0,0,0,0,0,0,0,0,-1,1602,1373,0,0
385,-349,0,0,0,0,0,0,0,0,0,-1,1609,1373,0,0
392,-349,0,0,0,0,0,0,0,0,0,-1,1616,1373,0,0
399,-349,0,0,0,0,0,0,0,0,0,-1,1623,1373,0,0
406,-349,0,0,0,0,0,0,0,0,0,-1,1630,1373,0,0
413,-349,0,0,0,0,0,0,0,0,0,-1,1637,1373,0,0
420,-349,0,0,0,0,0,0,0,0,0,-1,1644,1373,0,0
427,-349,0,0,0,0,0,0,0,0,0,-1,1651,1373,0,0
434,-349,0,0,0,0,0,0,0,0,0,-1,1658,1373,0,0
441,-349,0,0,0,0,0,0,0,0,0,-1,1665,1373,0,0
448,-349,0,0,0,0,0,0,0,0,0,-1,1672,1373,0,0
455,-349,0,0,0,0,0,0,0,0,0,-1,1679,1373,0,0
462,-349,0,0,0,0,0,0,0,0,0,-1,1686,1373,0,0
469,-349,0,0,0,0,0,0,0,0,0,-1,1693,1373,0,0
476,-349,0,0,0,0,0,0,0,0,0,-1,1700,1373,0,0
483,-349,0,0,0,0,0,0,0,0,0,-1,1707,1373,0,0
490,-349,0,0,0,0,0,0,0,0,0,-1,1714,1373,0,0
497,-349,0,0,0,0,0,0,0,0,0,-1,1721,1373,0,0
504,-349,0,0,0,0,0,0,0,0,0,-1,1728,1373,0,0
511,-349,0,0,0,0,0,0,0,0,0,-1,1735,1373,0,0
518,-349,0,0,0,0,0,0,0,0,0,-1,1742,1373,0,0
525,-349,0,0,0,0,0,0,0,0,0,-1,1749,1373,0,0
532,-349,0,0,0,0,0,0,0,0,0,-1,1756,1373,0,0
539,-349,0,0,0,0,0,0,0,0,0,-1,1763,1373,0,0
546,-349,0,0,0,0,0,0,0,0,0,-1,1770,1373,0,0
553,-349,0,0,0,0,0,0,0,0,0,-1,1777,1373,0,0
560,-349,63.5519,3.94397,0,0,0,0,0,0,0,-1,1784,1373,63.5519,-3.94394
567,-349,64.7863,2.54688,0,0,0,0,0,0,0,-1,1791,1373,64.7863,-2.5469
574,-349,65.8214,1.63818,0,0,0,0,0,0,0,-1,1798,1373,65.8214,-1.63813
581,-349,42.8947,6.78381,0,0,0,0,0,0,0,-1,1805,1373,42.8946,-6.78376
588,-349,44.8121,5.06213,0,0,0,0,0,0,0,-1,1812,1373,44.8121,-5.06215
595,-349,44.4338,6.14099,0,0,0,0,0,0,0,-1,1819,1373,44.4338,-6.14095
602,-349,35.6641,3.26465,0,0,0,0,0,0,0,-1,1826,1373,35.6641,-3.26468
609,-349,34.7175,4.401,0,0,0,0,0,0,0,-1,1833,1373,34.7175,-4.40096
616,-349,27.1451,6.68274,0,0,0,0,0,0,0,-1,1840,1373,27.1451,-6.6828
623,-349,18.8478,2.75769,0,0,0,0,0,0,0,-1,1847,1373,18.8478,-2.75774
630,-349,15.4948,6.47644,0,0,0,0,0,0,0,-1,1854,1373,15.4947,-6.4765
637,-349,16.5161,6.92639,0,0,0,0,0,0,0,-1,1861,1373,16.5161,-6.92636
644,-349,44.2694,19.8312,0,0,0,0,0,0,0,-1,1868,1373,44.2695,-19.8311
651,-349,48.681,21.7954,0,0,0,0,0,0,0,-1,1875,1373,48.681,-21.7954
658,-349,48.4393,20.8815,1.66279e-05,0.000785921,-0.000408697,0.00096251,-0.000159962,-1.16294,0.000701103,0.0286952,1882,1373,48.4394,-20.8815
665,-349,48.411,20.0027,0.000577898,0.000494004,-0.000459158,0.000997022,7.48807e-05,-0.739847,0.00064118,0.0232089,1889,1373,48.411,-20.0026
672,-349,48.3701,19.1215,0.0012017,0.000436545,-0.000646255,0.00157013,6.81166e-05,-0.518142,0.0010248,0.0158012,1896,1373,48.3701,-19.1214
679,-349,48.3132,18.2798,0.00189162,0.000493269,-0.000911512,0.00234123,4.36625e-05,-0.458236,0.00154647,0.0169572,1903,1373,48.3133,-18.2798
686,-349,48.3595,17.3989,0.00266643,0.000693975,-0.00127035,0.00328844,7.19638e-05,-0.455324,0.0021687,0.0191179,1910,1373,48.3595,-17.3989
693,-349,48.2373,16.5001,0.0035148,0.00102266,-0.00170069,0.00437706,0.0001604,-0.469236,0.00286607,0.0210669,1917,1373,48.2373,-16.5002
700,-349,48.1595,15.6387,0.00441725,0.00151203,-0.00221338,0.00561211,0.000317167,-0.495007,0.0036403,0.018615,1924,1373,48.1595,-15.6387
707,-349,48.204,14.6992,0.0053069,0.00211542,-0.00274576,0.00688694,0.000535382,-0.52217,0.00442364,0.0422419,1931,1373,48.2039,-14.6992
714,-349,48.3274,13.6476,0,0,0,0,0,0,0,-1,1938,1373,48.3274,-13.6476
721,-349,19.6688,5.93604,0,0,0,0,0,0,0,-1,1945,1373,19.6688,-5.93606
728,-349,18.6333,3.73218,0,0,0,0,0,0,0,-1,1952,1373,18.6333,-3.73214
735,-349,18.1918,3.39954,0,0,0,0,0,0,0,-1,1959,1373,18.1918,-3.3995
742,-349,20.7345,2.07483,0,0,0,0,0,0,0,-1,1966,1373,20.7345,-2.07485
749,-349,21.9037,1.45789,0,0,0,0,0,0,0,-1,1973,1373,21.9037,-1.45788
756,-349,0,0,0,0,0,0,0,0,0,-1,1980,1373,0,0
763,-349,0,0,0,0,0,0,0,0,0,-1,1987,1373,0,0
770,-349,0,0,0,0,0,0,0,0,0,-1,1994,1373,0,0
777,-349,0,0,0,0,0,0,0,0,0,-1,2001,1373,0,0
784,-349,0,0,0,0,0,0,0,0,0,-1,2008,1373,0,0
791,-349,0,0,0,0,0,0,0,0,0,-1,2015,1373,0,0
798,-349,0,0,0,0,0,0,0,0,0,-1,2022,1373,0,0
805,-349,0,0,0,0,0,0,0,0,0,-1,2029,1373,0,0
812,-349,0,0,0,0,0,0,0,0,0,-1,2036,1373,0,0
-700,-356,0,0,0,0,0,0,0,0,0,-1,524,1380,0,0
-693,-356,0,0,0,0,0,0,0,0,0,-1,531,1380,0,0
-686,-356,0,0,0,0,0,0,0,0,0,-1,538,1380,0,0
-679,-356,0,0,0,0,0,0,0,0,0,-1,545,1380,0,0
-672,-356,0,0,0,0,0,0,0,0,0,-1,552,1380,0,0
-665,-356,0,0,0,0,0,0,0,0,0,-1,559,1380,0,0
-658,-356,0,0,0,0,0,0,0,0,0,-1,566,1380,0,0
-651,-356,0,0,0,0,0,0,0,0,0,-1,573,1380,0,0
-644,-356,0,0,0,0,0,0,0,0,0,-1,580,1380,0,0
-637,-356,0,0,0,0,0,0,0,0,0,-1,587,1380,0,0
-630,-356,-8.23126,-5.01917,0,0,0,0,0,0,0,-1,594,1380,-8.23124,5.0192
-623,-356,-0.263855,-0.675781,0,0,0,0,0,0,0,-1,601,1380,-0.263835,0.675841
-616,-356,-8.26532,-3.43945,0,0,0,0,0,0,0,-1,608,1380,-8.2653,3.43948
-609,-356,-4.88483,0.734497,0,0,0,0,0,0,0,-1,615,1380,-4.88485,-0.734532
-602,-356,-9.06635,2.4021,0,0,0,0,0,0,0,-1,622,1380,-9.06634,-2.40206
-595,-356,-8.45703,3.61853,0,0,0,0,0,0,0,-1,629,1380,-8.45706,-3.61848
-588,-356,-9.31738,4.14258,0,0,0,0,0,0,0,-1,636,1380,-9.31736,-4.14255
-581,-356,-16.5185,7.32312,0,0,0,0,0,0,0,-1,643,1380,-16.5185,-7.32306
-574,-356,-30.348,14.819,0,0,0,0,0,0,0,-1,650,1380,-30.3479,-14.819
-567,-356,-30.2999,15.785,0.00642069,0.00292369,0.00299892,0.00814361,0.00120077,0.521469,0.00507638,0.0294332,657,1380,-30.2999,-15.785
-560,-356,-30.2314,16.8,0.00525608,0.00214288,0.00233521,0.00650594,0.00089302,0.491428,0.00407239,0.0198019,664,1380,-30.2314,-16.8001
-553,-356,-30.222,17.683,0.00457563,0.00154909,0.001992,0.00556398,0.000560746,0.460566,0.00353725,0.0240399,671,1380,-30.222,-17.683
-546,-356,-30.2921,18.5405,0.00418953,0.00107897,0.00182897,0.00503509,0.000233414,0.433046,0.00328169,0.023821,678,1380,-30.2921,-18.5405
-539,-356,-30.395,19.4639,0.0041043,0.000721691,0.00183051,0.00490524,-7.92451e-05,0.412451,0.00329689,0.0155606,685,1380,-30.395,-19.4639
-532,-356,-30.48,20.423,0.00430945,0.000482501,0.00197748,0.00514766,-0.000355715,0.400923,0.00355628,0.0156802,692,1380,-30.48,-20.423
-525,-356,-30.4985,21.3218,0.00479826,0.000361923,0.00227257,0.00575576,-0.000595577,0.398757,0.00405032,0.01379,699,1380,-30.4985,-21.3217
-518,-356,-30.5234,22.2307,0.00558308,0.000327338,0.00271779,0.00673569,-0.000825277,0.401109,0.00478931,0.0158834,706,1380,-30.5235,-22.2308
-511,-356,-30.3849,23.286,0,0,0,0,0,0,0,-1,713,1380,-30.385,-23.286
-504,-356,-14.3925,12.3971,0,0,0,0,0,0,0,-1,720,1380,-14.3925,-12.3971
-497,-356,-5.68604,4.96387,0,0,0,0,0,0,0,-1,727,1380,-5.68605,-4.96385
-490,-356,-7.95288,5.5625,0,0,0,0,0,0,0,-1,734,1380,-7.95285,-5.56246
-483,-356,-7.2627,4.07446,0,0,0,0,0,0,0,-1,741,1380,-7.2627,-4.07441
-476,-356,-5.1936,4.16016,0,0,0,0,0,0,0,-1,748,1380,-5.1936,-4.16012
-469,-356,-10.0883,0.536011,0,0,0,0,0,0,0,-1,755,1380,-10.0883,-0.535989
-462,-356,-12.3481,-0.215698,0,0,0,0,0,0,0,-1,762,1380,-12.3481,0.215641
-455,-356,-13.1367,-0.264648,0,0,0,0,0,0,0,-1,769,1380,-13.1367,0.264647
-448,-356,-13.9116,-0.310181,0,0,0,0,0,0,0,-1,776,1380,-13.9115,0.310207
-441,-356,-13.1602,3.05603,0,0,0,0,0,0,0,-1,783,1380,-13.1602,-3.05609
-434,-356,0,0,0,0,0,0,0,0,0,-1,790,1380,0,0
-427,-356,0,0,0,0,0,0,0,0,0,-1,797,1380,0,0
-420,-356,0,0,0,0,0,0,0,0,0,-1,804,1380,0,0
-413,-356,0,0,0,0,0,0,0,0,0,-1,811,1380,0,0
-406,-356,0,0,0,0,0,0,0,0,0,-1,818,1380,0,0
-399,-356,0,0,0,0,0,0,0,0,0,-1,825,1380,0,0
-392,-356,0,0,0,0,0,0,0,0,0,-1,832,1380,0,0
-385,-356,0,0,0,0,0,0,0,0,0,-1,839,1380,0,0
-378,-356,0,0,0,0,0,0,0,0,0,-1,846,1380,0,0
-371,-356,0,0,0,0,0,0,0,0,0,-1,853,1380,0,0
-364,-356,0,0,0,0,0,0,0,0,0,-1,860,1380,0,0
-357,-356,0,0,0,0,0,0,0,0,0,-1,867,1380,0,0
-350,-356,0,0,0,0,0,0,0,0,0,-1,874,1380,0,0
-343,-356,0,0,0,0,0,0,0,0,0,-1,881,1380,0,0
-336,-356,0,0,0,0,0,0,0,0,0,-1,888,1380,0,0
-329,-356,0,0,0,0,0,0,0,0,0,-1,895,1380,0,0
-322,-356,0,0,0,0,0,0,0,0,0,-1,902,1380,0,0
-315,-356,0,0,0,0,0,0,0,0,0,-1,909,1380,0,0
-308,-356,0,0,0,0,0,0,0,0,0,-1,916,1380,0,0
-301,-356,0,0,0,0,0,0,0,0,0,-1,923,1380,0,0
-294,-356,0,0,0,0,0,0,0,0,0,-1,930,1380,0,0
-287,-356,0,0,0,0,0,0,0,0,0,-1,937,1380,0,0
-280,-356,0,0,0,0,0,0,0,0,0,-1,944,1380,0,0
-273,-356,0,0,0,0,0,0,0,0,0,-1,951,1380,0,0
-266,-356,0,0,0,0,0,0,0,0,0,-1,958,1380,0,0
-259,-356,0,0,0,0,0,0,0,0,0,-1,965,1380,0,0
-252,-356,0,0,0,0,0,0,0,0,0,-1,972,1380,0,0
-245,-356,0,0,0,0,0,0,0,0,0,-1,979,1380,0,0
-238,-356,0,0,0,0,0,0,0,0,0,-1,986,1380,0,0
-231,-356,0,0,0,0,0,0,0,0,0,-1,993,1380,0,0
-224,-356,0,0,0,0,0,0,0,0,0,-1,1000,1380,0,0
-217,-356,0,0,0,0,0,0,0,0,0,-1,1007,1380,0,0
-210,-356,0,0,0,0,0,0,0,0,0,-1,1014,1380,0,0
-203,-356,0,0,0,0,0,0,0,0,0,-1,1021,1380,0,0
-196,-356,0,0,0,0,0,0,0,0,0,-1,1028,1380,0,0
-189,-356,0,0,0,0,0,0,0,0,0,-1,1035,1380,0,0
-182,-356,0,0,0,0,0,0,0,0,0,-1,1042,1380,0,0
-175,-356,0,0,0,0,0,0,0,0,0,-1,1049,1380,0,0
-168,-356,0,0,0,0,0,0,0,0,0,-1,1056,1380,0,0
-161,-356,0,0,0,0,0,0,0,0,0,-1,1063,1380,0,0
-154,-356,0,0,0,0,0,0,0,0,0,-1,1070,1380,0,0
-147,-356,0,0,0,0,0,0,0,0,0,-1,1077,1380,0,0
-140,-356,0,0,0,0,0,0,0,0,0,-1,1084,1380,0,0
-133,-356,0,0,0,0,0,0,0,0,0,-1,1091,1380,0,0
-126,-356,0,0,0,0,0,0,0,0,0,-1,1098,1380,0,0
-119,-356,0,0,0,0,0,0,0,0,0,-1,1105,1380,0,0
-112,-356,0,0,0,0,0,0,0,0,0,-1,1112,1380,0,0
-105,-356,0,0,0,0,0,0,0,0,0,-1,1119,1380,0,0
-98,-356,0,0,0,0,0,0,0,0,0,-1,1126,1380,0,0
-91,-356,0,0,0,0,0,0,0,0,0,-1,1133,1380,0,0
-84,-356,0,0,0,0,0,0,0,0,0,-1,1140,1380,0,0
-77,-356,0,0,0,0,0,0,0,0,0,-1,1147,1380,0,0
-70,-356,0,0,0,0,0,0,0,0,0,-1,1154,1380,0,0
-63,-356,0,0,0,0,0,0,0,0,0,-1,1161,1380,0,0
-56,-356,0,0,0,0,0,0,0,0,0,-1,1168,1380,0,0
-49,-356,0,0,0,0,0,0,0,0,0,-1,1175,1380,0,0
-42,-356,0,0,0,0,0,0,0,0,0,-1,1182,1380,0,0
-35,-356,0,0,0,0,0,0,0,0,0,-1,1189,1380,0,0
-28,-356,0,0,0,0,0,0,0,0,0,-1,1196,1380,0,0
-21,-356,0,0,0,0,0,0,0,0,0,-1,1203,1380,0,0
-14,-356,0,0,0,0,0,0,0,0,0,-1,1210,1380,0,0
-7,-356,0,0,0,0,0,0,0,0,0,-1,1217,1380,0,0
0,-356,0,0,0,0,0,0,0,0,0,-1,1224,1380,0,0
7,-356,0,0,0,0,0,0,0,0,0,-1,1231,1380,0,0
14,-356,0,0,0,0,0,0,0,0,0,-1,1238,1380,0,0
21,-356,0,0,0,0,0,0,0,0,0,-1,1245,1380,0,0
28,-356,0,0,0,0,0,0,0,0,0,-1,1252,1380,0,0
35,-356,0,0,0,0,0,0,0,0,0,-1,1259,1380,0,0
42,-356,0,0,0,0,0,0,0,0,0,-1,1266,1380,0,0
49,-356,0,0,0,0,0,0,0,0,0,-1,1273,1380,0,0
56,-356,0,0,0,0,0,0,0,0,0,-1,1280,1380,0,0
63,-356,0,0,0,0,0,0,0,0,0,-1,1287,1380,0,0
70,-356,0,0,0,0,0,0,0,0,0,-1,1294,1380,0,0
77,-356,0,0,0,0,0,0,0,0,0,-1,1301,1380,0,0
84,-356,0,0,0,0,0,0,0,0,0,-1,1308,1380,0,0
91,-356,0,0,0,0,0,0,0,0,0,-1,1315,1380,0,0
98,-356,0,0,0,0,0,0,0,0,0,-1,1322,1380,0,0
105,-356,0,0,0,0,0,0,0,0,0,-1,1329,1380,0,0
112,-356,0,0,0,0,0,0,0,0,0,-1,1336,1380,0,0
119,-356,0,0,0,0,0,0,0,0,0,-1,1343,1380,0,0
126,-356,0,0,0,0,0,0,0,0,0,-1,1350,1380,0,0
133,-356,0,0,0,0,0,0,0,0,0,-1,1357,1380,0,0
140,-356,0,0,0,0,0,0,0,0,0,-1,1364,1380,0,0
147,-356,0,0,0,0,0,0,0,0,0,-1,1371,1380,0,0
154,-356,0,0,0,0,0,0,0,0,0,-1,1378,1380,0,0
161,-356,0,0,0,0,0,0,0,0,0,-1,1385,1380,0,0
168,-356,0,0,0,0,0,0,0,0,0,-1,1392,1380,0,0
175,-356,0,0,0,0,0,0,0,0,0,-1,1399,1380,0,0
182,-356,0,0,0,0,0,0,0,0,0,-1,1406,1380,0,0
189,-356,0,0,0,0,0,0,0,0,0,-1,1413,1380,0,0
196,-356,0,0,0,0,0,0,0,0,0,-1,1420,1380,0,0
203,-356,0,0,0,0,0,0,0,0,0,-1,1427,1380,0,0
210,-356,0,0,0,0,0,0,0,0,0,-1,1434,1380,0,0
217,-356,0,0,0,0,0,0,0,0,0,-1,1441,1380,0,0
224,-356,0,0,0,0,0,0,0,0,0,-1,1448,1380,0,0
231,-356,0,0,0,0,0,0,0,0,0,-1,1455,1380,0,0
238,-356,0,0,0,0,0,0,0,0,0,-1,1462,1380,0,0
245,-356,0,0,0,0,0,0,0,0,0,-1,1469,1380,0,0
252,-356,0,0,0,0,0,0,0,0,0,-1,1476,1380,0,0
259,-356,0,0,0,0,0,0,0,0,0,-1,1483,1380,0,0
266,-356,0,0,0,0,0,0,0,0,0,-1,1490,1380,0,0
273,-356,0,0,0,0,0,0,0,0,0,-1,1497,1380,0,0
280,-356,0,0,0,0,0,0,0,0,0,-1,1504,1380,0,0
287,-356,0,0,0,0,0,0,0,0,0,-1,1511,1380,0,0
294,-356,0,0,0,0,0,0,0,0,0,-1,1518,1380,0,0
301,-356,0,0,0,0,0,0,0,0,0,-1,1525,1380,0,0
308,-356,0,0,0,0,0,0,0,0,0,-1,1532,1380,0,0
315,-356,0,0,0,0,0,0,0,0,0,-1,1539,1380,0,0
322,-356,0,0,0,0,0,0,0,0,0,-1,1546,1380,0,0
329,-356,0,0,0,0,0,0,0,0,0,-1,1553,1380,0,0
336,-356,0,0,0,0,0,0,0,0,0,-1,1560,1380,0,0
343,-356,0,0,0,0,0,0,0,0,0,-1,1567,1380,0,0
350,-356,0,0,0,0,0,0,0,0,0,-1,1574,1380,0,0
357,-356,0,0,0,0,0,0,0,0,0,-1,1581,1380,0,0
364,-356,0,0,0,0,0,0,0,0,0,-1,1588,1380,0,0
371,-356,0,0,0,0,0,0,0,0,0,-1,1595,1380,0,0
378,-356,0,0,0,0,0,0,0,0,0,-1,1602,1380,0,0
385,-356,0,0,0,0,0,0,0,0,0,-1,1609,1380,0,0
392,-356,0,0,0,0,0,0,0,0,0,-1,1616,1380,0,0
399,-356,0,0,0,0,0,0,0,0,0,-1,1623,1380,0,0
406,-356,0,0,0,0,0,0,0,0,0,-1,1630,1380,0,0
413,-356,0,0,0,0,0,0,0,0,0,-1,1637,1380,0,0
420,-356,0,0,0,0,0,0,0,0,0,-1,1644,1380,0,0
427,-356,0,0,0,0,0,0,0,0,0,-1,1651,1380,0,0
434,-356,0,0,0,0,0,0,0,0,0,-1,1658,1380,0,0
441,-356,0,0,0,0,0,0,0,0,0,-1,1665,1380,0,0
448,-356,0,0,0,0,0,0,0,0,0,-1,1672,1380,0,0
455,-356,0,0,0,0,0,0,0,0,0,-1,1679,1380,0,0
462,-356,0,0,0,0,0,0,0,0,0,-1,1686,1380,0,0
469,-356,0,0,0,0,0,0,0,0,0,-1,1693,1380,0,0
476,-356,0,0,0,0,0,0,0,0,0,-1,1700,1380,0,0
483,-356,0,0,0,0,0,0,0,0,0,-1,1707,1380,0,0
490,-356,0,0,0,0,0,0,0,0,0,-1,1714,1380,0,0
497,-356,0,0,0,0,0,0,0,0,0,-1,1721,1380,0,0
504,-356,0,0,0,0,0,0,0,0,0,-1,1728,1380,0,0
511,-356,0,0,0,0,0,0,0,0,0,-1,1735,1380,0,0
518,-356,0,0,0,0,0,0,0,0,0,-1,1742,1380,0,0
525,-356,0,0,0,0,0,0,0,0,0,-1,1749,1380,0,0
532,-356,0,0,0,0,0,0,0,0,0,-1,1756,1380,0,0
539,-356,0,0,0,0,0,0,0,0,0,-1,1763,1380,0,0
546,-356,0,0,0,0,0,0,0,0,0,-1,1770,1380,0,0
553,-356,0,0,0,0,0,0,0,0,0,-1,1777,1380,0,0
560,-356,63.6171,3.12183,0,0,0,0,0,0,0,-1,1784,1380,63.617,-3.12183
567,-356,65.0425,1.89966,0,0,0,0,0,0,0,-1,1791,1380,65.0424,-1.8996
574,-356,45.5742,3.39575,0,0,0,0,0,0,0,-1,1798,1380,45.5742,-3.39574
581,-356,45.6708,3.64172,0,0,0,0,0,0,0,-1,1805,1380,45.6707,-3.64175
588,-356,44.4739,4.87085,0,0,0,0,0,0,0,-1,1812,1380,44.4739,-4.87086
595,-356,32.0834,5.86084,0,0,0,0,0,0,0,-1,1819,1380,32.0834,-5.86079
602,-356,30.1604,6.07104,0,0,0,0,0,0,0,-1,1826,1380,30.1604,-6.07104
609,-356,28.3435,6.48901,0,0,0,0,0,0,0,-1,1833,1380,28.3435,-6.48899
616,-356,26.9358,6.80872,0,0,0,0,0,0,0,-1,1840,1380,26.9358,-6.80877
623,-356,16.1803,1.07532,0,0,0,0,0,0,0,-1,1847,1380,16.1803,-1.07529
630,-356,16.4138,6.91553,0,0,0,0,0,0,0,-1,1854,1380,16.4138,-6.9155
637,-356,24.8021,12.0151,0,0,0,0,0,0,0,-1,1861,1380,24.8022,-12.0151
644,-356,47.6781,22.8475,0,0,0,0,0,0,0,-1,1868,1380,47.6782,-22.8475
651,-356,47.6989,21.8068,-0.000677686,0.000971011,-0.000310423,0.00102752,-0.000734197,-1.39072,0.00102182,0.0224034,1875,1380,47.6988,-21.8067
658,-356,47.5939,20.8722,-4.11994e-05,0.000627494,-0.000291161,0.0007365,-0.000150206,-1.21256,0.000547975,0.0162404,1882,1380,47.5938,-20.8722
665,-356,47.5566,20.0691,0.000719976,0.000428073,-0.000456677,0.00105346,9.45921e-05,-0.630731,0.000672994,0.0165894,1889,1380,47.5566,-20.0691
672,-356,47.4801,19.2153,0.0015381,0.000416378,-0.000746992,0.00191135,4.3129e-05,-0.463383,0.0012601,0.0161224,1896,1380,47.4801,-19.2153
679,-356,47.4325,18.3309,0.00242627,0.000519696,-0.00114058,0.00295948,-1.35121e-05,-0.437303,0.00197751,0.0189936,1903,1380,47.4325,-18.3309
686,-356,47.4102,17.4229,0.00340596,0.000780868,-0.00165068,0.00420232,-1.54998e-05,-0.449508,0.00280673,0.0207942,1910,1380,47.4101,-17.4229
693,-356,47.3781,16.5648,0.00446235,0.00119797,-0.00225561,0.00561437,4.59501e-05,-0.472199,0.00372769,0.0175072,1917,1380,47.378,-16.5648
700,-356,47.3595,15.6882,0.00558871,0.00184599,-0.00300148,0.00725442,0.000180282,-0.506646,0.00477732,0.0266278,1924,1380,47.3595,-15.6882
707,-356,47.4392,14.5546,0,0,0,0,0,0,0,-1,1931,1380,47.4393,-14.5545
714,-356,19.6907,5.82129,0,0,0,0,0,0,0,-1,1938,1380,19.6907,-5.82132
721,-356,17.2948,4.1958,0,0,0,0,0,0,0,-1,1945,1380,17.2948,-4.19584
728,-356,19.1846,2.31519,0,0,0,0,0,0,0,-1,1952,1380,19.1846,-2.31514
735,-356,20.0731,2.50842,0,0,0,0,0,0,0,-1,1959,1380,20.0731,-2.50844
742,-356,21.0111,2.43762,0,0,0,0,0,0,0,-1,1966,1380,21.0112,-2.43762
749,-356,22.1411,1.83276,0,0,0,0,0,0,0,-1,1973,1380,22.1411,-1.83275
756,-356,0,0,0,0,0,0,0,0,0,-1,1980,1380,0,0
763,-356,0,0,0,0,0,0,0,0,0,-1,1987,1380,0,0
770,-356,0,0,0,0,0,0,0,0,0,-1,1994,1380,0,0
777,-356,0,0,0,0,0,0,0,0,0,-1,2001,1380,0,0
784,-356,0,0,0,0,0,0,0,0,0,-1,2008,1380,0,0
791,-356,0,0,0,0,0,0,0,0,0,-1,2015,1380,0,0
798,-356,0,0,0,0,0,0,0,0,0,-1,2022,1380,0,0
805,-356,0,0,0,0,0,0,0,0,0,-1,2029,1380,0,0
812,-356,0,0,0,0,0,0,0,0,0,-1,2036,1380,0,0
-700,-363,0,0,0,0,0,0,0,0,0,-1,524,1387,0,0
-693,-363,0,0,0,0,0,0,0,0,0,-1,531,1387,0,0
-686,-363,0,0,0,0,0,0,0,0,0,-1,538,1387,0,0
-679,-363,0,0,0,0,0,0,0,0,0,-1,545,1387,0,0
-672,-363,0,0,0,0,0,0,0,0,0,-1,552,1387,0,0
-665,-363,0,0,0,0,0,0,0,0,0,-1,559,1387,0,0
-658,-363,0,0,0,0,0,0,0,0,0,-1,566,1387,0,0
-651,-363,0,0,0,0,0,0,0,0,0,-1,573,1387,0,0
-644,-363,0,0,0,0,0,0,0,0,0,-1,580,1387,0,0
-637,-363,0,0,0,0,0,0,0,0,0,-1,587,1387,0,0
-630,-363,0,0,0,0,0,0,0,0,0,-1,594,1387,0,0
-623,-363,-9.67566,-5.91846,0,0,0,0,0,0,0,-1,601,1387,-9.67563,5.91847
-616,-363,-9.02985,-2.98083,0,0,0,0,0,0,0,-1,608,1387,-9.02987,2.98079
-609,-363,-4.90265,0.195679,0,0,0,0,0,0,0,-1,615,1387,-4.90263,-0.195721
-602,-363,-9.65009,3.5321,0,0,0,0,0,0,0,-1,622,1387,-9.65007,-3.53211
-595,-363,-8.00256,3.48853,0,0,0,0,0,0,0,-1,629,1387,-8.00256,-3.48855
-588,-363,-10.8846,4.49768,0,0,0,0,0,0,0,-1,636,1387,-10.8846,-4.49773
-581,-363,-11.7469,5.15161,0,0,0,0,0,0,0,-1,643,1387,-11.747,-5.15167
-574,-363,-17.8334,8.33801,0,0,0,0,0,0,0,-1,650,1387,-17.8334,-8.33804
-567,-363,-29.4786,15.8394,0,0,0,0,0,0,0,-1,657,1387,-29.4786,-15.8393
-560,-363,-29.3556,16.807,0.00578119,0.00254338,0.00286341,0.00745166,0.000872912,0.528112,0.00470388,0.0157763,664,1387,-29.3556,-16.807
-553,-363,-29.364,17.7395,0.00487259,0.0018185,0.00234274,0.00614203,0.000549064,0.496571,0.00392449,0.0144416,671,1387,-29.3639,-17.7395
-546,-363,-29.4318,18.6259,0.00426884,0.00124695,0.00201106,0.00527331,0.000242477,0.463226,0.00343757,0.0138616,678,1387,-29.4318,-18.6258
-539,-363,-29.478,19.5627,0.00396709,0.000806434,0.00184374,0.0048151,-4.1574e-05,0.431088,0.00322401,0.014711,685,1387,-29.478,-19.5627
-532,-363,-29.5658,20.4867,0.00395044,0.000497909,0.0018184,0.00473148,-0.00028313,0.405693,0.00325281,0.01349,692,1387,-29.5658,-20.4867
-525,-363,-29.606,21.3743,0.00420064,0.000305906,0.00193063,0.00499546,-0.000488912,0.390541,0.00350466,0.0134962,699,1387,-29.606,-21.3743
-518,-363,-29.6281,22.2889,0.00469987,0.000219342,0.00217055,0.00557891,-0.000659702,0.384798,0.00395754,0.0121475,706,1387,-29.6281,-22.289
-511,-363,-29.5325,23.2537,0.00550172,0.000324361,0.00257191,0.00656214,-0.000736068,0.391075,0.00463962,0.0381052,713,1387,-29.5324,-23.2537
-504,-363,-29.3585,24.2793,0,0,0,0,0,0,0,-1,720,1387,-29.3585,-24.2793
-497,-363,-7.18842,7.29944,0,0,0,0,0,0,0,-1,727,1387,-7.18839,-7.29945
-490,-363,-5.42413,4.6958,0,0,0,0,0,0,0,-1,734,1387,-5.42412,-4.69583
-483,-363,-6.28375,4.1394,0,0,0,0,0,0,0,-1,741,1387,-6.28374,-4.13944
-476,-363,-5.83807,4.31018,0,0,0,0,0,0,0,-1,748,1387,-5.8381,-4.31013
-469,-363,-10.7125,0.697754,0,0,0,0,0,0,0,-1,755,1387,-10.7125,-0.697811
-462,-363,-9.55951,-0.0830078,0,0,0,0,0,0,0,-1,762,1387,-9.55949,0.0830163
-455,-363,-13.1008,-0.290894,0,0,0,0,0,0,0,-1,769,1387,-13.1008,0.290921
-448,-363,-11.7324,2.46606,0,0,0,0,0,0,0,-1,776,1387,-11.7324,-2.46605
-441,-363,-12.4464,2.5354,0,0,0,0,0,0,0,-1,783,1387,-12.4463,-2.53537
-434,-363,-13.6918,2.14661,0,0,0,0,0,0,0,-1,790,1387,-13.6918,-2.14662
-427,-363,0,0,0,0,0,0,0,0,0,-1,797,1387,0,0
-420,-363,0,0,0,0,0,0,0,0,0,-1,804,1387,0,0
-413,-363,0,0,0,0,0,0,0,0,0,-1,811,1387,0,0
-406,-363,0,0,0,0,0,0,0,0,0,-1,818,1387,0,0
-399,-363,0,0,0,0,0,0,0,0,0,-1,825,1387,0,0
-392,-363,0,0,0,0,0,0,0,0,0,-1,832,1387,0,0
-385,-363,0,0,0,0,0,0,0,0,0,-1,839,1387,0,0
-378,-363,0,0,0,0,0,0,0,0,0,-1,846,1387,0,0
-371,-363,0,0,0,0,0,0,0,0,0,-1,853,1387,0,0
-364,-363,0,0,0,0,0,0,0,0,0,-1,860,1387,0,0
-357,-363,0,0,0,0,0,0,0,0,0,-1,867,1387,0,0
-350,-363,0,0,0,0,0,0,0,0,0,-1,874,1387,0,0
-343,-363,0,0,0,0,0,0,0,0,0,-1,881,1387,0,0
-336,-363,0,0,0,0,0,0,0,0,0,-1,888,1387,0,0
-329,-363,0,0,0,0,0,0,0,0,0,-1,895,1387,0,0
-322,-363,0,0,0,0,0,0,0,0,0,-1,902,1387,0,0
-315,-363,0,0,0,0,0,0,0,0,0,-1,909,1387,0,0
-308,-363,0,0,0,0,0,0,0,0,0,-1,916,1387,0,0
-301,-363,0,0,0,0,0,0,0,0,0,-1,923,1387,0,0
-294,-363,0,0,0,0,0,0,0,0,0,-1,930,1387,0,0
-287,-363,0,0,0,0,0,0,0,0,0,-1,937,1387,0,0
-280,-363,0,0,0,0,0,0,0,0,0,-1,944,1387,0,0
-273,-363,0,0,0,0,0,0,0,0,0,-1,951,1387,0,0
-266,-363,0,0,0,0,0,0,0,0,0,-1,958,1387,0,0
-259,-363,0,0,0,0,0,0,0,0,0,-1,965,1387,0,0
-252,-363,0,0,0,0,0,0,0,0,0,-1,972,1387,0,0
-245,-363,0,0,0,0,0,0,0,0,0,-1,979,1387,0,0
-238,-363,0,0,0,0,0,0,0,0,0,-1,986,1387,0,0
-231,-363,0,0,0,0,0,0,0,0,0,-1,993,1387,0,0
-224,-363,0,0,0,0,0,0,0,0,0,-1,1000,1387,0,0
-217,-363,0,0,0,0,0,0,0,0,0,-1,1007,1387,0,0
-210,-363,0,0,0,0,0,0,0,0,0,-1,1014,1387,0,0
-203,-363,0,0,0,0,0,0,0,0,0,-1,1021,1387,0,0
-196,-363,0,0,0,0,0,0,0,0,0,-1,1028,1387,0,0
-189,-363,0,0,0,0,0,0,0,0,0,-1,1035,1387,0,0
-182,-363,0,0,0,0,0,0,0,0,0,-1,1042,1387,0,0
-175,-363,0,0,0,0,0,0,0,0,0,-1,1049,1387,0,0
-168,-363,0,0,0,0,0,0,0,0,0,-1,1056,1387,0,0
-161,-363,0,0,0,0,0,0,0,0,0,-1,1063,1387,0,0
-154,-363,0,0,0,0,0,0,0,0,0,-1,1070,1387,0,0
-147,-363,0,0,0,0,0,0,0,0,0,-1,1077,1387,0,0
-140,-363,0,0,0,0,0,0,0,0,0,-1,1084,1387,0,0
-133,-363,0,0,0,0,0,0,0,0,0,-1,1091,1387,0,0
-126,-363,0,0,0,0,0,0,0,0,0,-1,1098,1387,0,0
-119,-363,0,0,0,0,0,0,0,0,0,-1,1105,1387,0,0
-112,-363,0,0,0,0,0,0,0,0,0,-1,1112,1387,0,0
-105,-363,0,0,0,0,0,0,0,0,0,-1,1119,1387,0,0
-98,-363,0,0,0,0,0,0,0,0,0,-1,1126,1387,0,0
-91,-363,0,0,0,0,0,0,0,0,0,-1,1133,1387,0,0
-84,-363,0,0,0,0,0,0,0,0,0,-1,1140,1387,0,0
-77,-363,0,0,0,0,0,0,0,0,0,-1,1147,1387,0,0
-70,-363,0,0,0,0,0,0,0,0,0,-1,1154,1387,0,0
-63,-363,0,0,0,0,0,0,0,0,0,-1,1161,1387,0,0
-56,-363,0,0,0,0,0,0,0,0,0,-1,1168,1387,0,0
-49,-363,0,0,0,0,0,0,0,0,0,-1,1175,1387,0,0
-42,-363,0,0,0,0,0,0,0,0,0,-1,1182,1387,0,0
-35,-363,0,0,0,0,0,0,0,0,0,-1,1189,1387,0,0
-28,-363,0,0,0,0,0,0,0,0,0,-1,1196,1387,0,0
-21,-363,0,0,0,0,0,0,0,0,0,-1,1203,1387,0,0
-14,-363,0,0,0,0,0,0,0,0,0,-1,1210,1387,0,0
-7,-363,0,0,0,0,0,0,0,0,0,-1,1217,1387,0,0
0,-363,0,0,0,0,0,0,0,0,0,-1,1224,1387,0,0
7,-363,0,0,0,0,0,0,0,0,0,-1,1231,1387,0,0
14,-363,0,0,0,0,0,0,0,0,0,-1,1238,1387,0,0
21,-363,0,0,0,0,0,0,0,0,0,-1,1245,1387,0,0
28,-363,0,0,0,0,0,0,0,0,0,-1,1252,1387,0,0
35,-363,0,0,0,0,0,0,0,0,0,-1,1259,1387,0,0
42,-363,0,0,0,0,0,0,0,0,0,-1,1266,1387,0,0
49,-363,0,0,0,0,0,0,0,0,0,-1,1273,1387,0,0
56,-363,0,0,0,0,0,0,0,0,0,-1,1280,1387,0,0
63,-363,0,0,0,0,0,0,0,0,0,-1,1287,1387,0,0
70,-363,0,0,0,0,0,0,0,0,0,-1,1294,1387,0,0
77,-363,0,0,0,0,0,0,0,0,0,-1,1301,1387,0,0
84,-363,0,0,0,0,0,0,0,0,0,-1,1308,1387,0,0
91,-363,0,0,0,0,0,0,0,0,0,-1,1315,1387,0,0
98,-363,0,0,0,0,0,0,0,0,0,-1,1322,1387,0,0
105,-363,0,0,0,0,0,0,0,0,0,-1,1329,1387,0,0
112,-363,0,0,0,0,0,0,0,0,0,-1,1336,1387,0,0
119,-363,0,0,0,0,0,0,0,0,0,-1,1343,1387,0,0
126,-363,0,0,0,0,0,0,0,0,0,-1,1350,1387,0,0
133,-363,0,0,0,0,0,0,0,0,0,-1,1357,1387,0,0
140,-363,0,0,0,0,0,0,0,0,0,-1,1364,1387,0,0
147,-363,0,0,0,0,0,0,0,0,0,-1,1371,1387,0,0
154,-363,0,0,0,0,0,0,0,0,0,-1,1378,1387,0,0
161,-363,0,0,0,0,0,0,0,0,0,-1,1385,1387,0,0
168,-363,0,0,0,0,0,0,0,0,0,-1,1392,1387,0,0
175,-363,0,0,0,0,0,0,0,0,0,-1,1399,1387,0,0
182,-363,0,0,0,0,0,0,0,0,0,-1,1406,1387,0,0
189,-363,0,0,0,0,0,0,0,0,0,-1,1413,1387,0,0
196,-363,0,0,0,0,0,0,0,0,0,-1,1420,1387,0,0
203,-363,0,0,0,0,0,0,0,0,0,-1,1427,1387,0,0
210,-363,0,0,0,0,0,0,0,0,0,-1,1434,1387,0,0
217,-363,0,0,0,0,0,0,0,0,0,-1,1441,1387,0,0
224,-363,0,0,0,0,0,0,0,0,0,-1,1448,1387,0,0
231,-363,0,0,0,0,0,0,0,0,0,-1,1455,1387,0,0
238,-363,0,0,0,0,0,0,0,0,0,-1,1462,1387,0,0
245,-363,0,0,0,0,0,0,0,0,0,-1,1469,1387,0,0
252,-363,0,0,0,0,0,0,0,0,0,-1,1476,1387,0,0
259,-363,0,0,0,0,0,0,0,0,0,-1,1483,1387,0,0
266,-363,0,0,0,0,0,0,0,0,0,-1,1490,1387,0,0
273,-363,0,0,0,0,0,0,0,0,0,-1,1497,1387,0,0
280,-363,0,0,0,0,0,0,0,0,0,-1,1504,1387,0,0
287,-363,0,0,0,0,0,0,0,0,0,-1,1511,1387,0,0
294,-363,0,0,0,0,0,0,0,0,0,-1,1518,1387,0,0
301,-363,0,0,0,0,0,0,0,0,0,-1,1525,1387,0,0
308,-363,0,0,0,0,0,0,0,0,0,-1,1532,1387,0,0
315,-363,0,0,0,0,0,0,0,0,0,-1,1539,1387,0,0
322,-363,0,0,0,0,0,0,0,0,0,-1,1546,1387,0,0
329,-363,0,0,0,0,0,0,0,0,0,-1,1553,1387,0,0
336,-363,0,0,0,0,0,0,0,0,0,-1,1560,1387,0,0
343,-363,0,0,0,0,0,0,0,0,0,-1,1567,1387,0,0
350,-363,0,0,0,0,0,0,0,0,0,-1,1574,1387,0,0
357,-363,0,0,0,0,0,0,0,0,0,-1,1581,1387,0,0
364,-363,0,0,0,0,0,0,0,0,0,-1,1588,1387,0,0
371,-363,0,0,0,0,0,0,0,0,0,-1,1595,1387,0,0
378,-363,0,0,0,0,0,0,0,0,0,-1,1602,1387,0,0
385,-363,0,0,0,0,0,0,0,0,0,-1,1609,1387,0,0
392,-363,0,0,0,0,0,0,0,0,0,-1,1616,1387,0,0
399,-363,0,0,0,0,0,0,0,0,0,-1,1623,1387,0,0
406,-363,0,0,0,0,0,0,0,0,0,-1,1630,1387,0,0
413,-363,0,0,0,0,0,0,0,0,0,-1,1637,1387,0,0
420,-363,0,0,0,0,0,0,0,0,0,-1,1644,1387,0,0
427,-363,0,0,0,0,0,0,0,0,0,-1,1651,1387,0,0
434,-363,0,0,0,0,0,0,0,0,0,-1,1658,1387,0,0
441,-363,0,0,0,0,0,0,0,0,0,-1,1665,1387,0,0
448,-363,0,0,0,0,0,0,0,0,0,-1,1672,1387,0,0
455,-363,0,0,0,0,0,0,0,0,0,-1,1679,1387,0,0
462,-363,0,0,0,0,0,0,0,0,0,-1,1686,1387,0,0
469,-363,0,0,0,0,0,0,0,0,0,-1,1693,1387,0,0
476,-363,0,0,0,0,0,0,0,0,0,-1,1700,1387,0,0
483,-363,0,0,0,0,0,0,0,0,0,-1,1707,1387,0,0
490,-363,0,0,0,0,0,0,0,0,0,-1,1714,1387,0,0
497,-363,0,0,0,0,0,0,0,0,0,-1,1721,1387,0,0
504,-363,0,0,0,0,0,0,0,0,0,-1,1728,1387,0,0
511,-363,0,0,0,0,0,0,0,0,0,-1,1735,1387,0,0
518,-363,0,0,0,0,0,0,0,0,0,-1,1742,1387,0,0
525,-363,0,0,0,0,0,0,0,0,0,-1,1749,1387,0,0
532,-363,0,0,0,0,0,0,0,0,0,-1,1756,1387,0,0
539,-363,0,0,0,0,0,0,0,0,0,-1,1763,1387,0,0
546,-363,0,0,0,0,0,0,0,0,0,-1,1770,1387,0,0
553,-363,62.1395,3.42249,0,0,0,0,0,0,0,-1,1777,1387,62.1395,-3.42245
560,-363,63.2896,2.40808,0,0,0,0,0,0,0,-1,1784,1387,63.2896,-2.40811
567,-363,64.4463,1.38135,0,0,0,0,0,0,0,-1,1791,1387,64.4463,-1.38131
574,-363,45.7261,2.8075,0,0,0,0,0,0,0,-1,1798,1387,45.7261,-2.80754
581,-363,39.2413,1.97632,0,0,0,0,0,0,0,-1,1805,1387,39.2413,-1.97636
588,-363,32.5608,6.72131,0,0,0,0,0,0,0,-1,1812,1387,32.5608,-6.72131
595,-363,31.4688,6.95435,0,0,0,0,0,0,0,-1,1819,1387,31.4688,-6.95431
602,-363,25.7437,5.33667,0,0,0,0,0,0,0,-1,1826,1387,25.7437,-5.33667
609,-363,27.7048,7.06885,0,0,0,0,0,0,0,-1,1833,1387,27.7048,-7.06882
616,-363,16.229,1.08704,0,0,0,0,0,0,0,-1,1840,1387,16.229,-1.08706
623,-363,15.7283,7.16663,0,0,0,0,0,0,0,-1,1847,1387,15.7282,-7.16665
630,-363,18.3192,9.27844,0,0,0,0,0,0,0,-1,1854,1387,18.3192,-9.27843
637,-363,46.8313,23.8297,0,0,0,0,0,0,0,-1,1861,1387,46.8314,-23.8297
644,-363,46.8351,22.7987,-0.00110461,0.0011415,-0.000442899,0.00122568,-0.00118879,-1.38297,0.00139405,0.0210714,1868,1387,46.8351,-22.7987
651,-363,46.7804,21.8522,-0.000614364,0.000695216,-0.00023112,0.000734808,-0.000653956,-1.40114,0.000802256,0.0117931,1875,1387,46.7804,-21.8522
658,-363,46.7378,20.9739,0.000159122,0.000476347,-0.000325557,0.000679874,-4.44047e-05,-1.01208,0.000468753,0.0131371,1882,1387,46.7378,-20.9739
665,-363,46.6901,20.1221,0.00103157,0.000380681,-0.000582249,0.00137315,3.90954e-05,-0.530557,0.000902686,0.0134165,1889,1387,46.69,-20.1221
672,-363,46.619,19.2694,0.00197164,0.000431142,-0.000961324,0.00243323,-3.0448e-05,-0.447651,0.0016324,0.0144104,1896,1387,46.619,-19.2694
679,-363,46.5588,18.401,0.00300444,0.000609252,-0.00147713,0.00370846,-9.47688e-05,-0.444765,0.0025045,0.0153707,1903,1387,46.5589,-18.401
686,-363,46.5223,17.5242,0.00414499,0.000943921,-0.0021346,0.00521246,-0.00012354,-0.463709,0.00351687,0.0153178,1910,1387,46.5223,-17.5242
693,-363,46.491,16.6161,0.00538637,0.00147142,-0.00293235,0.00695457,-9.67849e-05,-0.491093,0.00466898,0.0142659,1917,1387,46.4909,-16.6161
700,-363,46.6437,15.6294,0.00675537,0.00232838,-0.00397984,0.00909585,-1.21021e-05,-0.531612,0.00606794,0.0400154,1924,1387,46.6437,-15.6294
707,-363,46.9799,14.6832,0,0,0,0,0,0,0,-1,1931,1387,46.9798,-14.6833
714,-363,16.5782,5.3147,0,0,0,0,0,0,0,-1,1938,1387,16.5783,-5.31472
721,-363,14.4045,4.51685,0,0,0,0,0,0,0,-1,1945,1387,14.4045,-4.51685
728,-363,19.9756,0.853027,0,0,0,0,0,0,0,-1,1952,1387,19.9756,-0.853059
735,-363,21.4297,1.2981,0,0,0,0,0,0,0,-1,1959,1387,21.4297,-1.29811
742,-363,21.3621,2.79663,0,0,0,0,0,0,0,-1,1966,1387,21.362,-2.7966
749,-363,0,0,0,0,0,0,0,0,0,-1,1973,1387,0,0
756,-363,0,0,0,0,0,0,0,0,0,-1,1980,1387,0,0
763,-363,0,0,0,0,0,0,0,0,0,-1,1987,1387,0,0
770,-363,0,0,0,0,0,0,0,0,0,-1,1994,1387,0,0
777,-363,0,0,0,0,0,0,0,0,0,-1,2001,1387,0,0
784,-363,0,0,0,0,0,0,0,0,0,-1,2008,1387,0,0
791,-363,0,0,0,0,0,0,0,0,0,-1,2015,1387,0,0
798,-363,0,0,0,0,0,0,0,0,0,-1,2022,1387,0,0
805,-363,0,0,0,0,0,0,0,0,0,-1,2029,1387,0,0
812,-363,0,0,0,0,0,0,0,0,0,-1,2036,1387,0,0
-700,-370,0,0,0,0,0,0,0,0,0,-1,524,1394,0,0
-693,-370,0,0,0,0,0,0,0,0,0,-1,531,1394,0,0
-686,-370,0,0,0,0,0,0,0,0,0,-1,538,1394,0,0
-679,-370,0,0,0,0,0,0,0,0,0,-1,545,1394,0,0
-672,-370,0,0,0,0,0,0,0,0,0,-1,552,1394,0,0
-665,-370,0,0,0,0,0,0,0,0,0,-1,559,1394,0,0
-658,-370,0,0,0,0,0,0,0,0,0,-1,566,1394,0,0
-651,-370,0,0,0,0,0,0,0,0,0,-1,573,1394,0,0
-644,-370,0,0,0,0,0,0,0,0,0,-1,580,1394,0,0
-637,-370,0,0,0,0,0,0,0,0,0,-1,587,1394,0,0
-630,-370,0,0,0,0,0,0,0,0,0,-1,594,1394,0,0
-623,-370,-10.1758,-7.10486,0,0,0,0,0,0,0,-1,601,1394,-10.1758,7.10483
-616,-370,-8.85925,-1.61475,0,0,0,0,0,0,0,-1,608,1394,-8.85925,1.61476
-609,-370,-5.39325,0.0421143,0,0,0,0,0,0,0,-1,615,1394,-5.39328,-0.0421372
-602,-370,-12.3151,3.44592,0,0,0,0,0,0,0,-1,622,1394,-12.3151,-3.44595
-595,-370,-7.53284,5.44214,0,0,0,0,0,0,0,-1,629,1394,-7.53284,-5.44216
-588,-370,-11.2422,4.50598,0,0,0,0,0,0,0,-1,636,1394,-11.2422,-4.50596
-581,-370,-13.1575,5.84888,0,0,0,0,0,0,0,-1,643,1394,-13.1575,-5.84887
-574,-370,-13.0107,6.69861,0,0,0,0,0,0,0,-1,650,1394,-13.0108,-6.69866
-567,-370,-28.4812,15.6926,0,0,0,0,0,0,0,-1,657,1394,-28.4812,-15.6926
-560,-370,-28.5421,16.752,0.00629815,0.00306713,0.00341139,0.00845721,0.000908061,0.56426,0.00536115,0.0428913,664,1394,-28.5421,-16.752
-553,-370,-28.4897,17.7831,0.00521558,0.00220245,0.00272287,0.00682088,0.000597145,0.532711,0.00436185,0.0116291,671,1394,-28.4898,-17.7831
-546,-370,-28.5161,18.702,0.00443156,0.00152349,0.00223804,0.00564643,0.000308619,0.497319,0.00366575,0.014669,678,1394,-28.5161,-18.702
-539,-370,-28.5423,19.6328,0.00393593,0.000993014,0.00192151,0.00488467,4.4266e-05,0.458636,0.00324179,0.0185197,685,1394,-28.5423,-19.6328
-532,-370,-28.6534,20.5281,0.00372145,0.00060423,0.00174914,0.00450566,-0.000179971,0.421468,0.00306552,0.0225311,692,1394,-28.6534,-20.5281
-525,-370,-28.7129,21.4342,0.00374558,0.000332812,0.00170289,0.00444992,-0.000371523,0.392186,0.00309789,0.0228089,699,1394,-28.7129,-21.4342
-518,-370,-28.7294,22.3157,0.00398437,0.000176954,0.00177331,0.00468234,-0.000521014,0.374975,0.00330893,0.0162553,706,1394,-28.7295,-22.3156
-511,-370,-28.7498,23.2593,0.00446683,0.000168608,0.00197387,0.00523574,-0.000600299,0.37146,0.00370683,0.0166773,713,1394,-28.7498,-23.2593
-504,-370,-28.7693,24.2269,0,0,0,0,0,0,0,-1,720,1394,-28.7694,-24.227
-497,-370,-12.3546,11.7982,0,0,0,0,0,0,0,-1,727,1394,-12.3546,-11.7983
-490,-370,-5.30695,4.5271,0,0,0,0,0,0,0,-1,734,1394,-5.30698,-4.52704
-483,-370,-6.02997,4.59253,0,0,0,0,0,0,0,-1,741,1394,-6.02994,-4.5925
-476,-370,-6.75293,4.65796,0,0,0,0,0,0,0,-1,748,1394,-6.7529,-4.65795
-469,-370,-10.584,1.14294,0,0,0,0,0,0,0,-1,755,1394,-10.584,-1.14293
-462,-370,-9.54462,0.387207,0,0,0,0,0,0,0,-1,762,1394,-9.5446,-0.387176
-455,-370,-8.50525,-0.36853,0,0,0,0,0,0,0,-1,769,1394,-8.50523,0.368582
-448,-370,-10.9543,2.28833,0,0,0,0,0,0,0,-1,776,1394,-10.9543,-2.28835
-441,-370,-11.8699,1.8313,0,0,0,0,0,0,0,-1,783,1394,-11.8699,-1.83127
-434,-370,-12.7855,1.37415,0,0,0,0,0,0,0,-1,790,1394,-12.7855,-1.37419
-427,-370,0,0,0,0,0,0,0,0,0,-1,797,1394,0,0
-420,-370,0,0,0,0,0,0,0,0,0,-1,804,1394,0,0
-413,-370,0,0,0,0,0,0,0,0,0,-1,811,1394,0,0
-406,-370,0,0,0,0,0,0,0,0,0,-1,818,1394,0,0
-399,-370,0,0,0,0,0,0,0,0,0,-1,825,1394,0,0
-392,-370,0,0,0,0,0,0,0,0,0,-1,832,1394,0,0
-385,-370,0,0,0,0,0,0,0,0,0,-1,839,1394,0,0
-378,-370,0,0,0,0,0,0,0,0,0,-1,846,1394,0,0
-371,-370,0,0,0,0,0,0,0,0,0,-1,853,1394,0,0
-364,-370,0,0,0,0,0,0,0,0,0,-1,860,1394,0,0
-357,-370,0,0,0,0,0,0,0,0,0,-1,867,1394,0,0
-350,-370,0,0,0,0,0,0,0,0,0,-1,874,1394,0,0
-343,-370,0,0,0,0,0,0,0,0,0,-1,881,1394,0,0
-336,-370,0,0,0,0,0,0,0,0,0,-1,888,1394,0,0
-329,-370,0,0,0,0,0,0,0,0,0,-1,895,1394,0,0
-322,-370,0,0,0,0,0,0,0,0,0,-1,902,1394,0,0
-315,-370,0,0,0,0,0,0,0,0,0,-1,909,1394,0,0
-308,-370,0,0,0,0,0,0,0,0,0,-1,916,1394,0,0
-301,-370,0,0,0,0,0,0,0,0,0,-1,923,1394,0,0
-294,-370,0,0,0,0,0,0,0,0,0,-1,930,1394,0,0
-287,-370,0,0,0,0,0,0,0,0,0,-1,937,1394,0,0
-280,-370,0,0,0,0,0,0,0,0,0,-1,944,1394,0,0
-273,-370,0,0,0,0,0,0,0,0,0,-1,951,1394,0,0
-266,-370,0,0,0,0,0,0,0,0,0,-1,958,1394,0,0
-259,-370,0,0,0,0,0,0,0,0,0,-1,965,1394,0,0
-252,-370,0,0,0,0,0,0,0,0,0,-1,972,1394,0,0
-245,-370,0,0,0,0,0,0,0,0,0,-1,979,1394,0,0
-238,-370,0,0,0,0,0,0,0,0,0,-1,986,1394,0,0
-231,-370,0,0,0,0,0,0,0,0,0,-1,993,1394,0,0
-224,-370,0,0,0,0,0,0,0,0,0,-1,1000,1394,0,0
-217,-370,0,0,0,0,0,0,0,0,0,-1,1007,1394,0,0
-210,-370,0,0,0,0,0,0,0,0,0,-1,1014,1394,0,0
-203,-370,0,0,0,0,0,0,0,0,0,-1,1021,1394,0,0
-196,-370,0,0,0,0,0,0,0,0,0,-1,1028,1394,0,0
-189,-370,0,0,0,0,0,0,0,0,0,-1,1035,1394,0,0
-182,-370,0,0,0,0,0,0,0,0,0,-1,1042,1394,0,0
-175,-370,0,0,0,0,0,0,0,0,0,-1,1049,1394,0,0
-168,-370,0,0,0,0,0,0,0,0,0,-1,1056,1394,0,0
-161,-370,0,0,0,0,0,0,0,0,0,-1,1063,1394,0,0
-154,-370,0,0,0,0,0,0,0,0,0,-1,1070,1394,0,0
-147,-370,0,0,0,0,0,0,0,0,0,-1,1077,1394,0,0
-140,-370,0,0,0,0,0,0,0,0,0,-1,1084,1394,0,0
-133,-370,0,0,0,0,0,0,0,0,0,-1,1091,1394,0,0
-126,-370,0,0,0,0,0,0,0,0,0,-1,1098,1394,0,0
-119,-370,0,0,0,0,0,0,0,0,0,-1,1105,1394,0,0
-112,-370,0,0,0,0,0,0,0,0,0,-1,1112,1394,0,0
-105,-370,0,0,0,0,0,0,0,0,0,-1,1119,1394,0,0
-98,-370,0,0,0,0,0,0,0,0,0,-1,1126,1394,0,0
-91,-370,0,0,0,0,0,0,0,0,0,-1,1133,1394,0,0
-84,-370,0,0,0,0,0,0,0,0,0,-1,1140,1394,0,0
-77,-370,0,0,0,0,0,0,0,0,0,-1,1147,1394,0,0
-70,-370,0,0,0,0,0,0,0,0,0,-1,1154,1394,0,0
-63,-370,0,0,0,0,0,0,0,0,0,-1,1161,1394,0,0
-56,-370,0,0,0,0,0,0,0,0,0,-1,1168,1394,0,0
-49,-370,0,0,0,0,0,0,0,0,0,-1,1175,1394,0,0
-42,-370,0,0,0,0,0,0,0,0,0,-1,1182,1394,0,0
-35,-370,0,0,0,0,0,0,0,0,0,-1,1189,1394,0,0
-28,-370,0,0,0,0,0,0,0,0,0,-1,1196,1394,0,0
-21,-370,0,0,0,0,0,0,0,0,0,-1,1203,1394,0,0
-14,-370,0,0,0,0,0,0,0,0,0,-1,1210,1394,0,0
-7,-370,0,0,0,0,0,0,0,0,0,-1,1217,1394,0,0
0,-370,0,0,0,0,0,0,0,0,0,-1,1224,1394,0,0
7,-370,0,0,0,0,0,0,0,0,0,-1,1231,1394,0,0
14,-370,0,0,0,0,0,0,0,0,0,-1,1238,1394,0,0
21,-370,0,0,0,0,0,0,0,0,0,-1,1245,1394,0,0
28,-370,0,0,0,0,0,0,0,0,0,-1,1252,1394,0,0
35,-370,0,0,0,0,0,0,0,0,0,-1,1259,1394,0,0
42,-370,0,0,0,0,0,0,0,0,0,-1,1266,1394,0,0
49,-370,0,0,0,0,0,0,0,0,0,-1,1273,1394,0,0
56,-370,0,0,0,0,0,0,0,0,0,-1,1280,1394,0,0
63,-370,0,0,0,0,0,0,0,0,0,-1,1287,1394,0,0
70,-370,0,0,0,0,0,0,0,0,0,-1,1294,1394,0,0
77,-370,0,0,0,0,0,0,0,0,0,-1,1301,1394,0,0
84,-370,0,0,0,0,0,0,0,0,0,-1,1308,1394,0,0
91,-370,0,0,0,0,0,0,0,0,0,-1,1315,1394,0,0
98,-370,0,0,0,0,0,0,0,0,0,-1,1322,1394,0,0
105,-370,0,0,0,0,0,0,0,0,0,-1,1329,1394,0,0
112,-370,0,0,0,0,0,0,0,0,0,-1,1336,1394,0,0
119,-370,0,0,0,0,0,0,0,0,0,-1,1343,1394,0,0
126,-370,0,0,0,0,0,0,0,0,0,-1,1350,1394,0,0
133,-370,0,0,0,0,0,0,0,0,0,-1,1357,1394,0,0
140,-370,0,0,0,0,0,0,0,0,0,-1,1364,1394,0,0
147,-370,0,0,0,0,0,0,0,0,0,-1,1371,1394,0,0
154,-370,0,0,0,0,0,0,0,0,0,-1,1378,1394,0,0
161,-370,0,0,0,0,0,0,0,0,0,-1,1385,1394,0,0
168,-370,0,0,0,0,0,0,0,0,0,-1,1392,1394,0,0
175,-370,0,0,0,0,0,0,0,0,0,-1,1399,1394,0,0
182,-370,0,0,0,0,0,0,0,0,0,-1,1406,1394,0,0
189,-370,0,0,0,0,0,0,0,0,0,-1,1413,1394,0,0
196,-370,0,0,0,0,0,0,0,0,0,-1,1420,1394,0,0
203,-370,0,0,0,0,0,0,0,0,0,-1,1427,1394,0,0
210,-370,0,0,0,0,0,0,0,0,0,-1,1434,1394,0,0
217,-370,0,0,0,0,0,0,0,0,0,-1,1441,1394,0,0
224,-370,0,0,0,0,0,0,0,0,0,-1,1448,1394,0,0
231,-370,0,0,0,0,0,0,0,0,0,-1,1455,1394,0,0
238,-370,0,0,0,0,0,0,0,0,0,-1,1462,1394,0,0
245,-370,0,0,0,0,0,0,0,0,0,-1,1469,1394,0,0
252,-370,0,0,0,0,0,0,0,0,0,-1,1476,1394,0,0
259,-370,0,0,0,0,0,0,0,0,0,-1,1483,1394,0,0
266,-370,0,0,0,0,0,0,0,0,0,-1,1490,1394,0,0
273,-370,0,0,0,0,0,0,0,0,0,-1,1497,1394,0,0
280,-370,0,0,0,0,0,0,0,0,0,-1,1504,1394,0,0
287,-370,0,0,0,0,0,0,0,0,0,-1,1511,1394,0,0
294,-370,0,0,0,0,0,0,0,0,0,-1,1518,1394,0,0
301,-370,0,0,0,0,0,0,0,0,0,-1,1525,1394,0,0
308,-370,0,0,0,0,0,0,0,0,0,-1,1532,1394,0,0
315,-370,0,0,0,0,0,0,0,0,0,-1,1539,1394,0,0
322,-370,0,0,0,0,0,0,0,0,0,-1,1546,1394,0,0
329,-370,0,0,0,0,0,0,0,0,0,-1,1553,1394,0,0
336,-370,0,0,0,0,0,0,0,0,0,-1,1560,1394,0,0
343,-370,0,0,0,0,0,0,0,0,0,-1,1567,1394,0,0
350,-370,0,0,0,0,0,0,0,0,0,-1,1574,1394,0,0
357,-370,0,0,0,0,0,0,0,0,0,-1,1581,1394,0,0
364,-370,0,0,0,0,0,0,0,0,0,-1,1588,1394,0,0
371,-370,0,0,0,0,0,0,0,0,0,-1,1595,1394,0,0
378,-370,0,0,0,0,0,0,0,0,0,-1,1602,1394,0,0
385,-370,0,0,0,0,0,0,0,0,0,-1,1609,1394,0,0
392,-370,0,0,0,0,0,0,0,0,0,-1,1616,1394,0,0
399,-370,0,0,0,0,0,0,0,0,0,-1,1623,1394,0,0
406,-370,0,0,0,0,0,0,0,0,0,-1,1630,1394,0,0
413,-370,0,0,0,0,0,0,0,0,0,-1,1637,1394,0,0
420,-370,0,0,0,0,0,0,0,0,0,-1,1644,1394,0,0
427,-370,0,0,0,0,0,0,0,0,0,-1,1651,1394,0,0
434,-370,0,0,0,0,0,0,0,0,0,-1,1658,1394,0,0
441,-370,0,0,0,0,0,0,0,0,0,-1,1665,1394,0,0
448,-370,0,0,0,0,0,0,0,0,0,-1,1672,1394,0,0
455,-370,0,0,0,0,0,0,0,0,0,-1,1679,1394,0,0
462,-370,0,0,0,0,0,0,0,0,0,-1,1686,1394,0,0
469,-370,0,0,0,0,0,0,0,0,0,-1,1693,1394,0,0
476,-370,0,0,0,0,0,0,0,0,0,-1,1700,1394,0,0
483,-370,0,0,0,0,0,0,0,0,0,-1,1707,1394,0,0
490,-370,0,0,0,0,0,0,0,0,0,-1,1714,1394,0,0
497,-370,0,0,0,0,0,0,0,0,0,-1,1721,1394,0,0
504,-370,0,0,0,0,0,0,0,0,0,-1,1728,1394,0,0
511,-370,0,0,0,0,0,0,0,0,0,-1,1735,1394,0,0
518,-370,0,0,0,0,0,0,0,0,0,-1,1742,1394,0,0
525,-370,0,0,0,0,0,0,0,0,0,-1,1749,1394,0,0
532,-370,0,0,0,0,0,0,0,0,0,-1,1756,1394,0,0
539,-370,0,0,0,0,0,0,0,0,0,-1,1763,1394,0,0
546,-370,60.9257,3.80493,0,0,0,0,0,0,0,-1,1770,1394,60.9256,-3.80494
553,-370,61.9966,2.87524,0,0,0,0,0,0,0,-1,1777,1394,61.9966,-2.8753
560,-370,63.1577,1.82617,0,0,0,0,0,0,0,-1,1784,1394,63.1578,-1.82617
567,-370,46.1089,3.11719,0,0,0,0,0,0,0,-1,1791,1394,46.1089,-3.1172
574,-370,38.8953,1.49353,0,0,0,0,0,0,0,-1,1798,1394,38.8952,-1.49348
581,-370,39.178,2.86145,0,0,0,0,0,0,0,-1,1805,1394,39.1779,-2.86145
588,-370,39.2102,4.27661,0,0,0,0,0,0,0,-1,1812,1394,39.2102,-4.27657
595,-370,25.793,4.5271,0,0,0,0,0,0,0,-1,1819,1394,25.793,-4.52711
602,-370,25.1077,5.34937,0,0,0,0,0,0,0,-1,1826,1394,25.1077,-5.34932
609,-370,16.712,0.993286,0,0,0,0,0,0,0,-1,1833,1394,16.7121,-0.99323
616,-370,16.7764,7.23315,0,0,0,0,0,0,0,-1,1840,1394,16.7764,-7.23313
623,-370,17.6625,8.94263,0,0,0,0,0,0,0,-1,1847,1394,17.6624,-8.94258
630,-370,20.9681,11.1785,0,0,0,0,0,0,0,-1,1854,1394,20.9681,-11.1784
637,-370,46.001,23.6986,0,0,0,0,0,0,0,-1,1861,1394,46.0009,-23.6986
644,-370,45.9985,22.7909,-0.00104853,0.000780863,-0.000226645,0.000808524,-0.00107619,-1.44935,0.00109179,0.0155712,1868,1394,45.9985,-22.7909
651,-370,45.9325,21.9031,-0.000416367,0.000481483,-0.000171267,0.000513043,-0.000447928,-1.38857,0.000555241,0.0132767,1875,1394,45.9325,-21.9031
658,-370,45.8741,21.0483,0.000442282,0.000344388,-0.000357455,0.000754125,3.25447e-05,-0.717355,0.000492261,0.0137654,1882,1394,45.8742,-21.0483
665,-370,45.8226,20.1805,0.00139776,0.000312899,-0.000696471,0.00173811,-2.74518e-05,-0.45455,0.001168,0.0154106,1889,1394,45.8226,-20.1805
672,-370,45.7404,19.3082,0.00244397,0.000395767,-0.00116774,0.00297306,-0.000133318,-0.425418,0.00202794,0.0155121,1896,1394,45.7403,-19.3082
679,-370,45.7192,18.4121,0.00360332,0.000589725,-0.00179211,0.00443791,-0.000244865,-0.435835,0.00304351,0.0148408,1903,1394,45.7193,-18.4121
686,-370,45.657,17.5575,0.00489694,0.000925818,-0.00258684,0.00617239,-0.000349631,-0.458075,0.00423628,0.0153849,1910,1394,45.657,-17.5575
693,-370,45.604,16.6356,0.00631699,0.00145539,-0.00356601,0.00820189,-0.000429505,-0.486243,0.00561657,0.017138,1917,1394,45.6039,-16.6356
700,-370,45.6794,15.6503,0,0,0,0,0,0,0,-1,1924,1394,45.6795,-15.6503
707,-370,39.2391,11.5549,0,0,0,0,0,0,0,-1,1931,1394,39.2392,-11.555
714,-370,16.9116,5.93018,0,0,0,0,0,0,0,-1,1938,1394,16.9116,-5.93014
721,-370,17.2007,4.69153,0,0,0,0,0,0,0,-1,1945,1394,17.2007,-4.69158
728,-370,20.5315,-0.313354,0,0,0,0,0,0,0,-1,1952,1394,20.5315,0.313332
735,-370,22.3652,0.233398,0,0,0,0,0,0,0,-1,1959,1394,22.3652,-0.233355
742,-370,24.1989,0.780029,0,0,0,0,0,0,0,-1,1966,1394,24.1989,-0.780041
749,-370,0,0,0,0,0,0,0,0,0,-1,1973,1394,0,0
756,-370,0,0,0,0,0,0,0,0,0,-1,1980,1394,0,0
763,-370,0,0,0,0,0,0,0,0,0,-1,1987,1394,0,0
770,-370,0,0,0,0,0,0,0,0,0,-1,1994,1394,0,0
777,-370,0,0,0,0,0,0,0,0,0,-1,2001,1394,0,0
784,-370,0,0,0,0,0,0,0,0,0,-1,2008,1394,0,0
791,-370,0,0,0,0,0,0,0,0,0,-1,2015,1394,0,0
798,-370,0,0,0,0,0,0,0,0,0,-1,2022,1394,0,0
805,-370,0,0,0,0,0,0,0,0,0,-1,2029,1394,0,0
812,-370,0,0,0,0,0,0,0,0,0,-1,2036,1394,0,0
-700,-377,0,0,0,0,0,0,0,0,0,-1,524,1401,0,0
-693,-377,0,0,0,0,0,0,0,0,0,-1,531,1401,0,0
-686,-377,0,0,0,0,0,0,0,0,0,-1,538,1401,0,0
-679,-377,0,0,0,0,0,0,0,0,0,-1,545,1401,0,0
-672,-377,0,0,0,0,0,0,0,0,0,-1,552,1401,0,0
-665,-377,0,0,0,0,0,0,0,0,0,-1,559,1401,0,0
-658,-377,0,0,0,0,0,0,0,0,0,-1,566,1401,0,0
-651,-377,0,0,0,0,0,0,0,0,0,-1,573,1401,0,0
-644,-377,0,0,0,0,0,0,0,0,0,-1,580,1401,0,0
-637,-377,0,0,0,0,0,0,0,0,0,-1,587,1401,0,0
-630,-377,0,0,0,0,0,0,0,0,0,-1,594,1401,0,0
-623,-377,0,0,0,0,0,0,0,0,0,-1,601,1401,0,0
-616,-377,-9.43915,-2.4906,0,0,0,0,0,0,0,-1,608,1401,-9.43915,2.49062
-609,-377,-7.2821,-1.35278,0,0,0,0,0,0,0,-1,615,1401,-7.28208,1.35279
-602,-377,-14.9736,3.98279,0,0,0,0,0,0,0,-1,622,1401,-14.9737,-3.98276
-595,-377,-6.9082,1.18201,0,0,0,0,0,0,0,-1,629,1401,-6.90822,-1.18204
-588,-377,-12.8003,3.44751,0,0,0,0,0,0,0,-1,636,1401,-12.8003,-3.44754
-581,-377,-11.8243,6.21521,0,0,0,0,0,0,0,-1,643,1401,-11.8244,-6.21519
-574,-377,-12.2761,6.60547,0,0,0,0,0,0,0,-1,650,1401,-12.2761,-6.60552
-567,-377,-13.4844,7.41931,0,0,0,0,0,0,0,-1,657,1401,-13.4845,-7.41926
-560,-377,-27.764,16.6797,0,0,0,0,0,0,0,-1,664,1401,-27.764,-16.6797
-553,-377,-27.6094,17.8024,0.00587403,0.00272082,0.00326354,0.00792183,0.000673013,0.560381,0.00507179,0.0204936,671,1401,-27.6094,-17.8023
-546,-377,-27.6382,18.7971,0.00481563,0.00192938,0.00260347,0.00634919,0.000395824,0.532326,0.00410722,0.0162771,678,1401,-27.6382,-18.7971
-539,-377,-27.6662,19.6398,0.0040648,0.00130631,0.00212584,0.00521963,0.000151478,0.497633,0.00343037,0.0198283,685,1401,-27.6662,-19.6398
-532,-377,-27.7574,20.4968,0.00361179,0.000831852,0.00179861,0.00449493,-5.12856e-05,0.45643,0.00301386,0.0216236,692,1401,-27.7574,-20.4969
-525,-377,-27.7493,21.4952,0.00340095,0.000481353,0.00159651,0.00410445,-0.000222149,0.41505,0.00281327,0.0268603,699,1401,-27.7493,-21.4952
-518,-377,-27.822,22.395,0.00339123,0.000242427,0.00150587,0.00399545,-0.00036179,0.381576,0.00279206,0.0179723,706,1401,-27.822,-22.395
-511,-377,-27.8635,23.3054,0.00358887,0.000117138,0.00152592,0.00416421,-0.000458199,0.36056,0.00294079,0.0123531,713,1401,-27.8635,-23.3054
-504,-377,-27.9366,24.2438,0.00404158,0.00017556,0.00168685,0.00467411,-0.000456968,0.35875,0.00327903,0.0168631,720,1401,-27.9366,-24.2438
-497,-377,-27.9823,25.1632,0,0,0,0,0,0,0,-1,727,1401,-27.9823,-25.1632
-490,-377,-8.88409,10.1245,0,0,0,0,0,0,0,-1,734,1401,-8.8841,-10.1245
-483,-377,-5.6524,5.07324,0,0,0,0,0,0,0,-1,741,1401,-5.6524,-5.07325
-476,-377,-6.11682,5.10535,0,0,0,0,0,0,0,-1,748,1401,-6.11681,-5.10537
-469,-377,-10.3211,1.9281,0,0,0,0,0,0,0,-1,755,1401,-10.3211,-1.92808
-462,-377,-9.2204,1.0022,0,0,0,0,0,0,0,-1,762,1401,-9.22039,-1.00218
-455,-377,-8.11969,0.0762939,0,0,0,0,0,0,0,-1,769,1401,-8.11968,-0.0762759
-448,-377,-9.05334,0.877319,0,0,0,0,0,0,0,-1,776,1401,-9.05332,-0.877324
-441,-377,-11.212,0.763428,0,0,0,0,0,0,0,-1,783,1401,-11.212,-0.763415
-434,-377,-11.0984,0.996216,0,0,0,0,0,0,0,-1,790,1401,-11.0984,-0.996265
-427,-377,-11.1733,1.25732,0,0,0,0,0,0,0,-1,797,1401,-11.1733,-1.25732
-420,-377,0,0,0,0,0,0,0,0,0,-1,804,1401,0,0
-413,-377,0,0,0,0,0,0,0,0,0,-1,811,1401,0,0
-406,-377,0,0,0,0,0,0,0,0,0,-1,818,1401,0,0
-399,-377,0,0,0,0,0,0,0,0,0,-1,825,1401,0,0
-392,-377,0,0,0,0,0,0,0,0,0,-1,832,1401,0,0
-385,-377,0,0,0,0,0,0,0,0,0,-1,839,1401,0,0
-378,-377,0,0,0,0,0,0,0,0,0,-1,846,1401,0,0
-371,-377,0,0,0,0,0,0,0,0,0,-1,853,1401,0,0
-364,-377,0,0,0,0,0,0,0,0,0,-1,860,1401,0,0
-357,-377,0,0,0,0,0,0,0,0,0,-1,867,1401,0,0
-350,-377,0,0,0,0,0,0,0,0,0,-1,874,1401,0,0
-343,-377,0,0,0,0,0,0,0,0,0,-1,881,1401,0,0
-336,-377,0,0,0,0,0,0,0,0,0,-1,888,1401,0,0
-329,-377,0,0,0,0,0,0,0,0,0,-1,895,1401,0,0
-322,-377,0,0,0,0,0,0,0,0,0,-1,902,1401,0,0
-315,-377,0,0,0,0,0,0,0,0,0,-1,909,1401,0,0
-308,-377,0,0,0,0,0,0,0,0,0,-1,916,1401,0,0
-301,-377,0,0,0,0,0,0,0,0,0,-1,923,1401,0,0
-294,-377,0,0,0,0,0,0,0,0,0,-1,930,1401,0,0
-287,-377,0,0,0,0,0,0,0,0,0,-1,937,1401,0,0
-280,-377,0,0,0,0,0,0,0,0,0,-1,944,1401,0,0
-273,-377,0,0,0,0,0,0,0,0,0,-1,951,1401,0,0
-266,-377,0,0,0,0,0,0,0,0,0,-1,958,1401,0,0
-259,-377,0,0,0,0,0,0,0,0,0,-1,965,1401,0,0
-252,-377,0,0,0,0,0,0,0,0,0,-1,972,1401,0,0
-245,-377,0,0,0,0,0,0,0,0,0,-1,979,1401,0,0
-238,-377,0,0,0,0,0,0,0,0,0,-1,986,1401,0,0
-231,-377,0,0,0,0,0,0,0,0,0,-1,993,1401,0,0
-224,-377,0,0,0,0,0,0,0,0,0,-1,1000,1401,0,0
-217,-377,0,0,0,0,0,0,0,0,0,-1,1007,1401,0,0
-210,-377,0,0,0,0,0,0,0,0,0,-1,1014,1401,0,0
-203,-377,0,0,0,0,0,0,0,0,0,-1,1021,1401,0,0
-196,-377,0,0,0,0,0,0,0,0,0,-1,1028,1401,0,0
-189,-377,0,0,0,0,0,0,0,0,0,-1,1035,1401,0,0
-182,-377,0,0,0,0,0,0,0,0,0,-1,1042,1401,0,0
-175,-377,0,0,0,0,0,0,0,0,0,-1,1049,1401,0,0
-168,-377,0,0,0,0,0,0,0,0,0,-1,1056,1401,0,0
-161,-377,0,0,0,0,0,0,0,0,0,-1,1063,1401,0,0
-154,-377,0,0,0,0,0,0,0,0,0,-1,1070,1401,0,0
-147,-377,0,0,0,0,0,0,0,0,0,-1,1077,1401,0,0
-140,-377,0,0,0,0,0,0,0,0,0,-1,1084,1401,0,0
-133,-377,0,0,0,0,0,0,0,0,0,-1,1091,1401,0,0
-126,-377,0,0,0,0,0,0,0,0,0,-1,1098,1401,0,0
-119,-377,0,0,0,0,0,0,0,0,0,-1,1105,1401,0,0
-112,-377,0,0,0,0,0,0,0,0,0,-1,1112,1401,0,0
-105,-377,0,0,0,0,0,0,0,0,0,-1,1119,1401,0,0
-98,-377,0,0,0,0,0,0,0,0,0,-1,1126,1401,0,0
-91,-377,0,0,0,0,0,0,0,0,0,-1,1133,1401,0,0
-84,-377,0,0,0,0,0,0,0,0,0,-1,1140,1401,0,0
-77,-377,0,0,0,0,0,0,0,0,0,-1,1147,1401,0,0
-70,-377,0,0,0,0,0,0,0,0,0,-1,1154,1401,0,0
-63,-377,0,0,0,0,0,0,0,0,0,-1,1161,1401,0,0
-56,-377,0,0,0,0,0,0,0,0,0,-1,1168,1401,0,0
-49,-377,0,0,0,0,0,0,0,0,0,-1,1175,1401,0,0
-42,-377,0,0,0,0,0,0,0,0,0,-1,1182,1401,0,0
-35,-377,0,0,0,0,0,0,0,0,0,-1,1189,1401,0,0
-28,-377,0,0,0,0,0,0,0,0,0,-1,1196,1401,0,0
-21,-377,0,0,0,0,0,0,0,0,0,-1,1203,1401,0,0
-14,-377,0,0,0,0,0,0,0,0,0,-1,1210,1401,0,0
-7,-377,0,0,0,0,0,0,0,0,0,-1,1217,1401,0,0
0,-377,0,0,0,0,0,0,0,0,0,-1,1224,1401,0,0
7,-377,0,0,0,0,0,0,0,0,0,-1,1231,1401,0,0
14,-377,0,0,0,0,0,0,0,0,0,-1,1238,1401,0,0
21,-377,0,0,0,0,0,0,0,0,0,-1,1245,1401,0,0
28,-377,0,0,0,0,0,0,0,0,0,-1,1252,1401,0,0
35,-377,0,0,0,0,0,0,0,0,0,-1,1259,1401,0,0
42,-377,0,0,0,0,0,0,0,0,0,-1,1266,1401,0,0
49,-377,0,0,0,0,0,0,0,0,0,-1,1273,1401,0,0
56,-377,0,0,0,0,0,0,0,0,0,-1,1280,1401,0,0
63,-377,0,0,0,0,0,0,0,0,0,-1,1287,1401,0,0
70,-377,0,0,0,0,0,0,0,0,0,-1,1294,1401,0,0
77,-377,0,0,0,0,0,0,0,0,0,-1,1301,1401,0,0
84,-377,0,0,0,0,0,0,0,0,0,-1,1308,1401,0,0
91,-377,0,0,0,0,0,0,0,0,0,-1,1315,1401,0,0
98,-377,0,0,0,0,0,0,0,0,0,-1,1322,1401,0,0
105,-377,0,0,0,0,0,0,0,0,0,-1,1329,1401,0,0
112,-377,0,0,0,0,0,0,0,0,0,-1,1336,1401,0,0
119,-377,0,0,0,0,0,0,0,0,0,-1,1343,1401,0,0
126,-377,0,0,0,0,0,0,0,0,0,-1,1350,1401,0,0
133,-377,0,0,0,0,0,0,0,0,0,-1,1357,1401,0,0
140,-377,0,0,0,0,0,0,0,0,0,-1,1364,1401,0,0
147,-377,0,0,0,0,0,0,0,0,0,-1,1371,1401,0,0
154,-377,0,0,0,0,0,0,0,0,0,-1,1378,1401,0,0
161,-377,0,0,0,0,0,0,0,0,0,-1,1385,1401,0,0
168,-377,0,0,0,0,0,0,0,0,0,-1,1392,1401,0,0
175,-377,0,0,0,0,0,0,0,0,0,-1,1399,1401,0,0
182,-377,0,0,0,0,0,0,0,0,0,-1,1406,1401,0,0
189,-377,0,0,0,0,0,0,0,0,0,-1,1413,1401,0,0
196,-377,0,0,0,0,0,0,0,0,0,-1,1420,1401,0,0
203,-377,0,0,0,0,0,0,0,0,0,-1,1427,1401,0,0
210,-377,0,0,0,0,0,0,0,0,0,-1,1434,1401,0,0
217,-377,0,0,0,0,0,0,0,0,0,-1,1441,1401,0,0
224,-377,0,0,0,0,0,0,0,0,0,-1,1448,1401,0,0
231,-377,0,0,0,0,0,0,0,0,0,-1,1455,1401,0,0
238,-377,0,0,0,0,0,0,0,0,0,-1,1462,1401,0,0
245,-377,0,0,0,0,0,0,0,0,0,-1,1469,1401,0,0
252,-377,0,0,0,0,0,0,0,0,0,-1,1476,1401,0,0
259,-377,0,0,0,0,0,0,0,0,0,-1,1483,1401,0,0
266,-377,0,0,0,0,0,0,0,0,0,-1,1490,1401,0,0
273,-377,0,0,0,0,0,0,0,0,0,-1,1497,1401,0,0
280,-377,0,0,0,0,0,0,0,0,0,-1,1504,1401,0,0
287,-377,0,0,0,0,0,0,0,0,0,-1,1511,1401,0,0
294,-377,0,0,0,0,0,0,0,0,0,-1,1518,1401,0,0
301,-377,0,0,0,0,0,0,0,0,0,-1,1525,1401,0,0
308,-377,0,0,0,0,0,0,0,0,0,-1,1532,1401,0,0
315,-377,0,0,0,0,0,0,0,0,0,-1,1539,1401,0,0
322,-377,0,0,0,0,0,0,0,0,0,-1,1546,1401,0,0
329,-377,0,0,0,0,0,0,0,0,0,-1,1553,1401,0,0
336,-377,0,0,0,0,0,0,0,0,0,-1,1560,1401,0,0
343,-377,0,0,0,0,0,0,0,0,0,-1,1567,1401,0,0
350,-377,0,0,0,0,0,0,0,0,0,-1,1574,1401,0,0
357,-377,0,0,0,0,0,0,0,0,0,-1,1581,1401,0,0
364,-377,0,0,0,0,0,0,0,0,0,-1,1588,1401,0,0
371,-377,0,0,0,0,0,0,0,0,0,-1,1595,1401,0,0
378,-377,0,0,0,0,0,0,0,0,0,-1,1602,1401,0,0
385,-377,0,0,0,0,0,0,0,0,0,-1,1609,1401,0,0
392,-377,0,0,0,0,0,0,0,0,0,-1,1616,1401,0,0
399,-377,0,0,0,0,0,0,0,0,0,-1,1623,1401,0,0
406,-377,0,0,0,0,0,0,0,0,0,-1,1630,1401,0,0
413,-377,0,0,0,0,0,0,0,0,0,-1,1637,1401,0,0
420,-377,0,0,0,0,0,0,0,0,0,-1,1644,1401,0,0
427,-377,0,0,0,0,0,0,0,0,0,-1,1651,1401,0,0
434,-377,0,0,0,0,0,0,0,0,0,-1,1658,1401,0,0
441,-377,0,0,0,0,0,0,0,0,0,-1,1665,1401,0,0
448,-377,0,0,0,0,0,0,0,0,0,-1,1672,1401,0,0
455,-377,0,0,0,0,0,0,0,0,0,-1,1679,1401,0,0
462,-377,0,0,0,0,0,0,0,0,0,-1,1686,1401,0,0
469,-377,0,0,0,0,0,0,0,0,0,-1,1693,1401,0,0
476,-377,0,0,0,0,0,0,0,0,0,-1,1700,1401,0,0
483,-377,0,0,0,0,0,0,0,0,0,-1,1707,1401,0,0
490,-377,0,0,0,0,0,0,0,0,0,-1,1714,1401,0,0
497,-377,0,0,0,0,0,0,0,0,0,-1,1721,1401,0,0
504,-377,0,0,0,0,0,0,0,0,0,-1,1728,1401,0,0
511,-377,0,0,0,0,0,0,0,0,0,-1,1735,1401,0,0
518,-377,0,0,0,0,0,0,0,0,0,-1,1742,1401,0,0
525,-377,0,0,0,0,0,0,0,0,0,-1,1749,1401,0,0
532,-377,0,0,0,0,0,0,0,0,0,-1,1756,1401,0,0
539,-377,0,0,0,0,0,0,0,0,0,-1,1763,1401,0,0
546,-377,27.8485,2.34094,0,0,0,0,0,0,0,-1,1770,1401,27.8486,-2.34091
553,-377,61.8907,2.39148,0,0,0,0,0,0,0,-1,1777,1401,61.8908,-2.39149
560,-377,38.3577,-2.15015,0,0,0,0,0,0,0,-1,1784,1401,38.3576,2.1501
567,-377,38.4889,-0.285645,0,0,0,0,0,0,0,-1,1791,1401,38.4889,0.2857
574,-377,38.6221,1.61694,0,0,0,0,0,0,0,-1,1798,1401,38.6221,-1.61689
581,-377,39.1818,3.76367,0,0,0,0,0,0,0,-1,1805,1401,39.1818,-3.76366
588,-377,25.882,4.35217,0,0,0,0,0,0,0,-1,1812,1401,25.8819,-4.3522
595,-377,25.5392,5.11804,0,0,0,0,0,0,0,-1,1819,1401,25.5392,-5.11808
602,-377,24.816,5.79126,0,0,0,0,0,0,0,-1,1826,1401,24.816,-5.79124
609,-377,15.0223,4.76135,0,0,0,0,0,0,0,-1,1833,1401,15.0224,-4.76129
616,-377,14.1842,5.78992,0,0,0,0,0,0,0,-1,1840,1401,14.1842,-5.78987
623,-377,15.8248,8.76721,0,0,0,0,0,0,0,-1,1847,1401,15.8248,-8.76725
630,-377,37.4343,20.0704,0,0,0,0,0,0,0,-1,1854,1401,37.4344,-20.0704
637,-377,45.1581,23.7817,0,0,0,0,0,0,0,-1,1861,1401,45.1581,-23.7817
644,-377,45.1261,22.8538,-0.000899569,0.000507278,-8.1763e-05,0.000512014,-0.000904305,-1.51294,0.000828102,0.0144982,1868,1401,45.1261,-22.8537
651,-377,45.0496,21.9531,-0.000155626,0.000315705,-0.000158588,0.000364096,-0.000204017,-1.27463,0.000332312,0.0142502,1875,1401,45.0496,-21.9531
658,-377,44.978,21.098,0.000782207,0.000239103,-0.000429163,0.00101851,2.79536e-06,-0.503322,0.000678079,0.0165801,1882,1401,44.978,-21.098
665,-377,44.9626,20.2134,0.00182867,0.000248631,-0.000843784,0.00219455,-0.000117248,-0.409146,0.00150364,0.020573,1889,1401,44.9626,-20.2134
672,-377,44.9028,19.332,0.00300574,0.000344878,-0.00140259,0.00360852,-0.000257901,-0.405897,0.00249609,0.0190113,1896,1401,44.9029,-19.3321
679,-377,44.8129,18.4498,0.00432363,0.000538714,-0.00212977,0.00528026,-0.000417916,-0.422164,0.00366743,0.0186579,1903,1401,44.8129,-18.4498
686,-377,44.7693,17.6204,0.00581928,0.00085302,-0.00305176,0.00727051,-0.000598209,-0.443887,0.00505822,0.016298,1910,1401,44.7693,-17.6203
693,-377,44.845,16.6843,0.00748944,0.00135553,-0.00420478,0.00962694,-0.000781979,-0.470306,0.00669386,0.0318362,1917,1401,44.8449,-16.6844
700,-377,45.0504,15.5745,0,0,0,0,0,0,0,-1,1924,1401,45.0505,-15.5745
707,-377,28.6234,9.18152,0,0,0,0,0,0,0,-1,1931,1401,28.6234,-9.18151
714,-377,16.5369,5.45959,0,0,0,0,0,0,0,-1,1938,1401,16.5369,-5.4596
721,-377,17.0913,5.42529,0,0,0,0,0,0,0,-1,1945,1401,17.0914,-5.42529
728,-377,14.5396,2.79724,0,0,0,0,0,0,0,-1,1952,1401,14.5396,-2.7972
735,-377,23.2977,-0.991089,0,0,0,0,0,0,0,-1,1959,1401,23.2978,0.991076
742,-377,0,0,0,0,0,0,0,0,0,-1,1966,1401,0,0
749,-377,0,0,0,0,0,0,0,0,0,-1,1973,1401,0,0
756,-377,0,0,0,0,0,0,0,0,0,-1,1980,1401,0,0
763,-377,0,0,0,0,0,0,0,0,0,-1,1987,1401,0,0
770,-377,0,0,0,0,0,0,0,0,0,-1,1994,1401,0,0
777,-377,0,0,0,0,0,0,0,0,0,-1,2001,1401,0,0
784,-377,0,0,0,0,0,0,0,0,0,-1,2008,1401,0,0
791,-377,0,0,0,0,0,0,0,0,0,-1,2015,1401,0,0
798,-377,0,0,0,0,0,0,0,0,0,-1,2022,1401,0,0
805,-377,0,0,0,0,0,0,0,0,0,-1,2029,1401,0,0
812,-377,0,0,0,0,0,0,0,0,0,-1,2036,1401,0,0
-700,-384,0,0,0,0,0,0,0,0,0,-1,524,1408,0,0
-693,-384,0,0,0,0,0,0,0,0,0,-1,531,1408,0,0
-686,-384,0,0,0,0,0,0,0,0,0,-1,538,1408,0,0
-679,-384,0,0,0,0,0,0,0,0,0,-1,545,1408,0,0
-672,-384,0,0,0,0,0,0,0,0,0,-1,552,1408,0,0
-665,-384,0,0,0,0,0,0,0,0,0,-1,559,1408,0,0
-658,-384,0,0,0,0,0,0,0,0,0,-1,566,1408,0,0
-651,-384,0,0,0,0,0,0,0,0,0,-1,573,1408,0,0
-644,-384,0,0,0,0,0,0,0,0,0,-1,580,1408,0,0
-637,-384,0,0,0,0,0,0,0,0,0,-1,587,1408,0,0
-630,-384,0,0,0,0,0,0,0,0,0,-1,594,1408,0,0
-623,-384,0,0,0,0,0,0,0,0,0,-1,601,1408,0,0
-616,-384,-10.019,-3.36646,0,0,0,0,0,0,0,-1,608,1408,-10.019,3.36648
-609,-384,-7.72357,-2.3418,0,0,0,0,0,0,0,-1,615,1408,-7.72358,2.34182
-602,-384,-11.7632,-2.85156,0,0,0,0,0,0,0,-1,622,1408,-11.7632,2.85157
-595,-384,-10.2217,2.8855,0,0,0,0,0,0,0,-1,629,1408,-10.2218,-2.88548
-588,-384,-12.1653,2.29041,0,0,0,0,0,0,0,-1,636,1408,-12.1654,-2.29038
-581,-384,-11.9297,3.60376,0,0,0,0,0,0,0,-1,643,1408,-11.9298,-3.6038
-574,-384,-11.8677,6.02722,0,0,0,0,0,0,0,-1,650,1408,-11.8677,-6.02722
-567,-384,-12.0743,7.04639,0,0,0,0,0,0,0,-1,657,1408,-12.0743,-7.04641
-560,-384,-19.9478,11.6345,0,0,0,0,0,0,0,-1,664,1408,-19.9478,-11.6345
-553,-384,-26.7217,17.8398,0,0,0,0,0,0,0,-1,671,1408,-26.7217,-17.8398
-546,-384,-26.7326,18.8552,0.00519961,0.00237215,0.00302305,0.00712317,0.000448599,0.566681,0.00460653,0.0154491,678,1408,-26.7326,-18.8552
-539,-384,-26.8187,19.7266,0.0042213,0.00166189,0.00237517,0.00563957,0.000243626,0.538302,0.00368119,0.0171545,685,1408,-26.8187,-19.7266
-532,-384,-26.8434,20.5695,0.00356512,0.00110781,0.00189387,0.00459397,7.8958e-05,0.497649,0.00303667,0.0238768,692,1408,-26.8434,-20.5695
-525,-384,-26.8457,21.5676,0.0031723,0.00069225,0.00155138,0.00391833,-5.37839e-05,0.448239,0.00263033,0.0228846,699,1408,-26.8457,-21.5676
-518,-384,-26.9176,22.4919,0.00297771,0.000381396,0.00132543,0.00353481,-0.000175706,0.397897,0.00241724,0.0134913,706,1408,-26.9176,-22.492
-511,-384,-26.9844,23.3951,0.00297611,0.000164268,0.00120789,0.00342373,-0.000283353,0.354891,0.00238256,0.010534,713,1408,-26.9845,-23.3951
-504,-384,-27.0252,24.3016,0.00318905,8.87957e-05,0.00122137,0.00361241,-0.000334563,0.333665,0.00252719,0.0127151,720,1408,-27.0252,-24.3016
-497,-384,-27.0757,25.2198,0,0,0,0,0,0,0,-1,727,1408,-27.0757,-25.2199
-490,-384,-25.8657,25.3778,0,0,0,0,0,0,0,-1,734,1408,-25.8656,-25.3778
-483,-384,-6.26471,7.61194,0,0,0,0,0,0,0,-1,741,1408,-6.26469,-7.61191
-476,-384,-6.02734,5.67761,0,0,0,0,0,0,0,-1,748,1408,-6.02736,-5.6776
-469,-384,-10.206,2.63721,0,0,0,0,0,0,0,-1,755,1408,-10.206,-2.6372
-462,-384,-9.04291,1.43542,0,0,0,0,0,0,0,-1,762,1408,-9.04293,-1.43545
-455,-384,-7.87988,0.233765,0,0,0,0,0,0,0,-1,769,1408,-7.87986,-0.233709
-448,-384,-9.35529,7.19226,0,0,0,0,0,0,0,-1,776,1408,-9.35531,-7.19226
-441,-384,-10.4697,1.79004,0,0,0,0,0,0,0,-1,783,1408,-10.4697,-1.79003
-434,-384,-10.6449,0.552246,0,0,0,0,0,0,0,-1,790,1408,-10.6449,-0.552216
-427,-384,-10.968,1.10583,0,0,0,0,0,0,0,-1,797,1408,-10.968,-1.10588
-420,-384,-12.5607,4.54858,0,0,0,0,0,0,0,-1,804,1408,-12.5607,-4.54859
-413,-384,0,0,0,0,0,0,0,0,0,-1,811,1408,0,0
-406,-384,0,0,0,0,0,0,0,0,0,-1,818,1408,0,0
-399,-384,0,0,0,0,0,0,0,0,0,-1,825,1408,0,0
-392,-384,0,0,0,0,0,0,0,0,0,-1,832,1408,0,0
-385,-384,0,0,0,0,0,0,0,0,0,-1,839,1408,0,0
-378,-384,0,0,0,0,0,0,0,0,0,-1,846,1408,0,0
-371,-384,0,0,0,0,0,0,0,0,0,-1,853,1408,0,0
-364,-384,0,0,0,0,0,0,0,0,0,-1,860,1408,0,0
-357,-384,0,0,0,0,0,0,0,0,0,-1,867,1408,0,0
-350,-384,0,0,0,0,0,0,0,0,0,-1,874,1408,0,0
-343,-384,0,0,0,0,0,0,0,0,0,-1,881,1408,0,0
-336,-384,0,0,0,0,0,0,0,0,0,-1,888,1408,0,0
-329,-384,0,0,0,0,0,0,0,0,0,-1,895,1408,0,0
-322,-384,0,0,0,0,0,0,0,0,0,-1,902,1408,0,0
-315,-384,0,0,0,0,0,0,0,0,0,-1,909,1408,0,0
-308,-384,0,0,0,0,0,0,0,0,0,-1,916,1408,0,0
-301,-384,0,0,0,0,0,0,0,0,0,-1,923,1408,0,0
-294,-384,0,0,0,0,0,0,0,0,0,-1,930,1408,0,0
-287,-384,0,0,0,0,0,0,0,0,0,-1,937,1408,0,0
-280,-384,0,0,0,0,0,0,0,0,0,-1,944,1408,0,0
-273,-384,0,0,0,0,0,0,0,0,0,-1,951,1408,0,0
-266,-384,0,0,0,0,0,0,0,0,0,-1,958,1408,0,0
-259,-384,0,0,0,0,0,0,0,0,0,-1,965,1408,0,0
-252,-384,0,0,0,0,0,0,0,0,0,-1,972,1408,0,0
-245,-384,0,0,0,0,0,0,0,0,0,-1,979,1408,0,0
-238,-384,0,0,0,0,0,0,0,0,0,-1,986,1408,0,0
-231,-384,0,0,0,0,0,0,0,0,0,-1,993,1408,0,0
-224,-384,0,0,0,0,0,0,0,0,0,-1,1000,1408,0,0
-217,-384,0,0,0,0,0,0,0,0,0,-1,1007,1408,0,0
-210,-384,0,0,0,0,0,0,0,0,0,-1,1014,1408,0,0
-203,-384,0,0,0,0,0,0,0,0,0,-1,1021,1408,0,0
-196,-384,0,0,0,0,0,0,0,0,0,-1,1028,1408,0,0
-189,-384,0,0,0,0,0,0,0,0,0,-1,1035,1408,0,0
-182,-384,0,0,0,0,0,0,0,0,0,-1,1042,1408,0,0
-175,-384,0,0,0,0,0,0,0,0,0,-1,1049,1408,0,0
-168,-384,0,0,0,0,0,0,0,0,0,-1,1056,1408,0,0
-161,-384,0,0,0,0,0,0,0,0,0,-1,1063,1408,0,0
-154,-384,0,0,0,0,0,0,0,0,0,-1,1070,1408,0,0
-147,-384,0,0,0,0,0,0,0,0,0,-1,1077,1408,0,0
-140,-384,0,0,0,0,0,0,0,0,0,-1,1084,1408,0,0
-133,-384,0,0,0,0,0,0,0,0,0,-1,1091,1408,0,0
-126,-384,0,0,0,0,0,0,0,0,0,-1,1098,1408,0,0
-119,-384,0,0,0,0,0,0,0,0,0,-1,1105,1408,0,0
-112,-384,0,0,0,0,0,0,0,0,0,-1,1112,1408,0,0
-105,-384,0,0,0,0,0,0,0,0,0,-1,1119,1408,0,0
-98,-384,0,0,0,0,0,0,0,0,0,-1,1126,1408,0,0
-91,-384,0,0,0,0,0,0,0,0,0,-1,1133,1408,0,0
-84,-384,0,0,0,0,0,0,0,0,0,-1,1140,1408,0,0
-77,-384,0,0,0,0,0,0,0,0,0,-1,1147,1408,0,0
-70,-384,0,0,0,0,0,0,0,0,0,-1,1154,1408,0,0
-63,-384,0,0,0,0,0,0,0,0,0,-1,1161,1408,0,0
-56,-384,0,0,0,0,0,0,0,0,0,-1,1168,1408,0,0
-49,-384,0,0,0,0,0,0,0,0,0,-1,1175,1408,0,0
-42,-384,0,0,0,0,0,0,0,0,0,-1,1182,1408,0,0
-35,-384,0,0,0,0,0,0,0,0,0,-1,1189,1408,0,0
-28,-384,0,0,0,0,0,0,0,0,0,-1,1196,1408,0,0
-21,-384,0,0,0,0,0,0,0,0,0,-1,1203,1408,0,0
-14,-384,0,0,0,0,0,0,0,0,0,-1,1210,1408,0,0
-7,-384,0,0,0,0,0,0,0,0,0,-1,1217,1408,0,0
0,-384,0,0,0,0,0,0,0,0,0,-1,1224,1408,0,0
7,-384,0,0,0,0,0,0,0,0,0,-1,1231,1408,0,0
14,-384,0,0,0,0,0,0,0,0,0,-1,1238,1408,0,0
21,-384,0,0,0,0,0,0,0,0,0,-1,1245,1408,0,0
28,-384,0,0,0,0,0,0,0,0,0,-1,1252,1408,0,0
35,-384,0,0,0,0,0,0,0,0,0,-1,1259,1408,0,0
42,-384,0,0,0,0,0,0,0,0,0,-1,1266,1408,0,0
49,-384,0,0,0,0,0,0,0,0,0,-1,1273,1408,0,0
56,-384,0,0,0,0,0,0,0,0,0,-1,1280,1408,0,0
63,-384,0,0,0,0,0,0,0,0,0,-1,1287,1408,0,0
70,-384,0,0,0,0,0,0,0,0,0,-1,1294,1408,0,0
77,-384,0,0,0,0,0,0,0,0,0,-1,1301,1408,0,0
84,-384,0,0,0,0,0,0,0,0,0,-1,1308,1408,0,0
91,-384,0,0,0,0,0,0,0,0,0,-1,1315,1408,0,0
98,-384,0,0,0,0,0,0,0,0,0,-1,1322,1408,0,0
105,-384,0,0,0,0,0,0,0,0,0,-1,1329,1408,0,0
112,-384,0,0,0,0,0,0,0,0,0,-1,1336,1408,0,0
119,-384,0,0,0,0,0,0,0,0,0,-1,1343,1408,0,0
126,-384,0,0,0,0,0,0,0,0,0,-1,1350,1408,0,0
133,-384,0,0,0,0,0,0,0,0,0,-1,1357,1408,0,0
140,-384,0,0,0,0,0,0,0,0,0,-1,1364,1408,0,0
147,-384,0,0,0,0,0,0,0,0,0,-1,1371,1408,0,0
154,-384,0,0,0,0,0,0,0,0,0,-1,1378,1408,0,0
161,-384,0,0,0,0,0,0,0,0,0,-1,1385,1408,0,0
168,-384,0,0,0,0,0,0,0,0,0,-1,1392,1408,0,0
175,-384,0,0,0,0,0,0,0,0,0,-1,1399,1408,0,0
182,-384,0,0,0,0,0,0,0,0,0,-1,1406,1408,0,0
189,-384,0,0,0,0,0,0,0,0,0,-1,1413,1408,0,0
196,-384,0,0,0,0,0,0,0,0,0,-1,1420,1408,0,0
203,-384,0,0,0,0,0,0,0,0,0,-1,1427,1408,0,0
210,-384,0,0,0,0,0,0,0,0,0,-1,1434,1408,0,0
217,-384,0,0,0,0,0,0,0,0,0,-1,1441,1408,0,0
224,-384,0,0,0,0,0,0,0,0,0,-1,1448,1408,0,0
231,-384,0,0,0,0,0,0,0,0,0,-1,1455,1408,0,0
238,-384,0,0,0,0,0,0,0,0,0,-1,1462,1408,0,0
245,-384,0,0,0,0,0,0,0,0,0,-1,1469,1408,0,0
252,-384,0,0,0,0,0,0,0,0,0,-1,1476,1408,0,0
259,-384,0,0,0,0,0,0,0,0,0,-1,1483,1408,0,0
266,-384,0,0,0,0,0,0,0,0,0,-1,1490,1408,0,0
273,-384,0,0,0,0,0,0,0,0,0,-1,1497,1408,0,0
280,-384,0,0,0,0,0,0,0,0,0,-1,1504,1408,0,0
287,-384,0,0,0,0,0,0,0,0,0,-1,1511,1408,0,0
294,-384,0,0,0,0,0,0,0,0,0,-1,1518,1408,0,0
301,-384,0,0,0,0,0,0,0,0,0,-1,1525,1408,0,0
308,-384,0,0,0,0,0,0,0,0,0,-1,1532,1408,0,0
315,-384,0,0,0,0,0,0,0,0,0,-1,1539,1408,0,0
322,-384,0,0,0,0,0,0,0,0,0,-1,1546,1408,0,0
329,-384,0,0,0,0,0,0,0,0,0,-1,1553,1408,0,0
336,-384,0,0,0,0,0,0,0,0,0,-1,1560,1408,0,0
343,-384,0,0,0,0,0,0,0,0,0,-1,1567,1408,0,0
350,-384,0,0,0,0,0,0,0,0,0,-1,1574,1408,0,0
357,-384,0,0,0,0,0,0,0,0,0,-1,1581,1408,0,0
364,-384,0,0,0,0,0,0,0,0,0,-1,1588,1408,0,0
371,-384,0,0,0,0,0,0,0,0,0,-1,1595,1408,0,0
378,-384,0,0,0,0,0,0,0,0,0,-1,1602,1408,0,0
385,-384,0,0,0,0,0,0,0,0,0,-1,1609,1408,0,0
392,-384,0,0,0,0,0,0,0,0,0,-1,1616,1408,0,0
399,-384,0,0,0,0,0,0,0,0,0,-1,1623,1408,0,0
406,-384,0,0,0,0,0,0,0,0,0,-1,1630,1408,0,0
413,-384,0,0,0,0,0,0,0,0,0,-1,1637,1408,0,0
420,-384,0,0,0,0,0,0,0,0,0,-1,1644,1408,0,0
427,-384,0,0,0,0,0,0,0,0,0,-1,1651,1408,0,0
434,-384,0,0,0,0,0,0,0,0,0,-1,1658,1408,0,0
441,-384,0,0,0,0,0,0,0,0,0,-1,1665,1408,0,0
448,-384,0,0,0,0,0,0,0,0,0,-1,1672,1408,0,0
455,-384,0,0,0,0,0,0,0,0,0,-1,1679,1408,0,0
462,-384,0,0,0,0,0,0,0,0,0,-1,1686,1408,0,0
469,-384,0,0,0,0,0,0,0,0,0,-1,1693,1408,0,0
476,-384,0,0,0,0,0,0,0,0,0,-1,1700,1408,0,0
483,-384,0,0,0,0,0,0,0,0,0,-1,1707,1408,0,0
490,-384,0,0,0,0,0,0,0,0,0,-1,1714,1408,0,0
497,-384,0,0,0,0,0,0,0,0,0,-1,1721,1408,0,0
504,-384,0,0,0,0,0,0,0,0,0,-1,1728,1408,0,0
511,-384,0,0,0,0,0,0,0,0,0,-1,1735,1408,0,0
518,-384,0,0,0,0,0,0,0,0,0,-1,1742,1408,0,0
525,-384,0,0,0,0,0,0,0,0,0,-1,1749,1408,0,0
532,-384,0,0,0,0,0,0,0,0,0,-1,1756,1408,0,0
539,-384,27.6886,2.85803,0,0,0,0,0,0,0,-1,1763,1408,27.6886,-2.85807
546,-384,27.5044,2.9425,0,0,0,0,0,0,0,-1,1770,1408,27.5044,-2.94255
553,-384,27.3052,2.78394,0,0,0,0,0,0,0,-1,1777,1408,27.3051,-2.78394
560,-384,26.833,3.19812,0,0,0,0,0,0,0,-1,1784,1408,26.833,-3.19816
567,-384,38.2566,0.109985,0,0,0,0,0,0,0,-1,1791,1408,38.2566,-0.110044
574,-384,38.4003,2.05945,0,0,0,0,0,0,0,-1,1798,1408,38.4003,-2.05949
581,-384,25.819,3.91846,0,0,0,0,0,0,0,-1,1805,1408,25.8189,-3.91848
588,-384,23.3721,4.25439,0,0,0,0,0,0,0,-1,1812,1408,23.3721,-4.25442
595,-384,24.981,5.59595,0,0,0,0,0,0,0,-1,1819,1408,24.981,-5.59598
602,-384,20.6605,4.17261,0,0,0,0,0,0,0,-1,1826,1408,20.6606,-4.17265
609,-384,14.158,5.49475,0,0,0,0,0,0,0,-1,1833,1408,14.158,-5.49474
616,-384,14.7997,7.6908,0,0,0,0,0,0,0,-1,1840,1408,14.7996,-7.69079
623,-384,16.4293,9.58899,0,0,0,0,0,0,0,-1,1847,1408,16.4294,-9.58901
630,-384,44.1853,24.7642,0,0,0,0,0,0,0,-1,1854,1408,44.1853,-24.7641
637,-384,44.2664,23.8207,-0.00109549,0.000511504,-3.48543e-05,0.00051226,-0.00109625,-1.54912,0.000948854,0.0281697,1861,1408,44.2663,-23.8206
644,-384,44.1917,22.9669,-0.00052923,0.000326548,-4.9179e-05,0.000329365,-0.000532047,-1.51358,0.000501904,0.0182008,1868,1408,44.1917,-22.9669
651,-384,44.1267,22.0363,0.000262184,0.000198066,-0.000238169,0.000470442,-1.01919e-05,-0.718497,0.00031708,0.016647,1875,1408,44.1267,-22.0362
658,-384,44.0573,21.147,0.00122727,0.000144563,-0.000578982,0.00147856,-0.000106728,-0.409487,0.00102314,0.0178412,1882,1408,44.0573,-21.147
665,-384,44.0659,20.2772,0.00234215,0.000174317,-0.00106764,0.00277966,-0.00026319,-0.388917,0.00194678,0.0199366,1889,1408,44.0659,-20.2772
672,-384,44.0125,19.3689,0.00361419,0.000278386,-0.0017011,0.00432865,-0.000436069,-0.397625,0.00304156,0.0168676,1896,1408,44.0124,-19.3689
679,-384,43.9362,18.4872,0.00505432,0.000465675,-0.00251197,0.00616205,-0.00064205,-0.415326,0.00433791,0.0161667,1903,1408,43.9361,-18.4872
686,-384,43.8734,17.6436,0.00670019,0.000753578,-0.00352825,0.00834089,-0.000887124,-0.435273,0.00587866,0.016282,1910,1408,43.8734,-17.6435
693,-384,43.9269,16.7205,0,0,0,0,0,0,0,-1,1917,1408,43.9269,-16.7205
700,-384,41.9762,14.4678,0,0,0,0,0,0,0,-1,1924,1408,41.9762,-14.4678
707,-384,17.0566,6.62842,0,0,0,0,0,0,0,-1,1931,1408,17.0567,-6.62848
714,-384,16.038,5.0282,0,0,0,0,0,0,0,-1,1938,1408,16.038,-5.02819
721,-384,13.8843,2.8717,0,0,0,0,0,0,0,-1,1945,1408,13.8843,-2.87171
728,-384,15.4409,6.25745,0,0,0,0,0,0,0,-1,1952,1408,15.4409,-6.2574
735,-384,16.7598,6.71289,0,0,0,0,0,0,0,-1,1959,1408,16.7598,-6.71287
742,-384,0,0,0,0,0,0,0,0,0,-1,1966,1408,0,0
749,-384,0,0,0,0,0,0,0,0,0,-1,1973,1408,0,0
756,-384,0,0,0,0,0,0,0,0,0,-1,1980,1408,0,0
763,-384,0,0,0,0,0,0,0,0,0,-1,1987,1408,0,0
770,-384,0,0,0,0,0,0,0,0,0,-1,1994,1408,0,0
777,-384,0,0,0,0,0,0,0,0,0,-1,2001,1408,0,0
784,-384,0,0,0,0,0,0,0,0,0,-1,2008,1408,0,0
791,-384,0,0,0,0,0,0,0,0,0,-1,2015,1408,0,0
798,-384,0,0,0,0,0,0,0,0,0,-1,2022,1408,0,0
805,-384,0,0,0,0,0,0,0,0,0,-1,2029,1408,0,0
812,-384,0,0,0,0,0,0,0,0,0,-1,2036,1408,0,0
-700,-391,0,0,0,0,0,0,0,0,0,-1,524,1415,0,0
-693,-391,0,0,0,0,0,0,0,0,0,-1,531,1415,0,0
-686,-391,0,0,0,0,0,0,0,0,0,-1,538,1415,0,0
-679,-391,0,0,0,0,0,0,0,0,0,-1,545,1415,0,0
-672,-391,0,0,0,0,0,0,0,0,0,-1,552,1415,0,0
-665,-391,0,0,0,0,0,0,0,0,0,-1,559,1415,0,0
-658,-391,0,0,0,0,0,0,0,0,0,-1,566,1415,0,0
-651,-391,0,0,0,0,0,0,0,0,0,-1,573,1415,0,0
-644,-391,0,0,0,0,0,0,0,0,0,-1,580,1415,0,0
-637,-391,0,0,0,0,0,0,0,0,0,-1,587,1415,0,0
-630,-391,0,0,0,0,0,0,0,0,0,-1,594,1415,0,0
-623,-391,0,0,0,0,0,0,0,0,0,-1,601,1415,0,0
-616,-391,0,0,0,0,0,0,0,0,0,-1,608,1415,0,0
-609,-391,-7.71753,-3.69763,0,0,0,0,0,0,0,-1,615,1415,-7.71751,3.69759
-602,-391,-13.9493,-4.12805,0,0,0,0,0,0,0,-1,622,1415,-13.9493,4.12803
-595,-391,-10.8315,1.76172,0,0,0,0,0,0,0,-1,629,1415,-10.8315,-1.76171
-588,-391,-10.265,2.16431,0,0,0,0,0,0,0,-1,636,1415,-10.265,-2.16431
-581,-391,-11.3325,2.44836,0,0,0,0,0,0,0,-1,643,1415,-11.3325,-2.44842
-574,-391,-11.1471,6.19983,0,0,0,0,0,0,0,-1,650,1415,-11.1471,-6.19981
-567,-391,-11.5172,6.82458,0,0,0,0,0,0,0,-1,657,1415,-11.5171,-6.82454
-560,-391,-11.2459,7.37195,0,0,0,0,0,0,0,-1,664,1415,-11.2459,-7.37191
-553,-391,-25.9337,17.8829,0,0,0,0,0,0,0,-1,671,1415,-25.9337,-17.8829
-546,-391,-25.8631,18.8701,0.0057652,0.0030583,0.00360944,0.0082666,0.000556899,0.606024,0.00533513,0.0231044,678,1415,-25.8631,-18.8701
-539,-391,-25.8436,19.8276,0.0045507,0.00220674,0.00280054,0.0064146,0.000342843,0.587229,0.00416682,0.0159099,685,1415,-25.8436,-19.8276
-532,-391,-25.9066,20.7256,0.00368447,0.00152543,0.00217282,0.00503116,0.000178736,0.554844,0.00329615,0.0267605,692,1415,-25.9066,-20.7256
-525,-391,-26.0089,21.6489,0.00310954,0.00100246,0.00169252,0.00404963,6.23702e-05,0.507009,0.0026792,0.0241031,699,1415,-26.0088,-21.649
-518,-391,-26.0685,22.5485,0.00272992,0.000587645,0.00133157,0.00336771,-5.01383e-05,0.446684,0.00226204,0.0153487,706,1415,-26.0685,-22.5484
-511,-391,-26.0864,23.4464,0.00251761,0.000252794,0.00106029,0.00293651,-0.00016611,0.376261,0.00201533,0.0143338,713,1415,-26.0864,-23.4464
-504,-391,-26.1236,24.3567,0.00248344,3.17519e-05,0.000901559,0.00277927,-0.000264082,0.317066,0.00194685,0.0133991,720,1415,-26.1236,-24.3567
-497,-391,-26.1813,25.2734,0.00257262,-0.000130066,0.000825477,0.0028048,-0.000362244,0.274182,0.00200157,0.0155067,727,1415,-26.1813,-25.2735
-490,-391,-26.2126,26.209,0,0,0,0,0,0,0,-1,734,1415,-26.2126,-26.2089
-483,-391,-11.1018,12.9382,0,0,0,0,0,0,0,-1,741,1415,-11.1018,-12.9382
-476,-391,-6.05731,6.85303,0,0,0,0,0,0,0,-1,748,1415,-6.05728,-6.85304
-469,-391,-3.88953,5.0979,0,0,0,0,0,0,0,-1,755,1415,-3.88955,-5.09794
-462,-391,-8.67688,2.03125,0,0,0,0,0,0,0,-1,762,1415,-8.67685,-2.03121
-455,-391,-8.65576,6.46997,0,0,0,0,0,0,0,-1,769,1415,-8.65579,-6.46999
-448,-391,-8.39618,4.38403,0,0,0,0,0,0,0,-1,776,1415,-8.39617,-4.38405
-441,-391,-9.77704,2.5946,0,0,0,0,0,0,0,-1,783,1415,-9.77702,-2.5946
-434,-391,-11.5403,2.12878,0,0,0,0,0,0,0,-1,790,1415,-11.5403,-2.12881
-427,-391,-10.5311,2.50403,0,0,0,0,0,0,0,-1,797,1415,-10.5311,-2.504
-420,-391,-14.7087,1.24365,0,0,0,0,0,0,0,-1,804,1415,-14.7088,-1.24365
-413,-391,0,0,0,0,0,0,0,0,0,-1,811,1415,0,0
-406,-391,0,0,0,0,0,0,0,0,0,-1,818,1415,0,0
-399,-391,0,0,0,0,0,0,0,0,0,-1,825,1415,0,0
-392,-391,0,0,0,0,0,0,0,0,0,-1,832,1415,0,0
-385,-391,0,0,0,0,0,0,0,0,0,-1,839,1415,0,0
-378,-391,0,0,0,0,0,0,0,0,0,-1,846,1415,0,0
-371,-391,0,0,0,0,0,0,0,0,0,-1,853,1415,0,0
-364,-391,0,0,0,0,0,0,0,0,0,-1,860,1415,0,0
-357,-391,0,0,0,0,0,0,0,0,0,-1,867,1415,0,0
-350,-391,0,0,0,0,0,0,0,0,0,-1,874,1415,0,0
-343,-391,0,0,0,0,0,0,0,0,0,-1,881,1415,0,0
-336,-391,0,0,0,0,0,0,0,0,0,-1,888,1415,0,0
-329,-391,0,0,0,0,0,0,0,0,0,-1,895,1415,0,0
-322,-391,0,0,0,0,0,0,0,0,0,-1,902,1415,0,0
-315,-391,0,0,0,0,0,0,0,0,0,-1,909,1415,0,0
-308,-391,0,0,0,0,0,0,0,0,0,-1,916,1415,0,0
-301,-391,0,0,0,0,0,0,0,0,0,-1,923,1415,0,0
-294,-391,0,0,0,0,0,0,0,0,0,-1,930,1415,0,0
-287,-391,0,0,0,0,0,0,0,0,0,-1,937,1415,0,0
-280,-391,0,0,0,0,0,0,0,0,0,-1,944,1415,0,0
-273,-391,0,0,0,0,0,0,0,0,0,-1,951,1415,0,0
-266,-391,0,0,0,0,0,0,0,0,0,-1,958,1415,0,0
-259,-391,0,0,0,0,0,0,0,0,0,-1,965,1415,0,0
-252,-391,0,0,0,0,0,0,0,0,0,-1,972,1415,0,0
-245,-391,0,0,0,0,0,0,0,0,0,-1,979,1415,0,0
-238,-391,0,0,0,0,0,0,0,0,0,-1,986,1415,0,0
-231,-391,0,0,0,0,0,0,0,0,0,-1,993,1415,0,0
-224,-391,0,0,0,0,0,0,0,0,0,-1,1000,1415,0,0
-217,-391,0,0,0,0,0,0,0,0,0,-1,1007,1415,0,0
-210,-391,0,0,0,0,0,0,0,0,0,-1,1014,1415,0,0
-203,-391,0,0,0,0,0,0,0,0,0,-1,1021,1415,0,0
-196,-391,0,0,0,0,0,0,0,0,0,-1,1028,1415,0,0
-189,-391,0,0,0,0,0,0,0,0,0,-1,1035,1415,0,0
-182,-391,0,0,0,0,0,0,0,0,0,-1,1042,1415,0,0
-175,-391,0,0,0,0,0,0,0,0,0,-1,1049,1415,0,0
-168,-391,0,0,0,0,0,0,0,0,0,-1,1056,1415,0,0
-161,-391,0,0,0,0,0,0,0,0,0,-1,1063,1415,0,0
-154,-391,0,0,0,0,0,0,0,0,0,-1,1070,1415,0,0
-147,-391,0,0,0,0,0,0,0,0,0,-1,1077,1415,0,0
-140,-391,0,0,0,0,0,0,0,0,0,-1,1084,1415,0,0
-133,-391,0,0,0,0,0,0,0,0,0,-1,1091,1415,0,0
-126,-391,0,0,0,0,0,0,0,0,0,-1,1098,1415,0,0
-119,-391,0,0,0,0,0,0,0,0,0,-1,1105,1415,0,0
-112,-391,0,0,0,0,0,0,0,0,0,-1,1112,1415,0,0
-105,-391,0,0,0,0,0,0,0,0,0,-1,1119,1415,0,0
-98,-391,0,0,0,0,0,0,0,0,0,-1,1126,1415,0,0
-91,-391,0,0,0,0,0,0,0,0,0,-1,1133,1415,0,0
-84,-391,0,0,0,0,0,0,0,0,0,-1,1140,1415,0,0
-77,-391,0,0,0,0,0,0,0,0,0,-1,1147,1415,0,0
-70,-391,0,0,0,0,0,0,0,0,0,-1,1154,1415,0,0
-63,-391,0,0,0,0,0,0,0,0,0,-1,1161,1415,0,0
-56,-391,0,0,0,0,0,0,0,0,0,-1,1168,1415,0,0
-49,-391,0,0,0,0,0,0,0,0,0,-1,1175,1415,0,0
-42,-391,0,0,0,0,0,0,0,0,0,-1,1182,1415,0,0
-35,-391,0,0,0,0,0,0,0,0,0,-1,1189,1415,0,0
-28,-391,0,0,0,0,0,0,0,0,0,-1,1196,1415,0,0
-21,-391,0,0,0,0,0,0,0,0,0,-1,1203,1415,0,0
-14,-391,0,0,0,0,0,0,0,0,0,-1,1210,1415,0,0
-7,-391,0,0,0,0,0,0,0,0,0,-1,1217,1415,0,0
0,-391,0,0,0,0,0,0,0,0,0,-1,1224,1415,0,0
7,-391,0,0,0,0,0,0,0,0,0,-1,1231,1415,0,0
14,-391,0,0,0,0,0,0,0,0,0,-1,1238,1415,0,0
21,-391,0,0,0,0,0,0,0,0,0,-1,1245,1415,0,0
28,-391,0,0,0,0,0,0,0,0,0,-1,1252,1415,0,0
35,-391,0,0,0,0,0,0,0,0,0,-1,1259,1415,0,0
42,-391,0,0,0,0,0,0,0,0,0,-1,1266,1415,0,0
49,-391,0,0,0,0,0,0,0,0,0,-1,1273,1415,0,0
56,-391,0,0,0,0,0,0,0,0,0,-1,1280,1415,0,0
63,-391,0,0,0,0,0,0,0,0,0,-1,1287,1415,0,0
70,-391,0,0,0,0,0,0,0,0,0,-1,1294,1415,0,0
77,-391,0,0,0,0,0,0,0,0,0,-1,1301,1415,0,0
84,-391,0,0,0,0,0,0,0,0,0,-1,1308,1415,0,0
91,-391,0,0,0,0,0,0,0,0,0,-1,1315,1415,0,0
98,-391,0,0,0,0,0,0,0,0,0,-1,1322,1415,0,0
105,-391,0,0,0,0,0,0,0,0,0,-1,1329,1415,0,0
112,-391,0,0,0,0,0,0,0,0,0,-1,1336,1415,0,0
119,-391,0,0,0,0,0,0,0,0,0,-1,1343,1415,0,0
126,-391,0,0,0,0,0,0,0,0,0,-1,1350,1415,0,0
133,-391,0,0,0,0,0,0,0,0,0,-1,1357,1415,0,0
140,-391,0,0,0,0,0,0,0,0,0,-1,1364,1415,0,0
147,-391,0,0,0,0,0,0,0,0,0,-1,1371,1415,0,0
154,-391,0,0,0,0,0,0,0,0,0,-1,1378,1415,0,0
161,-391,0,0,0,0,0,0,0,0,0,-1,1385,1415,0,0
168,-391,0,0,0,0,0,0,0,0,0,-1,1392,1415,0,0
175,-391,0,0,0,0,0,0,0,0,0,-1,1399,1415,0,0
182,-391,0,0,0,0,0,0,0,0,0,-1,1406,1415,0,0
189,-391,0,0,0,0,0,0,0,0,0,-1,1413,1415,0,0
196,-391,0,0,0,0,0,0,0,0,0,-1,1420,1415,0,0
203,-391,0,0,0,0,0,0,0,0,0,-1,1427,1415,0,0
210,-391,0,0,0,0,0,0,0,0,0,-1,1434,1415,0,0
217,-391,0,0,0,0,0,0,0,0,0,-1,1441,1415,0,0
224,-391,0,0,0,0,0,0,0,0,0,-1,1448,1415,0,0
231,-391,0,0,0,0,0,0,0,0,0,-1,1455,1415,0,0
238,-391,0,0,0,0,0,0,0,0,0,-1,1462,1415,0,0
245,-391,0,0,0,0,0,0,0,0,0,-1,1469,1415,0,0
252,-391,0,0,0,0,0,0,0,0,0,-1,1476,1415,0,0
259,-391,0,0,0,0,0,0,0,0,0,-1,1483,1415,0,0
266,-391,0,0,0,0,0,0,0,0,0,-1,1490,1415,0,0
273,-391,0,0,0,0,0,0,0,0,0,-1,1497,1415,0,0
280,-391,0,0,0,0,0,0,0,0,0,-1,1504,1415,0,0
287,-391,0,0,0,0,0,0,0,0,0,-1,1511,1415,0,0
294,-391,0,0,0,0,0,0,0,0,0,-1,1518,1415,0,0
301,-391,0,0,0,0,0,0,0,0,0,-1,1525,1415,0,0
308,-391,0,0,0,0,0,0,0,0,0,-1,1532,1415,0,0
315,-391,0,0,0,0,0,0,0,0,0,-1,1539,1415,0,0
322,-391,0,0,0,0,0,0,0,0,0,-1,1546,1415,0,0
329,-391,0,0,0,0,0,0,0,0,0,-1,1553,1415,0,0
336,-391,0,0,0,0,0,0,0,0,0,-1,1560,1415,0,0
343,-391,0,0,0,0,0,0,0,0,0,-1,1567,1415,0,0
350,-391,0,0,0,0,0,0,0,0,0,-1,1574,1415,0,0
357,-391,0,0,0,0,0,0,0,0,0,-1,1581,1415,0,0
364,-391,0,0,0,0,0,0,0,0,0,-1,1588,1415,0,0
371,-391,0,0,0,0,0,0,0,0,0,-1,1595,1415,0,0
378,-391,0,0,0,0,0,0,0,0,0,-1,1602,1415,0,0
385,-391,0,0,0,0,0,0,0,0,0,-1,1609,1415,0,0
392,-391,0,0,0,0,0,0,0,0,0,-1,1616,1415,0,0
399,-391,0,0,0,0,0,0,0,0,0,-1,1623,1415,0,0
406,-391,0,0,0,0,0,0,0,0,0,-1,1630,1415,0,0
413,-391,0,0,0,0,0,0,0,0,0,-1,1637,1415,0,0
420,-391,0,0,0,0,0,0,0,0,0,-1,1644,1415,0,0
427,-391,0,0,0,0,0,0,0,0,0,-1,1651,1415,0,0
434,-391,0,0,0,0,0,0,0,0,0,-1,1658,1415,0,0
441,-391,0,0,0,0,0,0,0,0,0,-1,1665,1415,0,0
448,-391,0,0,0,0,0,0,0,0,0,-1,1672,1415,0,0
455,-391,0,0,0,0,0,0,0,0,0,-1,1679,1415,0,0
462,-391,0,0,0,0,0,0,0,0,0,-1,1686,1415,0,0
469,-391,0,0,0,0,0,0,0,0,0,-1,1693,1415,0,0
476,-391,0,0,0,0,0,0,0,0,0,-1,1700,1415,0,0
483,-391,0,0,0,0,0,0,0,0,0,-1,1707,1415,0,0
490,-391,0,0,0,0,0,0,0,0,0,-1,1714,1415,0,0
497,-391,0,0,0,0,0,0,0,0,0,-1,1721,1415,0,0
504,-391,0,0,0,0,0,0,0,0,0,-1,1728,1415,0,0
511,-391,0,0,0,0,0,0,0,0,0,-1,1735,1415,0,0
518,-391,0,0,0,0,0,0,0,0,0,-1,1742,1415,0,0
525,-391,0,0,0,0,0,0,0,0,0,-1,1749,1415,0,0
532,-391,28.5959,3.02356,0,0,0,0,0,0,0,-1,1756,1415,28.596,-3.02358
539,-391,27.5881,3.25012,0,0,0,0,0,0,0,-1,1763,1415,27.5882,-3.25016
546,-391,27.2837,3.28064,0,0,0,0,0,0,0,-1,1770,1415,27.2837,-3.28064
553,-391,32.5952,5.04553,0,0,0,0,0,0,0,-1,1777,1415,32.5952,-5.04551
560,-391,31.2947,5.67017,0,0,0,0,0,0,0,-1,1784,1415,31.2947,-5.67011
567,-391,30.1473,6.17603,0,0,0,0,0,0,0,-1,1791,1415,30.1473,-6.17602
574,-391,27.5656,5.6842,0,0,0,0,0,0,0,-1,1798,1415,27.5655,-5.68422
581,-391,25.8883,5.76123,0,0,0,0,0,0,0,-1,1805,1415,25.8883,-5.76124
588,-391,24.2717,5.47986,0,0,0,0,0,0,0,-1,1812,1415,24.2717,-5.47982
595,-391,22.8827,6.1991,0,0,0,0,0,0,0,-1,1819,1415,22.8827,-6.19909
602,-391,15.1635,5.69849,0,0,0,0,0,0,0,-1,1826,1415,15.1635,-5.69847
609,-391,14.8285,7.50476,0,0,0,0,0,0,0,-1,1833,1415,14.8285,-7.50479
616,-391,20.7952,12.0503,0,0,0,0,0,0,0,-1,1840,1415,20.7952,-12.0503
623,-391,36.6426,20.3677,0,0,0,0,0,0,0,-1,1847,1415,36.6426,-20.3676
630,-391,43.4567,24.674,0,0,0,0,0,0,0,-1,1854,1415,43.4567,-24.6739
637,-391,43.3842,23.8644,-0.000675617,0.000278937,4.80567e-05,0.00028135,-0.00067803,1.52062,0.000569462,0.0187101,1861,1415,43.3842,-23.8644
644,-391,43.3184,22.9708,-9.51989e-05,0.000159322,-8.48886e-05,0.000185036,-0.000120913,-1.27666,0.000177929,0.0188627,1868,1415,43.3183,-22.9708
651,-391,43.2543,22.1223,0.000715744,0.000100673,-0.000368367,0.000888075,-7.16583e-05,-0.437578,0.000617324,0.0187836,1875,1415,43.2543,-22.1224
658,-391,43.1721,21.2289,0.00174535,9.70362e-05,-0.000809066,0.0020761,-0.000233719,-0.388079,0.00146819,0.0187789,1882,1415,43.1721,-21.2289
665,-391,43.1371,20.3273,0.00296265,0.000154845,-0.00138736,0.0035325,-0.000415007,-0.389735,0.00250482,0.0156172,1889,1415,43.1371,-20.3272
672,-391,43.1061,19.4431,0.00435455,0.000267641,-0.00210557,0.00524523,-0.000623037,-0.400184,0.00372192,0.0131911,1896,1415,43.1061,-19.4432
679,-391,43.0509,18.5637,0.00594344,0.000440872,-0.00300476,0.00726624,-0.000881925,-0.414703,0.0051633,0.0127411,1903,1415,43.0509,-18.5637
686,-391,43.0099,17.6814,0.00776353,0.000675027,-0.00410637,0.00964366,-0.00120511,-0.42937,0.00686616,0.0273593,1910,1415,43.0098,-17.6814
693,-391,43.0895,16.696,0,0,0,0,0,0,0,-1,1917,1415,43.0895,-16.696
700,-391,39.8163,14.4929,0,0,0,0,0,0,0,-1,1924,1415,39.8163,-14.4929
707,-391,12.9524,5.96851,0,0,0,0,0,0,0,-1,1931,1415,12.9524,-5.96849
714,-391,15.6875,7.67896,0,0,0,0,0,0,0,-1,1938,1415,15.6875,-7.67893
721,-391,14.1808,8.08435,0,0,0,0,0,0,0,-1,1945,1415,14.1808,-8.08439
728,-391,13.8102,7.28174,0,0,0,0,0,0,0,-1,1952,1415,13.8102,-7.28174
735,-391,0,0,0,0,0,0,0,0,0,-1,1959,1415,0,0
742,-391,0,0,0,0,0,0,0,0,0,-1,1966,1415,0,0
749,-391,0,0,0,0,0,0,0,0,0,-1,1973,1415,0,0
756,-391,0,0,0,0,0,0,0,0,0,-1,1980,1415,0,0
763,-391,0,0,0,0,0,0,0,0,0,-1,1987,1415,0,0
770,-391,0,0,0,0,0,0,0,0,0,-1,1994,1415,0,0
777,-391,0,0,0,0,0,0,0,0,0,-1,2001,1415,0,0
784,-391,0,0,0,0,0,0,0,0,0,-1,2008,1415,0,0
791,-391,0,0,0,0,0,0,0,0,0,-1,2015,1415,0,0
798,-391,0,0,0,0,0,0,0,0,0,-1,2022,1415,0,0
805,-391,0,0,0,0,0,0,0,0,0,-1,2029,1415,0,0
812,-391,0,0,0,0,0,0,0,0,0,-1,2036,1415,0,0
-700,-398,0,0,0,0,0,0,0,0,0,-1,524,1422,0,0
-693,-398,0,0,0,0,0,0,0,0,0,-1,531,1422,0,0
-686,-398,0,0,0,0,0,0,0,0,0,-1,538,1422,0,0
-679,-398,0,0,0,0,0,0,0,0,0,-1,545,1422,0,0
-672,-398,0,0,0,0,0,0,0,0,0,-1,552,1422,0,0
-665,-398,0,0,0,0,0,0,0,0,0,-1,559,1422,0,0
-658,-398,0,0,0,0,0,0,0,0,0,-1,566,1422,0,0
-651,-398,0,0,0,0,0,0,0,0,0,-1,573,1422,0,0
-644,-398,0,0,0,0,0,0,0,0,0,-1,580,1422,0,0
-637,-398,0,0,0,0,0,0,0,0,0,-1,587,1422,0,0
-630,-398,0,0,0,0,0,0,0,0,0,-1,594,1422,0,0
-623,-398,0,0,0,0,0,0,0,0,0,-1,601,1422,0,0
-616,-398,0,0,0,0,0,0,0,0,0,-1,608,1422,0,0
-609,-398,-7.47125,-4.05322,0,0,0,0,0,0,0,-1,615,1422,-7.47128,4.05317
-602,-398,-4.58868,-2.77026,0,0,0,0,0,0,0,-1,622,1422,-4.58869,2.77023
-595,-398,-12.2224,-1.82007,0,0,0,0,0,0,0,-1,629,1422,-12.2224,1.82006
-588,-398,-10.6939,1.32336,0,0,0,0,0,0,0,-1,636,1422,-10.6939,-1.32337
-581,-398,-10.433,3.1123,0,0,0,0,0,0,0,-1,643,1422,-10.433,-3.11233
-574,-398,-10.4475,5.89807,0,0,0,0,0,0,0,-1,650,1422,-10.4475,-5.89802
-567,-398,-10.4904,6.80115,0,0,0,0,0,0,0,-1,657,1422,-10.4904,-6.80115
-560,-398,-10.5333,7.70435,0,0,0,0,0,0,0,-1,664,1422,-10.5333,-7.70429
-553,-398,-25.0076,17.7709,0,0,0,0,0,0,0,-1,671,1422,-25.0075,-17.7709
-546,-398,-25.0068,18.8954,0.00638562,0.00408346,0.00441637,0.00979845,0.000670629,0.657915,0.00632063,0.0462208,678,1422,-25.0068,-18.8954
-539,-398,-24.9133,19.9072,0.00491024,0.00300063,0.00339453,0.00748169,0.000429179,0.648301,0.00485106,0.0140955,685,1422,-24.9133,-19.9073
-532,-398,-24.9797,20.8254,0.00381997,0.00212303,0.00258297,0.00569025,0.000252747,0.626707,0.00371212,0.0220974,692,1422,-24.9797,-20.8254
-525,-398,-25.1108,21.7174,0.00307162,0.00144694,0.00194271,0.00436499,0.000153571,0.587373,0.00286018,0.0209162,699,1422,-25.1108,-21.7174
-518,-398,-25.1346,22.6039,0.00253942,0.00089995,0.00143685,0.00337392,6.54518e-05,0.526171,0.00222778,0.0196089,706,1422,-25.1346,-22.6039
-511,-398,-25.1672,23.4872,0.00217026,0.000448214,0.00102141,0.00264513,-2.66647e-05,0.435197,0.00177238,0.0152612,713,1422,-25.1672,-23.4872
-504,-398,-25.2309,24.4233,0.00197817,0.000109221,0.000717971,0.00222214,-0.000134747,0.32756,0.00152832,0.0154108,720,1422,-25.2309,-24.4234
-497,-398,-25.2911,25.3291,0.00192803,-0.000133248,0.000504217,0.00204476,-0.000249976,0.227496,0.00145368,0.0108687,727,1422,-25.2911,-25.3291
-490,-398,-25.3143,26.2375,0.00213801,-0.000309493,0.000390644,0.00219884,-0.000370331,0.154497,0.00160366,0.0242189,734,1422,-25.3143,-26.2376
-483,-398,-25.3173,27.1622,0,0,0,0,0,0,0,-1,741,1422,-25.3173,-27.1622
-476,-398,-8.64392,11.9448,0,0,0,0,0,0,0,-1,748,1422,-8.6439,-11.9448
-469,-398,-8.91699,10.6276,0,0,0,0,0,0,0,-1,755,1422,-8.91697,-10.6275
-462,-398,-9.59753,9.32532,0,0,0,0,0,0,0,-1,762,1422,-9.59753,-9.32531
-455,-398,-8.08331,6.75024,0,0,0,0,0,0,0,-1,769,1422,-8.08333,-6.75022
-448,-398,-7.4505,5.25293,0,0,0,0,0,0,0,-1,776,1422,-7.4505,-5.25291
-441,-398,-7.61639,3.32141,0,0,0,0,0,0,0,-1,783,1422,-7.61637,-3.32145
-434,-398,-10.7618,3.297,0,0,0,0,0,0,0,-1,790,1422,-10.7618,-3.29704
-427,-398,-11.9061,2.24939,0,0,0,0,0,0,0,-1,797,1422,-11.9061,-2.24941
-420,-398,-13.467,2.32788,0,0,0,0,0,0,0,-1,804,1422,-13.467,-2.32787
-413,-398,-14.7983,2.15515,0,0,0,0,0,0,0,-1,811,1422,-14.7983,-2.15516
-406,-398,0,0,0,0,0,0,0,0,0,-1,818,1422,0,0
-399,-398,0,0,0,0,0,0,0,0,0,-1,825,1422,0,0
-392,-398,0,0,0,0,0,0,0,0,0,-1,832,1422,0,0
-385,-398,0,0,0,0,0,0,0,0,0,-1,839,1422,0,0
-378,-398,0,0,0,0,0,0,0,0,0,-1,846,1422,0,0
-371,-398,0,0,0,0,0,0,0,0,0,-1,853,1422,0,0
-364,-398,0,0,0,0,0,0,0,0,0,-1,860,1422,0,0
-357,-398,0,0,0,0,0,0,0,0,0,-1,867,1422,0,0
-350,-398,0,0,0,0,0,0,0,0,0,-1,874,1422,0,0
-343,-398,0,0,0,0,0,0,0,0,0,-1,881,1422,0,0
-336,-398,0,0,0,0,0,0,0,0,0,-1,888,1422,0,0
-329,-398,0,0,0,0,0,0,0,0,0,-1,895,1422,0,0
-322,-398,0,0,0,0,0,0,0,0,0,-1,902,1422,0,0
-315,-398,0,0,0,0,0,0,0,0,0,-1,909,1422,0,0
-308,-398,0,0,0,0,0,0,0,0,0,-1,916,1422,0,0
-301,-398,0,0,0,0,0,0,0,0,0,-1,923,1422,0,0
-294,-398,0,0,0,0,0,0,0,0,0,-1,930,1422,0,0
-287,-398,0,0,0,0,0,0,0,0,0,-1,937,1422,0,0
-280,-398,0,0,0,0,0,0,0,0,0,-1,944,1422,0,0
-273,-398,0,0,0,0,0,0,0,0,0,-1,951,1422,0,0
-266,-398,0,0,0,0,0,0,0,0,0,-1,958,1422,0,0
-259,-398,0,0,0,0,0,0,0,0,0,-1,965,1422,0,0
-252,-398,0,0,0,0,0,0,0,0,0,-1,972,1422,0,0
-245,-398,0,0,0,0,0,0,0,0,0,-1,979,1422,0,0
-238,-398,0,0,0,0,0,0,0,0,0,-1,986,1422,0,0
-231,-398,0,0,0,0,0,0,0,0,0,-1,993,1422,0,0
-224,-398,0,0,0,0,0,0,0,0,0,-1,1000,1422,0,0
-217,-398,0,0,0,0,0,0,0,0,0,-1,1007,1422,0,0
-210,-398,0,0,0,0,0,0,0,0,0,-1,1014,1422,0,0
-203,-398,0,0,0,0,0,0,0,0,0,-1,1021,1422,0,0
-196,-398,0,0,0,0,0,0,0,0,0,-1,1028,1422,0,0
-189,-398,0,0,0,0,0,0,0,0,0,-1,1035,1422,0,0
-182,-398,0,0,0,0,0,0,0,0,0,-1,1042,1422,0,0
-175,-398,0,0,0,0,0,0,0,0,0,-1,1049,1422,0,0
-168,-398,0,0,0,0,0,0,0,0,0,-1,1056,1422,0,0
-161,-398,0,0,0,0,0,0,0,0,0,-1,1063,1422,0,0
-154,-398,0,0,0,0,0,0,0,0,0,-1,1070,1422,0,0
-147,-398,0,0,0,0,0,0,0,0,0,-1,1077,1422,0,0
-140,-398,0,0,0,0,0,0,0,0,0,-1,1084,1422,0,0
-133,-398,0,0,0,0,0,0,0,0,0,-1,1091,1422,0,0
-126,-398,0,0,0,0,0,0,0,0,0,-1,1098,1422,0,0
-119,-398,0,0,0,0,0,0,0,0,0,-1,1105,1422,0,0
-112,-398,0,0,0,0,0,0,0,0,0,-1,1112,1422,0,0
-105,-398,0,0,0,0,0,0,0,0,0,-1,1119,1422,0,0
-98,-398,0,0,0,0,0,0,0,0,0,-1,1126,1422,0,0
-91,-398,0,0,0,0,0,0,0,0,0,-1,1133,1422,0,0
-84,-398,0,0,0,0,0,0,0,0,0,-1,1140,1422,0,0
-77,-398,0,0,0,0,0,0,0,0,0,-1,1147,1422,0,0
-70,-398,0,0,0,0,0,0,0,0,0,-1,1154,1422,0,0
-63,-398,0,0,0,0,0,0,0,0,0,-1,1161,1422,0,0
-56,-398,0,0,0,0,0,0,0,0,0,-1,1168,1422,0,0
-49,-398,0,0,0,0,0,0,0,0,0,-1,1175,1422,0,0
-42,-398,0,0,0,0,0,0,0,0,0,-1,1182,1422,0,0
-35,-398,0,0,0,0,0,0,0,0,0,-1,1189,1422,0,0
-28,-398,0,0,0,0,0,0,0,0,0,-1,1196,1422,0,0
-21,-398,0,0,0,0,0,0,0,0,0,-1,1203,1422,0,0
-14,-398,0,0,0,0,0,0,0,0,0,-1,1210,1422,0,0
-7,-398,0,0,0,0,0,0,0,0,0,-1,1217,1422,0,0
0,-398,0,0,0,0,0,0,0,0,0,-1,1224,1422,0,0
7,-398,0,0,0,0,0,0,0,0,0,-1,1231,1422,0,0
14,-398,0,0,0,0,0,0,0,0,0,-1,1238,1422,0,0
21,-398,0,0,0,0,0,0,0,0,0,-1,1245,1422,0,0
28,-398,0,0,0,0,0,0,0,0,0,-1,1252,1422,0,0
35,-398,0,0,0,0,0,0,0,0,0,-1,1259,1422,0,0
42,-398,0,0,0,0,0,0,0,0,0,-1,1266,1422,0,0
49,-398,0,0,0,0,0,0,0,0,0,-1,1273,1422,0,0
56,-398,0,0,0,0,0,0,0,0,0,-1,1280,1422,0,0
63,-398,0,0,0,0,0,0,0,0,0,-1,1287,1422,0,0
70,-398,0,0,0,0,0,0,0,0,0,-1,1294,1422,0,0
77,-398,0,0,0,0,0,0,0,0,0,-1,1301,1422,0,0
84,-398,0,0,0,0,0,0,0,0,0,-1,1308,1422,0,0
91,-398,0,0,0,0,0,0,0,0,0,-1,1315,1422,0,0
98,-398,0,0,0,0,0,0,0,0,0,-1,1322,1422,0,0
105,-398,0,0,0,0,0,0,0,0,0,-1,1329,1422,0,0
112,-398,0,0,0,0,0,0,0,0,0,-1,1336,1422,0,0
119,-398,0,0,0,0,0,0,0,0,0,-1,1343,1422,0,0
126,-398,0,0,0,0,0,0,0,0,0,-1,1350,1422,0,0
133,-398,0,0,0,0,0,0,0,0,0,-1,1357,1422,0,0
140,-398,0,0,0,0,0,0,0,0,0,-1,1364,1422,0,0
147,-398,0,0,0,0,0,0,0,0,0,-1,1371,1422,0,0
154,-398,0,0,0,0,0,0,0,0,0,-1,1378,1422,0,0
161,-398,0,0,0,0,0,0,0,0,0,-1,1385,1422,0,0
168,-398,0,0,0,0,0,0,0,0,0,-1,1392,1422,0,0
175,-398,0,0,0,0,0,0,0,0,0,-1,1399,1422,0,0
182,-398,0,0,0,0,0,0,0,0,0,-1,1406,1422,0,0
189,-398,0,0,0,0,0,0,0,0,0,-1,1413,1422,0,0
196,-398,0,0,0,0,0,0,0,0,0,-1,1420,1422,0,0
203,-398,0,0,0,0,0,0,0,0,0,-1,1427,1422,0,0
210,-398,0,0,0,0,0,0,0,0,0,-1,1434,1422,0,0
217,-398,0,0,0,0,0,0,0,0,0,-1,1441,1422,0,0
224,-398,0,0,0,0,0,0,0,0,0,-1,1448,1422,0,0
231,-398,0,0,0,0,0,0,0,0,0,-1,1455,1422,0,0
238,-398,0,0,0,0,0,0,0,0,0,-1,1462,1422,0,0
245,-398,0,0,0,0,0,0,0,0,0,-1,1469,1422,0,0
252,-398,0,0,0,0,0,0,0,0,0,-1,1476,1422,0,0
259,-398,0,0,0,0,0,0,0,0,0,-1,1483,1422,0,0
266,-398,0,0,0,0,0,0,0,0,0,-1,1490,1422,0,0
273,-398,0,0,0,0,0,0,0,0,0,-1,1497,1422,0,0
280,-398,0,0,0,0,0,0,0,0,0,-1,1504,1422,0,0
287,-398,0,0,0,0,0,0,0,0,0,-1,1511,1422,0,0
294,-398,0,0,0,0,0,0,0,0,0,-1,1518,1422,0,0
301,-398,0,0,0,0,0,0,0,0,0,-1,1525,1422,0,0
308,-398,0,0,0,0,0,0,0,0,0,-1,1532,1422,0,0
315,-398,0,0,0,0,0,0,0,0,0,-1,1539,1422,0,0
322,-398,0,0,0,0,0,0,0,0,0,-1,1546,1422,0,0
329,-398,0,0,0,0,0,0,0,0,0,-1,1553,1422,0,0
336,-398,0,0,0,0,0,0,0,0,0,-1,1560,1422,0,0
343,-398,0,0,0,0,0,0,0,0,0,-1,1567,1422,0,0
350,-398,0,0,0,0,0,0,0,0,0,-1,1574,1422,0,0
357,-398,0,0,0,0,0,0,0,0,0,-1,1581,1422,0,0
364,-398,0,0,0,0,0,0,0,0,0,-1,1588,1422,0,0
371,-398,0,0,0,0,0,0,0,0,0,-1,1595,1422,0,0
378,-398,0,0,0,0,0,0,0,0,0,-1,1602,1422,0,0
385,-398,0,0,0,0,0,0,0,0,0,-1,1609,1422,0,0
392,-398,0,0,0,0,0,0,0,0,0,-1,1616,1422,0,0
399,-398,0,0,0,0,0,0,0,0,0,-1,1623,1422,0,0
406,-398,0,0,0,0,0,0,0,0,0,-1,1630,1422,0,0
413,-398,0,0,0,0,0,0,0,0,0,-1,1637,1422,0,0
420,-398,0,0,0,0,0,0,0,0,0,-1,1644,1422,0,0
427,-398,0,0,0,0,0,0,0,0,0,-1,1651,1422,0,0
434,-398,0,0,0,0,0,0,0,0,0,-1,1658,1422,0,0
441,-398,0,0,0,0,0,0,0,0,0,-1,1665,1422,0,0
448,-398,0,0,0,0,0,0,0,0,0,-1,1672,1422,0,0
455,-398,0,0,0,0,0,0,0,0,0,-1,1679,1422,0,0
462,-398,0,0,0,0,0,0,0,0,0,-1,1686,1422,0,0
469,-398,0,0,0,0,0,0,0,0,0,-1,1693,1422,0,0
476,-398,0,0,0,0,0,0,0,0,0,-1,1700,1422,0,0
483,-398,0,0,0,0,0,0,0,0,0,-1,1707,1422,0,0
490,-398,0,0,0,0,0,0,0,0,0,-1,1714,1422,0,0
497,-398,0,0,0,0,0,0,0,0,0,-1,1721,1422,0,0
504,-398,0,0,0,0,0,0,0,0,0,-1,1728,1422,0,0
511,-398,0,0,0,0,0,0,0,0,0,-1,1735,1422,0,0
518,-398,0,0,0,0,0,0,0,0,0,-1,1742,1422,0,0
525,-398,0,0,0,0,0,0,0,0,0,-1,1749,1422,0,0
532,-398,28.4558,3.84094,0,0,0,0,0,0,0,-1,1756,1422,28.4558,-3.8409
539,-398,27.0594,3.33887,0,0,0,0,0,0,0,-1,1763,1422,27.0595,-3.3389
546,-398,31.6873,5.58582,0,0,0,0,0,0,0,-1,1770,1422,31.6872,-5.58585
553,-398,30.4392,5.92383,0,0,0,0,0,0,0,-1,1777,1422,30.4392,-5.92386
560,-398,29.1621,6.30469,0,0,0,0,0,0,0,-1,1784,1422,29.1621,-6.30469
567,-398,27.8411,6.55029,0,0,0,0,0,0,0,-1,1791,1422,27.8411,-6.55033
574,-398,26.411,6.8916,0,0,0,0,0,0,0,-1,1798,1422,26.411,-6.8916
581,-398,24.75,7.11145,0,0,0,0,0,0,0,-1,1805,1422,24.7499,-7.11142
588,-398,23.1649,7.67969,0,0,0,0,0,0,0,-1,1812,1422,23.1649,-7.67975
595,-398,21.4253,7.86023,0,0,0,0,0,0,0,-1,1819,1422,21.4253,-7.86029
602,-398,19.6857,8.04077,0,0,0,0,0,0,0,-1,1826,1422,19.6856,-8.04083
609,-398,21.1835,13.2628,0,0,0,0,0,0,0,-1,1833,1422,21.1835,-13.2628
616,-398,35.7712,21.4,0,0,0,0,0,0,0,-1,1840,1422,35.7713,-21.4
623,-398,42.6141,25.6754,0,0,0,0,0,0,0,-1,1847,1422,42.6141,-25.6754
630,-398,42.5597,24.7836,-0.00058487,0.000343791,-3.59458e-05,0.00034518,-0.000586259,-1.53217,0.000543738,0.0152542,1854,1422,42.5597,-24.7835
637,-398,42.5023,23.9032,-0.000178069,0.000166148,-9.40762e-05,0.000190182,-0.000202102,-1.32068,0.00022652,0.015565,1861,1422,42.5023,-23.9032
644,-398,42.3907,23.0276,0.000419521,6.47656e-05,-0.000267904,0.000563446,-7.91595e-05,-0.492983,0.000404607,0.023037,1868,1422,42.3908,-23.0276
651,-398,42.432,22.2141,0.00127124,5.48144e-05,-0.000610127,0.00152453,-0.00019847,-0.393485,0.00108855,0.0313145,1875,1422,42.432,-22.2141
658,-398,42.3833,21.3499,0.00236656,9.09518e-05,-0.00111533,0.00282204,-0.000364533,-0.387713,0.0020139,0.0251551,1882,1422,42.3833,-21.3499
665,-398,42.2924,20.4176,0.00368123,0.000182297,-0.0017611,0.00441412,-0.000550593,-0.394355,0.0031424,0.0166252,1889,1422,42.2923,-20.4176
672,-398,42.2349,19.5204,0.00519442,0.000305911,-0.00254796,0.00628095,-0.000780622,-0.403084,0.00447029,0.0137044,1896,1422,42.2349,-19.5204
679,-398,42.2117,18.6431,0.00695262,0.000472985,-0.00353357,0.00850682,-0.00108121,-0.41437,0.00606383,0.0177016,1903,1422,42.2117,-18.643
686,-398,42.15,17.7483,0.00898235,0.000661989,-0.00472313,0.0111162,-0.00147188,-0.424342,0.007947,0.0424121,1910,1422,42.15,-17.7483
693,-398,42.0358,16.647,0,0,0,0,0,0,0,-1,1917,1422,42.0358,-16.6469
700,-398,38.7251,14.4174,0,0,0,0,0,0,0,-1,1924,1422,38.725,-14.4174
707,-398,10.9731,5.479,0,0,0,0,0,0,0,-1,1931,1422,10.9732,-5.47896
714,-398,11.7313,6.17346,0,0,0,0,0,0,0,-1,1938,1422,11.7313,-6.17348
721,-398,13.9371,8.05103,0,0,0,0,0,0,0,-1,1945,1422,13.9372,-8.05102
728,-398,14.786,7.0282,0,0,0,0,0,0,0,-1,1952,1422,14.786,-7.0282
735,-398,0,0,0,0,0,0,0,0,0,-1,1959,1422,0,0
742,-398,0,0,0,0,0,0,0,0,0,-1,1966,1422,0,0
749,-398,0,0,0,0,0,0,0,0,0,-1,1973,1422,0,0
756,-398,0,0,0,0,0,0,0,0,0,-1,1980,1422,0,0
763,-398,0,0,0,0,0,0,0,0,0,-1,1987,1422,0,0
770,-398,0,0,0,0,0,0,0,0,0,-1,1994,1422,0,0
777,-398,0,0,0,0,0,0,0,0,0,-1,2001,1422,0,0
784,-398,0,0,0,0,0,0,0,0,0,-1,2008,1422,0,0
791,-398,0,0,0,0,0,0,0,0,0,-1,2015,1422,0,0
798,-398,0,0,0,0,0,0,0,0,0,-1,2022,1422,0,0
805,-398,0,0,0,0,0,0,0,0,0,-1,2029,1422,0,0
812,-398,0,0,0,0,0,0,0,0,0,-1,2036,1422,0,0
-700,-405,0,0,0,0,0,0,0,0,0,-1,524,1429,0,0
-693,-405,0,0,0,0,0,0,0,0,0,-1,531,1429,0,0
-686,-405,0,0,0,0,0,0,0,0,0,-1,538,1429,0,0
-679,-405,0,0,0,0,0,0,0,0,0,-1,545,1429,0,0
-672,-405,0,0,0,0,0,0,0,0,0,-1,552,1429,0,0
-665,-405,0,0,0,0,0,0,0,0,0,-1,559,1429,0,0
-658,-405,0,0,0,0,0,0,0,0,0,-1,566,1429,0,0
-651,-405,0,0,0,0,0,0,0,0,0,-1,573,1429,0,0
-644,-405,0,0,0,0,0,0,0,0,0,-1,580,1429,0,0
-637,-405,0,0,0,0,0,0,0,0,0,-1,587,1429,0,0
-630,-405,0,0,0,0,0,0,0,0,0,-1,594,1429,0,0
-623,-405,0,0,0,0,0,0,0,0,0,-1,601,1429,0,0
-616,-405,0,0,0,0,0,0,0,0,0,-1,608,1429,0,0
-609,-405,0,0,0,0,0,0,0,0,0,-1,615,1429,0,0
-602,-405,-5.80988,-3.46594,0,0,0,0,0,0,0,-1,622,1429,-5.80987,3.46592
-595,-405,-9.35413,2.01477,0,0,0,0,0,0,0,-1,629,1429,-9.35411,-2.01476
-588,-405,-7.35693,0.507202,0,0,0,0,0,0,0,-1,636,1429,-7.35696,-0.507187
-581,-405,-10.1284,1.62927,0,0,0,0,0,0,0,-1,643,1429,-10.1284,-1.62922
-574,-405,-9.32074,3.05896,0,0,0,0,0,0,0,-1,650,1429,-9.32077,-3.0589
-567,-405,-9.68781,6.92163,0,0,0,0,0,0,0,-1,657,1429,-9.68782,-6.92166
-560,-405,-9.28674,7.20886,0,0,0,0,0,0,0,-1,664,1429,-9.28675,-7.20885
-553,-405,-20.6244,15.8638,0,0,0,0,0,0,0,-1,671,1429,-20.6244,-15.8637
-546,-405,-24.1371,18.6787,0,0,0,0,0,0,0,-1,678,1429,-24.1371,-18.6787
-539,-405,-24.0773,19.8835,0.0052215,0.00403896,0.00409898,0.00877164,0.000488824,0.713769,0.00569182,0.0156117,685,1429,-24.0773,-19.8836
-532,-405,-24.1132,20.8192,0.00396923,0.00292918,0.00308128,0.00657406,0.000324346,0.701801,0.00427869,0.0174927,692,1429,-24.1131,-20.8192
-525,-405,-24.1557,21.7612,0.00311414,0.00207221,0.00227467,0.00492674,0.000259611,0.672825,0.00320147,0.015845,699,1429,-24.1557,-21.7612
-518,-405,-24.1964,22.676,0.00249343,0.00137214,0.00162869,0.00365527,0.0002103,0.619636,0.00236986,0.0158737,706,1429,-24.1964,-22.676
-511,-405,-24.2451,23.5658,0.00203888,0.000790375,0.00109403,0.00267423,0.000155024,0.526139,0.00173346,0.0158757,713,1429,-24.2451,-23.5658
-504,-405,-24.2947,24.4653,0.00176421,0.000328954,0.000679087,0.00203459,5.85795e-05,0.378905,0.00133729,0.0178443,720,1429,-24.2948,-24.4654
-497,-405,-24.3539,25.3992,0.00165805,-7.66024e-06,0.000383137,0.00174195,-9.15614e-05,0.215582,0.00119299,0.0153949,727,1429,-24.354,-25.3992
-490,-405,-24.4431,26.3073,0.00174536,-0.000246782,0.000194572,0.00176419,-0.000265608,0.0964552,0.00127392,0.013088,734,1429,-24.443,-26.3072
-483,-405,-24.4365,27.2097,0.00193063,-0.000277039,0.000113329,0.00193643,-0.000282841,0.0511551,0.00139483,0.042388,741,1429,-24.4364,-27.2098
-476,-405,-24.3372,28.212,0,0,0,0,0,0,0,-1,748,1429,-24.3371,-28.212
-469,-405,-9.65692,12.8171,0,0,0,0,0,0,0,-1,755,1429,-9.65691,-12.8172
-462,-405,-9.14862,11.3597,0,0,0,0,0,0,0,-1,762,1429,-9.14865,-11.3597
-455,-405,-9.021,9.51111,0,0,0,0,0,0,0,-1,769,1429,-9.021,-9.51109
-448,-405,-8.4649,6.82813,0,0,0,0,0,0,0,-1,776,1429,-8.46492,-6.82817
-441,-405,-6.6712,4.23767,0,0,0,0,0,0,0,-1,783,1429,-6.67121,-4.23764
-434,-405,-9.62549,3.94189,0,0,0,0,0,0,0,-1,790,1429,-9.62546,-3.94191
-427,-405,-10.9764,3.73926,0,0,0,0,0,0,0,-1,797,1429,-10.9764,-3.73923
-420,-405,-12.1187,3.68506,0,0,0,0,0,0,0,-1,804,1429,-12.1187,-3.68512
-413,-405,-13.5353,3.75659,0,0,0,0,0,0,0,-1,811,1429,-13.5353,-3.75655
-406,-405,-14.7374,3.99817,0,0,0,0,0,0,0,-1,818,1429,-14.7374,-3.99814
-399,-405,0,0,0,0,0,0,0,0,0,-1,825,1429,0,0
-392,-405,0,0,0,0,0,0,0,0,0,-1,832,1429,0,0
-385,-405,0,0,0,0,0,0,0,0,0,-1,839,1429,0,0
-378,-405,0,0,0,0,0,0,0,0,0,-1,846,1429,0,0
-371,-405,0,0,0,0,0,0,0,0,0,-1,853,1429,0,0
-364,-405,0,0,0,0,0,0,0,0,0,-1,860,1429,0,0
-357,-405,0,0,0,0,0,0,0,0,0,-1,867,1429,0,0
-350,-405,0,0,0,0,0,0,0,0,0,-1,874,1429,0,0
-343,-405,0,0,0,0,0,0,0,0,0,-1,881,1429,0,0
-336,-405,0,0,0,0,0,0,0,0,0,-1,888,1429,0,0
-329,-405,0,0,0,0,0,0,0,0,0,-1,895,1429,0,0
-322,-405,0,0,0,0,0,0,0,0,0,-1,902,1429,0,0
-315,-405,0,0,0,0,0,0,0,0,0,-1,909,1429,0,0
-308,-405,0,0,0,0,0,0,0,0,0,-1,916,1429,0,0
-301,-405,0,0,0,0,0,0,0,0,0,-1,923,1429,0,0
-294,-405,0,0,0,0,0,0,0,0,0,-1,930,1429,0,0
-287,-405,0,0,0,0,0,0,0,0,0,-1,937,1429,0,0
-280,-405,0,0,0,0,0,0,0,0,0,-1,944,1429,0,0
-273,-405,0,0,0,0,0,0,0,0,0,-1,951,1429,0,0
-266,-405,0,0,0,0,0,0,0,0,0,-1,958,1429,0,0
-259,-405,0,0,0,0,0,0,0,0,0,-1,965,1429,0,0
-252,-405,0,0,0,0,0,0,0,0,0,-1,972,1429,0,0
-245,-405,0,0,0,0,0,0,0,0,0,-1,979,1429,0,0
-238,-405,0,0,0,0,0,0,0,0,0,-1,986,1429,0,0
-231,-405,0,0,0,0,0,0,0,0,0,-1,993,1429,0,0
-224,-405,0,0,0,0,0,0,0,0,0,-1,1000,1429,0,0
-217,-405,0,0,0,0,0,0,0,0,0,-1,1007,1429,0,0
-210,-405,0,0,0,0,0,0,0,0,0,-1,1014,1429,0,0
-203,-405,0,0,0,0,0,0,0,0,0,-1,1021,1429,0,0
-196,-405,0,0,0,0,0,0,0,0,0,-1,1028,1429,0,0
-189,-405,0,0,0,0,0,0,0,0,0,-1,1035,1429,0,0
-182,-405,0,0,0,0,0,0,0,0,0,-1,1042,1429,0,0
-175,-405,0,0,0,0,0,0,0,0,0,-1,1049,1429,0,0
-168,-405,0,0,0,0,0,0,0,0,0,-1,1056,1429,0,0
-161,-405,0,0,0,0,0,0,0,0,0,-1,1063,1429,0,0
-154,-405,0,0,0,0,0,0,0,0,0,-1,1070,1429,0,0
-147,-405,0,0,0,0,0,0,0,0,0,-1,1077,1429,0,0
-140,-405,0,0,0,0,0,0,0,0,0,-1,1084,1429,0,0
-133,-405,0,0,0,0,0,0,0,0,0,-1,1091,1429,0,0
-126,-405,0,0,0,0,0,0,0,0,0,-1,1098,1429,0,0
-119,-405,0,0,0,0,0,0,0,0,0,-1,1105,1429,0,0
-112,-405,0,0,0,0,0,0,0,0,0,-1,1112,1429,0,0
-105,-405,0,0,0,0,0,0,0,0,0,-1,1119,1429,0,0
-98,-405,0,0,0,0,0,0,0,0,0,-1,1126,1429,0,0
-91,-405,0,0,0,0,0,0,0,0,0,-1,1133,1429,0,0
-84,-405,0,0,0,0,0,0,0,0,0,-1,1140,1429,0,0
-77,-405,0,0,0,0,0,0,0,0,0,-1,1147,1429,0,0
-70,-405,0,0,0,0,0,0,0,0,0,-1,1154,1429,0,0
-63,-405,0,0,0,0,0,0,0,0,0,-1,1161,1429,0,0
-56,-405,0,0,0,0,0,0,0,0,0,-1,1168,1429,0,0
-49,-405,0,0,0,0,0,0,0,0,0,-1,1175,1429,0,0
-42,-405,0,0,0,0,0,0,0,0,0,-1,1182,1429,0,0
-35,-405,0,0,0,0,0,0,0,0,0,-1,1189,1429,0,0
-28,-405,0,0,0,0,0,0,0,0,0,-1,1196,1429,0,0
-21,-405,0,0,0,0,0,0,0,0,0,-1,1203,1429,0,0
-14,-405,0,0,0,0,0,0,0,0,0,-1,1210,1429,0,0
-7,-405,0,0,0,0,0,0,0,0,0,-1,1217,1429,0,0
0,-405,0,0,0,0,0,0,0,0,0,-1,1224,1429,0,0
7,-405,0,0,0,0,0,0,0,0,0,-1,1231,1429,0,0
14,-405,0,0,0,0,0,0,0,0,0,-1,1238,1429,0,0
21,-405,0,0,0,0,0,0,0,0,0,-1,1245,1429,0,0
28,-405,0,0,0,0,0,0,0,0,0,-1,1252,1429,0,0
35,-405,0,0,0,0,0,0,0,0,0,-1,1259,1429,0,0
42,-405,0,0,0,0,0,0,0,0,0,-1,1266,1429,0,0
49,-405,0,0,0,0,0,0,0,0,0,-1,1273,1429,0,0
56,-405,0,0,0,0,0,0,0,0,0,-1,1280,1429,0,0
63,-405,0,0,0,0,0,0,0,0,0,-1,1287,1429,0,0
70,-405,0,0,0,0,0,0,0,0,0,-1,1294,1429,0,0
77,-405,0,0,0,0,0,0,0,0,0,-1,1301,1429,0,0
84,-405,0,0,0,0,0,0,0,0,0,-1,1308,1429,0,0
91,-405,0,0,0,0,0,0,0,0,0,-1,1315,1429,0,0
98,-405,0,0,0,0,0,0,0,0,0,-1,1322,1429,0,0
105,-405,0,0,0,0,0,0,0,0,0,-1,1329,1429,0,0
112,-405,0,0,0,0,0,0,0,0,0,-1,1336,1429,0,0
119,-405,0,0,0,0,0,0,0,0,0,-1,1343,1429,0,0
126,-405,0,0,0,0,0,0,0,0,0,-1,1350,1429,0,0
133,-405,0,0,0,0,0,0,0,0,0,-1,1357,1429,0,0
140,-405,0,0,0,0,0,0,0,0,0,-1,1364,1429,0,0
147,-405,0,0,0,0,0,0,0,0,0,-1,1371,1429,0,0
154,-405,0,0,0,0,0,0,0,0,0,-1,1378,1429,0,0
161,-405,0,0,0,0,0,0,0,0,0,-1,1385,1429,0,0
168,-405,0,0,0,0,0,0,0,0,0,-1,1392,1429,0,0
175,-405,0,0,0,0,0,0,0,0,0,-1,1399,1429,0,0
182,-405,0,0,0,0,0,0,0,0,0,-1,1406,1429,0,0
189,-405,0,0,0,0,0,0,0,0,0,-1,1413,1429,0,0
196,-405,0,0,0,0,0,0,0,0,0,-1,1420,1429,0,0
203,-405,0,0,0,0,0,0,0,0,0,-1,1427,1429,0,0
210,-405,0,0,0,0,0,0,0,0,0,-1,1434,1429,0,0
217,-405,0,0,0,0,0,0,0,0,0,-1,1441,1429,0,0
224,-405,0,0,0,0,0,0,0,0,0,-1,1448,1429,0,0
231,-405,0,0,0,0,0,0,0,0,0,-1,1455,1429,0,0
238,-405,0,0,0,0,0,0,0,0,0,-1,1462,1429,0,0
245,-405,0,0,0,0,0,0,0,0,0,-1,1469,1429,0,0
252,-405,0,0,0,0,0,0,0,0,0,-1,1476,1429,0,0
259,-405,0,0,0,0,0,0,0,0,0,-1,1483,1429,0,0
266,-405,0,0,0,0,0,0,0,0,0,-1,1490,1429,0,0
273,-405,0,0,0,0,0,0,0,0,0,-1,1497,1429,0,0
280,-405,0,0,0,0,0,0,0,0,0,-1,1504,1429,0,0
287,-405,0,0,0,0,0,0,0,0,0,-1,1511,1429,0,0
294,-405,0,0,0,0,0,0,0,0,0,-1,1518,1429,0,0
301,-405,0,0,0,0,0,0,0,0,0,-1,1525,1429,0,0
308,-405,0,0,0,0,0,0,0,0,0,-1,1532,1429,0,0
315,-405,0,0,0,0,0,0,0,0,0,-1,1539,1429,0,0
322,-405,0,0,0,0,0,0,0,0,0,-1,1546,1429,0,0
329,-405,0,0,0,0,0,0,0,0,0,-1,1553,1429,0,0
336,-405,0,0,0,0,0,0,0,0,0,-1,1560,1429,0,0
343,-405,0,0,0,0,0,0,0,0,0,-1,1567,1429,0,0
350,-405,0,0,0,0,0,0,0,0,0,-1,1574,1429,0,0
357,-405,0,0,0,0,0,0,0,0,0,-1,1581,1429,0,0
364,-405,0,0,0,0,0,0,0,0,0,-1,1588,1429,0,0
371,-405,0,0,0,0,0,0,0,0,0,-1,1595,1429,0,0
378,-405,0,0,0,0,0,0,0,0,0,-1,1602,1429,0,0
385,-405,0,0,0,0,0,0,0,0,0,-1,1609,1429,0,0
392,-405,0,0,0,0,0,0,0,0,0,-1,1616,1429,0,0
399,-405,0,0,0,0,0,0,0,0,0,-1,1623,1429,0,0
406,-405,0,0,0,0,0,0,0,0,0,-1,1630,1429,0,0
413,-405,0,0,0,0,0,0,0,0,0,-1,1637,1429,0,0
420,-405,0,0,0,0,0,0,0,0,0,-1,1644,1429,0,0
427,-405,0,0,0,0,0,0,0,0,0,-1,1651,1429,0,0
434,-405,0,0,0,0,0,0,0,0,0,-1,1658,1429,0,0
441,-405,0,0,0,0,0,0,0,0,0,-1,1665,1429,0,0
448,-405,0,0,0,0,0,0,0,0,0,-1,1672,1429,0,0
455,-405,0,0,0,0,0,0,0,0,0,-1,1679,1429,0,0
462,-405,0,0,0,0,0,0,0,0,0,-1,1686,1429,0,0
469,-405,0,0,0,0,0,0,0,0,0,-1,1693,1429,0,0
476,-405,0,0,0,0,0,0,0,0,0,-1,1700,1429,0,0
483,-405,0,0,0,0,0,0,0,0,0,-1,1707,1429,0,0
490,-405,0,0,0,0,0,0,0,0,0,-1,1714,1429,0,0
497,-405,0,0,0,0,0,0,0,0,0,-1,1721,1429,0,0
504,-405,0,0,0,0,0,0,0,0,0,-1,1728,1429,0,0
511,-405,0,0,0,0,0,0,0,0,0,-1,1735,1429,0,0
518,-405,0,0,0,0,0,0,0,0,0,-1,1742,1429,0,0
525,-405,31.1563,-1.40942,0,0,0,0,0,0,0,-1,1749,1429,31.1563,1.40937
532,-405,28.156,4.8783,0,0,0,0,0,0,0,-1,1756,1429,28.1561,-4.87833
539,-405,26.5133,3.02454,0,0,0,0,0,0,0,-1,1763,1429,26.5133,-3.0246
546,-405,29.5735,6.53052,0,0,0,0,0,0,0,-1,1770,1429,29.5735,-6.53049
553,-405,28.2911,6.70654,0,0,0,0,0,0,0,-1,1777,1429,28.2912,-6.70656
560,-405,26.9299,7.08472,0,0,0,0,0,0,0,-1,1784,1429,26.9299,-7.08469
567,-405,25.804,7.14661,0,0,0,0,0,0,0,-1,1791,1429,25.8039,-7.14665
574,-405,25.1151,8.07971,0,0,0,0,0,0,0,-1,1798,1429,25.1151,-8.07965
581,-405,23.5055,8.505,0,0,0,0,0,0,0,-1,1805,1429,23.5054,-8.50501
588,-405,21.7491,8.98254,0,0,0,0,0,0,0,-1,1812,1429,21.7491,-8.98254
595,-405,21.6327,10.7795,0,0,0,0,0,0,0,-1,1819,1429,21.6327,-10.7796
602,-405,21.6461,13.9199,0,0,0,0,0,0,0,-1,1826,1429,21.6461,-13.92
609,-405,37.801,24.062,0,0,0,0,0,0,0,-1,1833,1429,37.8011,-24.062
616,-405,41.7294,26.6914,0,0,0,0,0,0,0,-1,1840,1429,41.7293,-26.6915
623,-405,41.6984,25.7681,0.000137786,0.000649029,-0.000487594,0.000943943,-0.000157129,-1.02683,0.000687682,0.0167666,1847,1429,41.6983,-25.7681
630,-405,41.6641,24.8551,3.18445e-05,0.000347926,-0.000251574,0.000486982,-0.000107211,-1.06585,0.000365669,0.0113738,1854,1429,41.664,-24.8551
637,-405,41.6102,23.9679,0.000376814,0.000120049,-0.000299554,0.000574337,-7.74744e-05,-0.582949,0.000411157,0.0119069,1861,1429,41.6102,-23.9679
644,-405,41.5116,23.0865,0.00101191,7.10077e-06,-0.000523032,0.00123475,-0.000215734,-0.402755,0.0009037,0.0323949,1868,1429,41.5116,-23.0866
651,-405,41.3756,22.2764,0.00191467,1.05157e-05,-0.000922166,0.00228805,-0.000362866,-0.38472,0.0016596,0.0362858,1875,1429,41.3756,-22.2763
658,-405,41.4414,21.3772,0.00307155,6.70877e-05,-0.00148316,0.00368035,-0.000541717,-0.389506,0.00265264,0.0267761,1882,1429,41.4414,-21.3771
665,-405,41.3966,20.4824,0.00448178,0.000185465,-0.00218768,0.00539965,-0.000732408,-0.397257,0.00386709,0.0190628,1889,1429,41.3966,-20.4824
672,-405,41.3805,19.6029,0.00610872,0.00032009,-0.00303324,0.00740696,-0.000978158,-0.404415,0.00529424,0.0228599,1896,1429,41.3805,-19.6029
679,-405,41.5568,18.7094,0.00803338,0.00049161,-0.00410017,0.00983304,-0.00130805,-0.413604,0.00703205,0.0487835,1903,1429,41.5567,-18.7093
686,-405,41.7438,17.5911,0,0,0,0,0,0,0,-1,1910,1429,41.7438,-17.591
693,-405,37.6653,14.9521,0,0,0,0,0,0,0,-1,1917,1429,37.6653,-14.9521
700,-405,9.1958,4.02026,0,0,0,0,0,0,0,-1,1924,1429,9.19579,-4.02025
707,-405,7.40308,3.83191,0,0,0,0,0,0,0,-1,1931,1429,7.40311,-3.83194
714,-405,7.33252,3.47388,0,0,0,0,0,0,0,-1,1938,1429,7.33255,-3.47383
721,-405,9.23523,0.993896,0,0,0,0,0,0,0,-1,1945,1429,9.23523,-0.993884
728,-405,0,0,0,0,0,0,0,0,0,-1,1952,1429,0,0
735,-405,0,0,0,0,0,0,0,0,0,-1,1959,1429,0,0
742,-405,0,0,0,0,0,0,0,0,0,-1,1966,1429,0,0
749,-405,0,0,0,0,0,0,0,0,0,-1,1973,1429,0,0
756,-405,0,0,0,0,0,0,0,0,0,-1,1980,1429,0,0
763,-405,0,0,0,0,0,0,0,0,0,-1,1987,1429,0,0
770,-405,0,0,0,0,0,0,0,0,0,-1,1994,1429,0,0
777,-405,0,0,0,0,0,0,0,0,0,-1,2001,1429,0,0
784,-405,0,0,0,0,0,0,0,0,0,-1,2008,1429,0,0
791,-405,0,0,0,0,0,0,0,0,0,-1,2015,1429,0,0
798,-405,0,0,0,0,0,0,0,0,0,-1,2022,1429,0,0
805,-405,0,0,0,0,0,0,0,0,0,-1,2029,1429,0,0
812,-405,0,0,0,0,0,0,0,0,0,-1,2036,1429,0,0
-700,-412,0,0,0,0,0,0,0,0,0,-1,524,1436,0,0
-693,-412,0,0,0,0,0,0,0,0,0,-1,531,1436,0,0
-686,-412,0,0,0,0,0,0,0,0,0,-1,538,1436,0,0
-679,-412,0,0,0,0,0,0,0,0,0,-1,545,1436,0,0
-672,-412,0,0,0,0,0,0,0,0,0,-1,552,1436,0,0
-665,-412,0,0,0,0,0,0,0,0,0,-1,559,1436,0,0
-658,-412,0,0,0,0,0,0,0,0,0,-1,566,1436,0,0
-651,-412,0,0,0,0,0,0,0,0,0,-1,573,1436,0,0
-644,-412,0,0,0,0,0,0,0,0,0,-1,580,1436,0,0
-637,-412,0,0,0,0,0,0,0,0,0,-1,587,1436,0,0
-630,-412,0,0,0,0,0,0,0,0,0,-1,594,1436,0,0
-623,-412,0,0,0,0,0,0,0,0,0,-1,601,1436,0,0
-616,-412,0,0,0,0,0,0,0,0,0,-1,608,1436,0,0
-609,-412,0,0,0,0,0,0,0,0,0,-1,615,1436,0,0
-602,-412,-3.72766,-3.50012,0,0,0,0,0,0,0,-1,622,1436,-3.72764,3.50017
-595,-412,-10.3706,0.65564,0,0,0,0,0,0,0,-1,629,1436,-10.3706,-0.655672
-588,-412,-8.17957,1.94934,0,0,0,0,0,0,0,-1,636,1436,-8.17956,-1.94939
-581,-412,-6.60065,-0.0554199,0,0,0,0,0,0,0,-1,643,1436,-6.60063,0.0554733
-574,-412,-8.34131,5.25012,0,0,0,0,0,0,0,-1,650,1436,-8.34129,-5.25012
-567,-412,-7.50354,3.65454,0,0,0,0,0,0,0,-1,657,1436,-7.50356,-3.65452
-560,-412,-8.52448,7.39014,0,0,0,0,0,0,0,-1,664,1436,-8.52447,-7.39019
-553,-412,-7.36761,6.54651,0,0,0,0,0,0,0,-1,671,1436,-7.36763,-6.54654
-546,-412,-23.2345,18.8097,0,0,0,0,0,0,0,-1,678,1436,-23.2345,-18.8097
-539,-412,-23.1414,19.8539,0.00547798,0.00518659,0.00479114,0.0101256,0.000538937,0.770198,0.00657815,0.0366172,685,1436,-23.1414,-19.8538
-532,-412,-23.1984,20.9042,0.00409869,0.00385319,0.00361203,0.00759005,0.000361829,0.768413,0.00494384,0.0170269,692,1436,-23.1984,-20.9041
-525,-412,-23.2529,21.8391,0.00316655,0.00282575,0.00267764,0.00567921,0.000313087,0.753622,0.00368621,0.0157231,699,1436,-23.2529,-21.8391
-518,-412,-23.2855,22.7355,0.00248557,0.00197916,0.00192396,0.00417291,0.000291813,0.719971,0.00268995,0.0154625,706,1436,-23.2855,-22.7355
-511,-412,-23.3325,23.6217,0.00197678,0.00127366,0.00130247,0.00297431,0.000276136,0.653581,0.00189754,0.0188589,713,1436,-23.3325,-23.6218
-504,-412,-23.4056,24.5199,0.00163527,0.000699185,0.000800648,0.00209464,0.000239812,0.520896,0.00132375,0.0199176,720,1436,-23.4056,-24.5199
-497,-412,-23.4636,25.4697,0.00146754,0.000265518,0.000438121,0.00161028,0.000122778,0.314954,0.00103502,0.0166189,727,1436,-23.4636,-25.4698
-490,-412,-23.5188,26.3762,0.00144287,-5.27992e-05,0.000182565,0.00146483,-7.47611e-05,0.119721,0.0010024,0.0128112,734,1436,-23.5188,-26.3762
-483,-412,-23.5589,27.2433,0.00154193,-0.000185393,5.43454e-05,0.00154363,-0.000187101,0.0314209,0.00109679,0.0120285,741,1436,-23.5589,-27.2433
-476,-412,-23.5538,28.2338,0,0,0,0,0,0,0,-1,748,1436,-23.5538,-28.2337
-469,-412,-12.7646,18.4785,0,0,0,0,0,0,0,-1,755,1436,-12.7647,-18.4785
-462,-412,-8.94659,13.3385,0,0,0,0,0,0,0,-1,762,1436,-8.94657,-13.3385
-455,-412,-8.25006,11.2572,0,0,0,0,0,0,0,-1,769,1436,-8.25007,-11.2572
-448,-412,-7.38086,8.78186,0,0,0,0,0,0,0,-1,776,1436,-7.38088,-8.78183
-441,-412,-8.79523,9.05286,0,0,0,0,0,0,0,-1,783,1436,-8.79521,-9.0529
-434,-412,-10.6305,8.03577,0,0,0,0,0,0,0,-1,790,1436,-10.6305,-8.0358
-427,-412,-10.0004,5.15271,0,0,0,0,0,0,0,-1,797,1436,-10.0004,-5.15266
-420,-412,-10.4468,4.9043,0,0,0,0,0,0,0,-1,804,1436,-10.4468,-4.90429
-413,-412,-11.5704,4.97766,0,0,0,0,0,0,0,-1,811,1436,-11.5704,-4.97771
-406,-412,-13.1968,5.70093,0,0,0,0,0,0,0,-1,818,1436,-13.1968,-5.70096
-399,-412,-10.5506,0.771973,0,0,0,0,0,0,0,-1,825,1436,-10.5506,-0.771954
-392,-412,0,0,0,0,0,0,0,0,0,-1,832,1436,0,0
-385,-412,0,0,0,0,0,0,0,0,0,-1,839,1436,0,0
-378,-412,0,0,0,0,0,0,0,0,0,-1,846,1436,0,0
-371,-412,0,0,0,0,0,0,0,0,0,-1,853,1436,0,0
-364,-412,0,0,0,0,0,0,0,0,0,-1,860,1436,0,0
-357,-412,0,0,0,0,0,0,0,0,0,-1,867,1436,0,0
-350,-412,0,0,0,0,0,0,0,0,0,-1,874,1436,0,0
-343,-412,0,0,0,0,0,0,0,0,0,-1,881,1436,0,0
-336,-412,0,0,0,0,0,0,0,0,0,-1,888,1436,0,0
-329,-412,0,0,0,0,0,0,0,0,0,-1,895,1436,0,0
-322,-412,0,0,0,0,0,0,0,0,0,-1,902,1436,0,0
-315,-412,0,0,0,0,0,0,0,0,0,-1,909,1436,0,0
-308,-412,0,0,0,0,0,0,0,0,0,-1,916,1436,0,0
-301,-412,0,0,0,0,0,0,0,0,0,-1,923,1436,0,0
-294,-412,0,0,0,0,0,0,0,0,0,-1,930,1436,0,0
-287,-412,0,0,0,0,0,0,0,0,0,-1,937,1436,0,0
-280,-412,0,0,0,0,0,0,0,0,0,-1,944,1436,0,0
-273,-412,0,0,0,0,0,0,0,0,0,-1,951,1436,0,0
-266,-412,0,0,0,0,0,0,0,0,0,-1,958,1436,0,0
-259,-412,0,0,0,0,0,0,0,0,0,-1,965,1436,0,0
-252,-412,0,0,0,0,0,0,0,0,0,-1,972,1436,0,0
-245,-412,0,0,0,0,0,0,0,0,0,-1,979,1436,0,0
-238,-412,0,0,0,0,0,0,0,0,0,-1,986,1436,0,0
-231,-412,0,0,0,0,0,0,0,0,0,-1,993,1436,0,0
-224,-412,0,0,0,0,0,0,0,0,0,-1,1000,1436,0,0
-217,-412,0,0,0,0,0,0,0,0,0,-1,1007,1436,0,0
-210,-412,0,0,0,0,0,0,0,0,0,-1,1014,1436,0,0
-203,-412,0,0,0,0,0,0,0,0,0,-1,1021,1436,0,0
-196,-412,0,0,0,0,0,0,0,0,0,-1,1028,1436,0,0
-189,-412,0,0,0,0,0,0,0,0,0,-1,1035,1436,0,0
-182,-412,0,0,0,0,0,0,0,0,0,-1,1042,1436,0,0
-175,-412,0,0,0,0,0,0,0,0,0,-1,1049,1436,0,0
-168,-412,0,0,0,0,0,0,0,0,0,-1,1056,1436,0,0
-161,-412,0,0,0,0,0,0,0,0,0,-1,1063,1436,0,0
-154,-412,0,0,0,0,0,0,0,0,0,-1,1070,1436,0,0
-147,-412,0,0,0,0,0,0,0,0,0,-1,1077,1436,0,0
-140,-412,0,0,0,0,0,0,0,0,0,-1,1084,1436,0,0
-133,-412,0,0,0,0,0,0,0,0,0,-1,1091,1436,0,0
-126,-412,0,0,0,0,0,0,0,0,0,-1,1098,1436,0,0
-119,-412,0,0,0,0,0,0,0,0,0,-1,1105,1436,0,0
-112,-412,0,0,0,0,0,0,0,0,0,-1,1112,1436,0,0
-105,-412,0,0,0,0,0,0,0,0,0,-1,1119,1436,0,0
-98,-412,0,0,0,0,0,0,0,0,0,-1,1126,1436,0,0
-91,-412,0,0,0,0,0,0,0,0,0,-1,1133,1436,0,0
-84,-412,0,0,0,0,0,0,0,0,0,-1,1140,1436,0,0
-77,-412,0,0,0,0,0,0,0,0,0,-1,1147,1436,0,0
-70,-412,0,0,0,0,0,0,0,0,0,-1,1154,1436,0,0
-63,-412,0,0,0,0,0,0,0,0,0,-1,1161,1436,0,0
-56,-412,0,0,0,0,0,0,0,0,0,-1,1168,1436,0,0
-49,-412,0,0,0,0,0,0,0,0,0,-1,1175,1436,0,0
-42,-412,0,0,0,0,0,0,0,0,0,-1,1182,1436,0,0
-35,-412,0,0,0,0,0,0,0,0,0,-1,1189,1436,0,0
-28,-412,0,0,0,0,0,0,0,0,0,-1,1196,1436,0,0
-21,-412,0,0,0,0,0,0,0,0,0,-1,1203,1436,0,0
-14,-412,0,0,0,0,0,0,0,0,0,-1,1210,1436,0,0
-7,-412,0,0,0,0,0,0,0,0,0,-1,1217,1436,0,0
0,-412,0,0,0,0,0,0,0,0,0,-1,1224,1436,0,0
7,-412,0,0,0,0,0,0,0,0,0,-1,1231,1436,0,0
14,-412,0,0,0,0,0,0,0,0,0,-1,1238,1436,0,0
21,-412,0,0,0,0,0,0,0,0,0,-1,1245,1436,0,0
28,-412,0,0,0,0,0,0,0,0,0,-1,1252,1436,0,0
35,-412,0,0,0,0,0,0,0,0,0,-1,1259,1436,0,0
42,-412,0,0,0,0,0,0,0,0,0,-1,1266,1436,0,0
49,-412,0,0,0,0,0,0,0,0,0,-1,1273,1436,0,0
56,-412,0,0,0,0,0,0,0,0,0,-1,1280,1436,0,0
63,-412,0,0,0,0,0,0,0,0,0,-1,1287,1436,0,0
70,-412,0,0,0,0,0,0,0,0,0,-1,1294,1436,0,0
77,-412,0,0,0,0,0,0,0,0,0,-1,1301,1436,0,0
84,-412,0,0,0,0,0,0,0,0,0,-1,1308,1436,0,0
91,-412,0,0,0,0,0,0,0,0,0,-1,1315,1436,0,0
98,-412,0,0,0,0,0,0,0,0,0,-1,1322,1436,0,0
105,-412,0,0,0,0,0,0,0,0,0,-1,1329,1436,0,0
112,-412,0,0,0,0,0,0,0,0,0,-1,1336,1436,0,0
119,-412,0,0,0,0,0,0,0,0,0,-1,1343,1436,0,0
126,-412,0,0,0,0,0,0,0,0,0,-1,1350,1436,0,0
133,-412,0,0,0,0,0,0,0,0,0,-1,1357,1436,0,0
140,-412,0,0,0,0,0,0,0,0,0,-1,1364,1436,0,0
147,-412,0,0,0,0,0,0,0,0,0,-1,1371,1436,0,0
154,-412,0,0,0,0,0,0,0,0,0,-1,1378,1436,0,0
161,-412,0,0,0,0,0,0,0,0,0,-1,1385,1436,0,0
168,-412,0,0,0,0,0,0,0,0,0,-1,1392,1436,0,0
175,-412,0,0,0,0,0,0,0,0,0,-1,1399,1436,0,0
182,-412,0,0,0,0,0,0,0,0,0,-1,1406,1436,0,0
189,-412,0,0,0,0,0,0,0,0,0,-1,1413,1436,0,0
196,-412,0,0,0,0,0,0,0,0,0,-1,1420,1436,0,0
203,-412,0,0,0,0,0,0,0,0,0,-1,1427,1436,0,0
210,-412,0,0,0,0,0,0,0,0,0,-1,1434,1436,0,0
217,-412,0,0,0,0,0,0,0,0,0,-1,1441,1436,0,0
224,-412,0,0,0,0,0,0,0,0,0,-1,1448,1436,0,0
231,-412,0,0,0,0,0,0,0,0,0,-1,1455,1436,0,0
238,-412,0,0,0,0,0,0,0,0,0,-1,1462,1436,0,0
245,-412,0,0,0,0,0,0,0,0,0,-1,1469,1436,0,0
252,-412,0,0,0,0,0,0,0,0,0,-1,1476,1436,0,0
259,-412,0,0,0,0,0,0,0,0,0,-1,1483,1436,0,0
266,-412,0,0,0,0,0,0,0,0,0,-1,1490,1436,0,0
273,-412,0,0,0,0,0,0,0,0,0,-1,1497,1436,0,0
280,-412,0,0,0,0,0,0,0,0,0,-1,1504,1436,0,0
287,-412,0,0,0,0,0,0,0,0,0,-1,1511,1436,0,0
294,-412,0,0,0,0,0,0,0,0,0,-1,1518,1436,0,0
301,-412,0,0,0,0,0,0,0,0,0,-1,1525,1436,0,0
308,-412,0,0,0,0,0,0,0,0,0,-1,1532,1436,0,0
315,-412,0,0,0,0,0,0,0,0,0,-1,1539,1436,0,0
322,-412,0,0,0,0,0,0,0,0,0,-1,1546,1436,0,0
329,-412,0,0,0,0,0,0,0,0,0,-1,1553,1436,0,0
336,-412,0,0,0,0,0,0,0,0,0,-1,1560,1436,0,0
343,-412,0,0,0,0,0,0,0,0,0,-1,1567,1436,0,0
350,-412,0,0,0,0,0,0,0,0,0,-1,1574,1436,0,0
357,-412,0,0,0,0,0,0,0,0,0,-1,1581,1436,0,0
364,-412,0,0,0,0,0,0,0,0,0,-1,1588,1436,0,0
371,-412,0,0,0,0,0,0,0,0,0,-1,1595,1436,0,0
378,-412,0,0,0,0,0,0,0,0,0,-1,1602,1436,0,0
385,-412,0,0,0,0,0,0,0,0,0,-1,1609,1436,0,0
392,-412,0,0,0,0,0,0,0,0,0,-1,1616,1436,0,0
399,-412,0,0,0,0,0,0,0,0,0,-1,1623,1436,0,0
406,-412,0,0,0,0,0,0,0,0,0,-1,1630,1436,0,0
413,-412,0,0,0,0,0,0,0,0,0,-1,1637,1436,0,0
420,-412,0,0,0,0,0,0,0,0,0,-1,1644,1436,0,0
427,-412,0,0,0,0,0,0,0,0,0,-1,1651,1436,0,0
434,-412,0,0,0,0,0,0,0,0,0,-1,1658,1436,0,0
441,-412,0,0,0,0,0,0,0,0,0,-1,1665,1436,0,0
448,-412,0,0,0,0,0,0,0,0,0,-1,1672,1436,0,0
455,-412,0,0,0,0,0,0,0,0,0,-1,1679,1436,0,0
462,-412,0,0,0,0,0,0,0,0,0,-1,1686,1436,0,0
469,-412,0,0,0,0,0,0,0,0,0,-1,1693,1436,0,0
476,-412,0,0,0,0,0,0,0,0,0,-1,1700,1436,0,0
483,-412,0,0,0,0,0,0,0,0,0,-1,1707,1436,0,0
490,-412,0,0,0,0,0,0,0,0,0,-1,1714,1436,0,0
497,-412,0,0,0,0,0,0,0,0,0,-1,1721,1436,0,0
504,-412,0,0,0,0,0,0,0,0,0,-1,1728,1436,0,0
511,-412,0,0,0,0,0,0,0,0,0,-1,1735,1436,0,0
518,-412,30.1038,-2.43384,0,0,0,0,0,0,0,-1,1742,1436,30.1038,2.43383
525,-412,29.5283,-1.42493,0,0,0,0,0,0,0,-1,1749,1436,29.5283,1.42495
532,-412,28.8533,-0.386597,0,0,0,0,0,0,0,-1,1756,1436,28.8533,0.386632
539,-412,25.8654,2.74683,0,0,0,0,0,0,0,-1,1763,1436,25.8654,-2.74685
546,-412,25.4265,2.4342,0,0,0,0,0,0,0,-1,1770,1436,25.4265,-2.4342
553,-412,26.3595,7.49255,0,0,0,0,0,0,0,-1,1777,1436,26.3595,-7.4925
560,-412,24.9116,7.94324,0,0,0,0,0,0,0,-1,1784,1436,24.9116,-7.94327
567,-412,23.668,7.94531,0,0,0,0,0,0,0,-1,1791,1436,23.6679,-7.94534
574,-412,23.0142,9.17236,0,0,0,0,0,0,0,-1,1798,1436,23.0141,-9.17235
581,-412,22.2615,10.0349,0,0,0,0,0,0,0,-1,1805,1436,22.2615,-10.0349
588,-412,21.6893,10.8069,0,0,0,0,0,0,0,-1,1812,1436,21.6893,-10.8069
595,-412,21.5137,14.3157,0,0,0,0,0,0,0,-1,1819,1436,21.5137,-14.3157
602,-412,37.0725,24.8387,0,0,0,0,0,0,0,-1,1826,1436,37.0725,-24.8388
609,-412,40.9382,27.6063,0,0,0,0,0,0,0,-1,1833,1436,40.9382,-27.6064
616,-412,40.9032,26.7002,0.00117652,0.0012032,-0.00104059,0.00223053,0.00014918,-0.791808,0.00143987,0.0160644,1840,1436,40.9031,-26.7001
623,-412,40.8184,25.819,0.000691734,0.000715079,-0.000674436,0.00137794,2.8869e-05,-0.794051,0.000909159,0.00973734,1847,1436,40.8184,-25.819
630,-412,40.7731,24.899,0.000658414,0.000369704,-0.000479682,0.00101499,1.31268e-05,-0.639239,0.000672328,0.0113602,1854,1436,40.773,-24.899
637,-412,40.7339,24.0074,0.000992713,0.000120462,-0.000501871,0.00122148,-0.000108304,-0.427687,0.000852716,0.0139395,1861,1436,40.7338,-24.0074
644,-412,40.7092,23.1329,0.00164984,-1.33255e-06,-0.000736733,0.00193076,-0.000282258,-0.364294,0.00139084,0.0161904,1868,1436,40.7092,-23.1329
651,-412,40.6508,22.2667,0.00258558,-4.29375e-06,-0.00115758,0.00302755,-0.000446265,-0.364725,0.00218238,0.0268043,1875,1436,40.6507,-22.2667
658,-412,40.5675,21.3949,0.00380256,6.27591e-05,-0.00176526,0.00450417,-0.00063885,-0.37831,0.00323681,0.0187814,1882,1436,40.5676,-21.3949
665,-412,40.5054,20.5195,0.00530209,0.000194833,-0.00253094,0.00634383,-0.000846905,-0.390467,0.00453794,0.02213,1889,1436,40.5054,-20.5196
672,-412,40.5549,19.593,0.00703927,0.000323629,-0.00345982,0.00850279,-0.00113989,-0.400179,0.00608419,0.0478639,1896,1436,40.5549,-19.593
679,-412,40.6736,18.6143,0,0,0,0,0,0,0,-1,1903,1436,40.6736,-18.6142
686,-412,35.3159,15.2073,0,0,0,0,0,0,0,-1,1910,1436,35.3159,-15.2072
693,-412,11.9346,6.02344,0,0,0,0,0,0,0,-1,1917,1436,11.9346,-6.02343
700,-412,8.82764,5.8844,0,0,0,0,0,0,0,-1,1924,1436,8.82761,-5.88444
707,-412,6.59998,1.68994,0,0,0,0,0,0,0,-1,1931,1436,6.60002,-1.68995
714,-412,4.77283,-2.39832,0,0,0,0,0,0,0,-1,1938,1436,4.77288,2.39835
721,-412,0,0,0,0,0,0,0,0,0,-1,1945,1436,0,0
728,-412,0,0,0,0,0,0,0,0,0,-1,1952,1436,0,0
735,-412,0,0,0,0,0,0,0,0,0,-1,1959,1436,0,0
742,-412,0,0,0,0,0,0,0,0,0,-1,1966,1436,0,0
749,-412,0,0,0,0,0,0,0,0,0,-1,1973,1436,0,0
756,-412,0,0,0,0,0,0,0,0,0,-1,1980,1436,0,0
763,-412,0,0,0,0,0,0,0,0,0,-1,1987,1436,0,0
770,-412,0,0,0,0,0,0,0,0,0,-1,1994,1436,0,0
777,-412,0,0,0,0,0,0,0,0,0,-1,2001,1436,0,0
784,-412,0,0,0,0,0,0,0,0,0,-1,2008,1436,0,0
791,-412,0,0,0,0,0,0,0,0,0,-1,2015,1436,0,0
798,-412,0,0,0,0,0,0,0,0,0,-1,2022,1436,0,0
805,-412,0,0,0,0,0,0,0,0,0,-1,2029,1436,0,0
812,-412,0,0,0,0,0,0,0,0,0,-1,2036,1436,0,0
-700,-419,0,0,0,0,0,0,0,0,0,-1,524,1443,0,0
-693,-419,0,0,0,0,0,0,0,0,0,-1,531,1443,0,0
-686,-419,0,0,0,0,0,0,0,0,0,-1,538,1443,0,0
-679,-419,0,0,0,0,0,0,0,0,0,-1,545,1443,0,0
-672,-419,0,0,0,0,0,0,0,0,0,-1,552,1443,0,0
-665,-419,0,0,0,0,0,0,0,0,0,-1,559,1443,0,0
-658,-419,0,0,0,0,0,0,0,0,0,-1,566,1443,0,0
-651,-419,0,0,0,0,0,0,0,0,0,-1,573,1443,0,0
-644,-419,0,0,0,0,0,0,0,0,0,-1,580,1443,0,0
-637,-419,0,0,0,0,0,0,0,0,0,-1,587,1443,0,0
-630,-419,0,0,0,0,0,0,0,0,0,-1,594,1443,0,0
-623,-419,0,0,0,0,0,0,0,0,0,-1,601,1443,0,0
-616,-419,0,0,0,0,0,0,0,0,0,-1,608,1443,0,0
-609,-419,0,0,0,0,0,0,0,0,0,-1,615,1443,0,0
-602,-419,0,0,0,0,0,0,0,0,0,-1,622,1443,0,0
-595,-419,-11.4904,-0.622681,0,0,0,0,0,0,0,-1,629,1443,-11.4903,0.622714
-588,-419,-9.09369,0.742432,0,0,0,0,0,0,0,-1,636,1443,-9.09366,-0.742482
-581,-419,-6.39172,2.14673,0,0,0,0,0,0,0,-1,643,1443,-6.39175,-2.14668
-574,-419,-4.09772,3.54773,0,0,0,0,0,0,0,-1,650,1443,-4.09772,-3.54767
-567,-419,-6.14038,3.22498,0,0,0,0,0,0,0,-1,657,1443,-6.14037,-3.22497
-560,-419,-4.52814,5.22253,0,0,0,0,0,0,0,-1,664,1443,-4.52816,-5.22251
-553,-419,-5.08331,6.11829,0,0,0,0,0,0,0,-1,671,1443,-5.08331,-6.1183
-546,-419,-10.3732,9.23279,0,0,0,0,0,0,0,-1,678,1443,-10.3732,-9.23275
-539,-419,-22.2059,19.8701,0,0,0,0,0,0,0,-1,685,1443,-22.2059,-19.8701
-532,-419,-22.3016,20.912,0.00456387,0.00499284,0.00446923,0.00925273,0.000303985,0.809376,0.00606969,0.0355124,692,1443,-22.3016,-20.912
-525,-419,-22.3199,21.8947,0.00343026,0.0037515,0.00335008,0.00694481,0.000236946,0.809352,0.00455295,0.0134902,699,1443,-22.3199,-21.8946
-518,-419,-22.3442,22.8027,0.00261266,0.00272784,0.00243989,0.00511082,0.000229682,0.797198,0.00333329,0.0165136,706,1443,-22.3442,-22.8027
-511,-419,-22.3996,23.7029,0.00198833,0.00186704,0.00168301,0.00361178,0.000243582,0.767389,0.00233091,0.0190583,713,1443,-22.3996,-23.7029
-504,-419,-22.5004,24.603,0.00153711,0.00115707,0.00105255,0.00241665,0.000277521,0.696094,0.00152702,0.0201237,720,1443,-22.5004,-24.603
-497,-419,-22.549,25.5059,0.00126856,0.000600483,0.000571165,0.0015962,0.000272849,0.520799,0.000985848,0.0150474,727,1443,-22.549,-25.5058
-490,-419,-22.5882,26.4137,0.00113453,0.000178009,0.000204719,0.0011765,0.000136036,0.202225,0.000743152,0.0120983,734,1443,-22.5882,-26.4137
-483,-419,-22.6487,27.2983,0.00118962,-1.85564e-05,1.94131e-05,0.00118994,-1.88682e-05,0.0160625,0.000799654,0.0105038,741,1443,-22.6487,-27.2984
-476,-419,-22.6931,28.2111,0.00132414,-0.000122114,-4.58552e-05,0.00132559,-0.000123566,-0.0316638,0.000927665,0.0235999,748,1443,-22.6931,-28.211
-469,-419,-22.6776,29.1064,0,0,0,0,0,0,0,-1,755,1443,-22.6776,-29.1064
-462,-419,-11.5347,18.1563,0,0,0,0,0,0,0,-1,762,1443,-11.5347,-18.1562
-455,-419,-7.35645,11.9451,0,0,0,0,0,0,0,-1,769,1443,-7.35646,-11.9451
-448,-419,-7.49109,9.92444,0,0,0,0,0,0,0,-1,776,1443,-7.49109,-9.92442
-441,-419,-7.65527,8.75574,0,0,0,0,0,0,0,-1,783,1443,-7.65525,-8.75568
-434,-419,-11.3724,12.3643,0,0,0,0,0,0,0,-1,790,1443,-11.3724,-12.3643
-427,-419,-8.23193,7.89404,0,0,0,0,0,0,0,-1,797,1443,-8.23193,-7.89404
-420,-419,-8.74091,6.36597,0,0,0,0,0,0,0,-1,804,1443,-8.74089,-6.366
-413,-419,-9.88391,6.53955,0,0,0,0,0,0,0,-1,811,1443,-9.8839,-6.53955
-406,-419,-10.3372,2.75195,0,0,0,0,0,0,0,-1,818,1443,-10.3372,-2.75201
-399,-419,-11.5999,1.40002,0,0,0,0,0,0,0,-1,825,1443,-11.5999,-1.39998
-392,-419,0,0,0,0,0,0,0,0,0,-1,832,1443,0,0
-385,-419,0,0,0,0,0,0,0,0,0,-1,839,1443,0,0
-378,-419,0,0,0,0,0,0,0,0,0,-1,846,1443,0,0
-371,-419,0,0,0,0,0,0,0,0,0,-1,853,1443,0,0
-364,-419,0,0,0,0,0,0,0,0,0,-1,860,1443,0,0
-357,-419,0,0,0,0,0,0,0,0,0,-1,867,1443,0,0
-350,-419,0,0,0,0,0,0,0,0,0,-1,874,1443,0,0
-343,-419,0,0,0,0,0,0,0,0,0,-1,881,1443,0,0
-336,-419,0,0,0,0,0,0,0,0,0,-1,888,1443,0,0
-329,-419,0,0,0,0,0,0,0,0,0,-1,895,1443,0,0
-322,-419,0,0,0,0,0,0,0,0,0,-1,902,1443,0,0
-315,-419,0,0,0,0,0,0,0,0,0,-1,909,1443,0,0
-308,-419,0,0,0,0,0,0,0,0,0,-1,916,1443,0,0
-301,-419,0,0,0,0,0,0,0,0,0,-1,923,1443,0,0
-294,-419,0,0,0,0,0,0,0,0,0,-1,930,1443,0,0
-287,-419,0,0,0,0,0,0,0,0,0,-1,937,1443,0,0
-280,-419,0,0,0,0,0,0,0,0,0,-1,944,1443,0,0
-273,-419,0,0,0,0,0,0,0,0,0,-1,951,1443,0,0
-266,-419,0,0,0,0,0,0,0,0,0,-1,958,1443,0,0
-259,-419,0,0,0,0,0,0,0,0,0,-1,965,1443,0,0
-252,-419,0,0,0,0,0,0,0,0,0,-1,972,1443,0,0
-245,-419,0,0,0,0,0,0,0,0,0,-1,979,1443,0,0
-238,-419,0,0,0,0,0,0,0,0,0,-1,986,1443,0,0
-231,-419,0,0,0,0,0,0,0,0,0,-1,993,1443,0,0
-224,-419,0,0,0,0,0,0,0,0,0,-1,1000,1443,0,0
-217,-419,0,0,0,0,0,0,0,0,0,-1,1007,1443,0,0
-210,-419,0,0,0,0,0,0,0,0,0,-1,1014,1443,0,0
-203,-419,0,0,0,0,0,0,0,0,0,-1,1021,1443,0,0
-196,-419,0,0,0,0,0,0,0,0,0,-1,1028,1443,0,0
-189,-419,0,0,0,0,0,0,0,0,0,-1,1035,1443,0,0
-182,-419,0,0,0,0,0,0,0,0,0,-1,1042,1443,0,0
-175,-419,0,0,0,0,0,0,0,0,0,-1,1049,1443,0,0
-168,-419,0,0,0,0,0,0,0,0,0,-1,1056,1443,0,0
-161,-419,0,0,0,0,0,0,0,0,0,-1,1063,1443,0,0
-154,-419,0,0,0,0,0,0,0,0,0,-1,1070,1443,0,0
-147,-419,0,0,0,0,0,0,0,0,0,-1,1077,1443,0,0
-140,-419,0,0,0,0,0,0,0,0,0,-1,1084,1443,0,0
-133,-419,0,0,0,0,0,0,0,0,0,-1,1091,1443,0,0
-126,-419,0,0,0,0,0,0,0,0,0,-1,1098,1443,0,0
-119,-419,0,0,0,0,0,0,0,0,0,-1,1105,1443,0,0
-112,-419,0,0,0,0,0,0,0,0,0,-1,1112,1443,0,0
-105,-419,0,0,0,0,0,0,0,0,0,-1,1119,1443,0,0
-98,-419,0,0,0,0,0,0,0,0,0,-1,1126,1443,0,0
-91,-419,0,0,0,0,0,0,0,0,0,-1,1133,1443,0,0
-84,-419,0,0,0,0,0,0,0,0,0,-1,1140,1443,0,0
-77,-419,0,0,0,0,0,0,0,0,0,-1,1147,1443,0,0
-70,-419,0,0,0,0,0,0,0,0,0,-1,1154,1443,0,0
-63,-419,0,0,0,0,0,0,0,0,0,-1,1161,1443,0,0
-56,-419,0,0,0,0,0,0,0,0,0,-1,1168,1443,0,0
-49,-419,0,0,0,0,0,0,0,0,0,-1,1175,1443,0,0
-42,-419,0,0,0,0,0,0,0,0,0,-1,1182,1443,0,0
-35,-419,0,0,0,0,0,0,0,0,0,-1,1189,1443,0,0
-28,-419,0,0,0,0,0,0,0,0,0,-1,1196,1443,0,0
-21,-419,0,0,0,0,0,0,0,0,0,-1,1203,1443,0,0
-14,-419,0,0,0,0,0,0,0,0,0,-1,1210,1443,0,0
-7,-419,0,0,0,0,0,0,0,0,0,-1,1217,1443,0,0
0,-419,0,0,0,0,0,0,0,0,0,-1,1224,1443,0,0
7,-419,0,0,0,0,0,0,0,0,0,-1,1231,1443,0,0
14,-419,0,0,0,0,0,0,0,0,0,-1,1238,1443,0,0
21,-419,0,0,0,0,0,0,0,0,0,-1,1245,1443,0,0
28,-419,0,0,0,0,0,0,0,0,0,-1,1252,1443,0,0
35,-419,0,0,0,0,0,0,0,0,0,-1,1259,1443,0,0
42,-419,0,0,0,0,0,0,0,0,0,-1,1266,1443,0,0
49,-419,0,0,0,0,0,0,0,0,0,-1,1273,1443,0,0
56,-419,0,0,0,0,0,0,0,0,0,-1,1280,1443,0,0
63,-419,0,0,0,0,0,0,0,0,0,-1,1287,1443,0,0
70,-419,0,0,0,0,0,0,0,0,0,-1,1294,1443,0,0
77,-419,0,0,0,0,0,0,0,0,0,-1,1301,1443,0,0
84,-419,0,0,0,0,0,0,0,0,0,-1,1308,1443,0,0
91,-419,0,0,0,0,0,0,0,0,0,-1,1315,1443,0,0
98,-419,0,0,0,0,0,0,0,0,0,-1,1322,1443,0,0
105,-419,0,0,0,0,0,0,0,0,0,-1,1329,1443,0,0
112,-419,0,0,0,0,0,0,0,0,0,-1,1336,1443,0,0
119,-419,0,0,0,0,0,0,0,0,0,-1,1343,1443,0,0
126,-419,0,0,0,0,0,0,0,0,0,-1,1350,1443,0,0
133,-419,0,0,0,0,0,0,0,0,0,-1,1357,1443,0,0
140,-419,0,0,0,0,0,0,0,0,0,-1,1364,1443,0,0
147,-419,0,0,0,0,0,0,0,0,0,-1,1371,1443,0,0
154,-419,0,0,0,0,0,0,0,0,0,-1,1378,1443,0,0
161,-419,0,0,0,0,0,0,0,0,0,-1,1385,1443,0,0
168,-419,0,0,0,0,0,0,0,0,0,-1,1392,1443,0,0
175,-419,0,0,0,0,0,0,0,0,0,-1,1399,1443,0,0
182,-419,0,0,0,0,0,0,0,0,0,-1,1406,1443,0,0
189,-419,0,0,0,0,0,0,0,0,0,-1,1413,1443,0,0
196,-419,0,0,0,0,0,0,0,0,0,-1,1420,1443,0,0
203,-419,0,0,0,0,0,0,0,0,0,-1,1427,1443,0,0
210,-419,0,0,0,0,0,0,0,0,0,-1,1434,1443,0,0
217,-419,0,0,0,0,0,0,0,0,0,-1,1441,1443,0,0
224,-419,0,0,0,0,0,0,0,0,0,-1,1448,1443,0,0
231,-419,0,0,0,0,0,0,0,0,0,-1,1455,1443,0,0
238,-419,0,0,0,0,0,0,0,0,0,-1,1462,1443,0,0
245,-419,0,0,0,0,0,0,0,0,0,-1,1469,1443,0,0
252,-419,0,0,0,0,0,0,0,0,0,-1,1476,1443,0,0
259,-419,0,0,0,0,0,0,0,0,0,-1,1483,1443,0,0
266,-419,0,0,0,0,0,0,0,0,0,-1,1490,1443,0,0
273,-419,0,0,0,0,0,0,0,0,0,-1,1497,1443,0,0
280,-419,0,0,0,0,0,0,0,0,0,-1,1504,1443,0,0
287,-419,0,0,0,0,0,0,0,0,0,-1,1511,1443,0,0
294,-419,0,0,0,0,0,0,0,0,0,-1,1518,1443,0,0
301,-419,0,0,0,0,0,0,0,0,0,-1,1525,1443,0,0
308,-419,0,0,0,0,0,0,0,0,0,-1,1532,1443,0,0
315,-419,0,0,0,0,0,0,0,0,0,-1,1539,1443,0,0
322,-419,0,0,0,0,0,0,0,0,0,-1,1546,1443,0,0
329,-419,0,0,0,0,0,0,0,0,0,-1,1553,1443,0,0
336,-419,0,0,0,0,0,0,0,0,0,-1,1560,1443,0,0
343,-419,0,0,0,0,0,0,0,0,0,-1,1567,1443,0,0
350,-419,0,0,0,0,0,0,0,0,0,-1,1574,1443,0,0
357,-419,0,0,0,0,0,0,0,0,0,-1,1581,1443,0,0
364,-419,0,0,0,0,0,0,0,0,0,-1,1588,1443,0,0
371,-419,0,0,0,0,0,0,0,0,0,-1,1595,1443,0,0
378,-419,0,0,0,0,0,0,0,0,0,-1,1602,1443,0,0
385,-419,0,0,0,0,0,0,0,0,0,-1,1609,1443,0,0
392,-419,0,0,0,0,0,0,0,0,0,-1,1616,1443,0,0
399,-419,0,0,0,0,0,0,0,0,0,-1,1623,1443,0,0
406,-419,0,0,0,0,0,0,0,0,0,-1,1630,1443,0,0
413,-419,0,0,0,0,0,0,0,0,0,-1,1637,1443,0,0
420,-419,0,0,0,0,0,0,0,0,0,-1,1644,1443,0,0
427,-419,0,0,0,0,0,0,0,0,0,-1,1651,1443,0,0
434,-419,0,0,0,0,0,0,0,0,0,-1,1658,1443,0,0
441,-419,0,0,0,0,0,0,0,0,0,-1,1665,1443,0,0
448,-419,0,0,0,0,0,0,0,0,0,-1,1672,1443,0,0
455,-419,0,0,0,0,0,0,0,0,0,-1,1679,1443,0,0
462,-419,0,0,0,0,0,0,0,0,0,-1,1686,1443,0,0
469,-419,0,0,0,0,0,0,0,0,0,-1,1693,1443,0,0
476,-419,0,0,0,0,0,0,0,0,0,-1,1700,1443,0,0
483,-419,0,0,0,0,0,0,0,0,0,-1,1707,1443,0,0
490,-419,0,0,0,0,0,0,0,0,0,-1,1714,1443,0,0
497,-419,0,0,0,0,0,0,0,0,0,-1,1721,1443,0,0
504,-419,0,0,0,0,0,0,0,0,0,-1,1728,1443,0,0
511,-419,20.3005,3.7959,0,0,0,0,0,0,0,-1,1735,1443,20.3005,-3.79584
518,-419,21.3154,2.03027,0,0,0,0,0,0,0,-1,1742,1443,21.3155,-2.03029
525,-419,28.3439,-1.24475,0,0,0,0,0,0,0,-1,1749,1443,28.3438,1.24471
532,-419,27.5902,-0.272583,0,0,0,0,0,0,0,-1,1756,1443,27.5902,0.272526
539,-419,26.5278,1.60583,0,0,0,0,0,0,0,-1,1763,1443,26.5279,-1.60579
546,-419,24.9509,2.77539,0,0,0,0,0,0,0,-1,1770,1443,24.9509,-2.77537
553,-419,24.118,3.75525,0,0,0,0,0,0,0,-1,1777,1443,24.1181,-3.75526
560,-419,11.8199,8.26343,0,0,0,0,0,0,0,-1,1784,1443,11.82,-8.26341
567,-419,21.5143,8.74719,0,0,0,0,0,0,0,-1,1791,1443,21.5143,-8.74722
574,-419,19.5886,6.46155,0,0,0,0,0,0,0,-1,1798,1443,19.5886,-6.46157
581,-419,20.7926,11.4265,0,0,0,0,0,0,0,-1,1805,1443,20.7926,-11.4265
588,-419,19.4242,12.5363,0,0,0,0,0,0,0,-1,1812,1443,19.4242,-12.5362
595,-419,22.9375,16.0151,0,0,0,0,0,0,0,-1,1819,1443,22.9375,-16.0152
602,-419,40.0857,28.5729,0,0,0,0,0,0,0,-1,1826,1443,40.0857,-28.5729
609,-419,40.0707,27.6505,0.00249059,0.00172642,-0.00187237,0.00401946,0.000197543,-0.684748,0.00261628,0.0333028,1833,1443,40.0707,-27.6505
616,-419,40.0045,26.7813,0.00175211,0.0011478,-0.00126421,0.00274978,0.000150135,-0.668095,0.00178524,0.012788,1840,1443,40.0046,-26.7813
623,-419,39.9438,25.8961,0.00124898,0.000730433,-0.000854525,0.0018827,9.67139e-05,-0.638106,0.00122417,0.0106327,1847,1443,39.9439,-25.8961
630,-419,39.8986,24.9708,0.00116983,0.000347467,-0.0006227,0.00150485,1.24401e-05,-0.493601,0.000999115,0.0125309,1854,1443,39.8986,-24.9709
637,-419,39.8512,24.1025,0.00140245,7.5683e-05,-0.000563586,0.00160953,-0.000131397,-0.35212,0.00111939,0.0142442,1861,1443,39.8512,-24.1025
644,-419,39.8168,23.2177,0.00196715,-6.86116e-05,-0.00073384,0.0022041,-0.000305562,-0.312324,0.00158113,0.0132221,1868,1443,39.8168,-23.2177
651,-419,39.7596,22.3585,0.00281747,-9.8843e-05,-0.00110442,0.00318851,-0.000469887,-0.324114,0.00229837,0.0120395,1875,1443,39.7596,-22.3585
658,-419,39.6793,21.4647,0.00400755,-3.03764e-05,-0.00169786,0.00462657,-0.000649393,-0.34961,0.00332207,0.0141481,1882,1443,39.6793,-21.4647
665,-419,39.6525,20.5736,0.00551357,0.000106062,-0.00246645,0.00646955,-0.000849917,-0.369766,0.00462246,0.0268911,1889,1443,39.6525,-20.5736
672,-419,39.7006,19.6697,0,0,0,0,0,0,0,-1,1896,1443,39.7006,-19.6697
679,-419,35.5436,15.4066,0,0,0,0,0,0,0,-1,1903,1443,35.5436,-15.4067
686,-419,17.4127,8.03076,0,0,0,0,0,0,0,-1,1910,1443,17.4127,-8.03071
693,-419,8.76086,5.60535,0,0,0,0,0,0,0,-1,1917,1443,8.76091,-5.6054
700,-419,11.0498,4.85156,0,0,0,0,0,0,0,-1,1924,1443,11.0498,-4.85153
707,-419,9.5752,1.80042,0,0,0,0,0,0,0,-1,1931,1443,9.57523,-1.80037
714,-419,5.77576,-1.25061,0,0,0,0,0,0,0,-1,1938,1443,5.7757,1.25056
721,-419,0,0,0,0,0,0,0,0,0,-1,1945,1443,0,0
728,-419,0,0,0,0,0,0,0,0,0,-1,1952,1443,0,0
735,-419,0,0,0,0,0,0,0,0,0,-1,1959,1443,0,0
742,-419,0,0,0,0,0,0,0,0,0,-1,1966,1443,0,0
749,-419,0,0,0,0,0,0,0,0,0,-1,1973,1443,0,0
756,-419,0,0,0,0,0,0,0,0,0,-1,1980,1443,0,0
763,-419,0,0,0,0,0,0,0,0,0,-1,1987,1443,0,0
770,-419,0,0,0,0,0,0,0,0,0,-1,1994,1443,0,0
777,-419,0,0,0,0,0,0,0,0,0,-1,2001,1443,0,0
784,-419,0,0,0,0,0,0,0,0,0,-1,2008,1443,0,0
791,-419,0,0,0,0,0,0,0,0,0,-1,2015,1443,0,0
798,-419,0,0,0,0,0,0,0,0,0,-1,2022,1443,0,0
805,-419,0,0,0,0,0,0,0,0,0,-1,2029,1443,0,0
812,-419,0,0,0,0,0,0,0,0,0,-1,2036,1443,0,0
-700,-426,0,0,0,0,0,0,0,0,0,-1,524,1450,0,0
-693,-426,0,0,0,0,0,0,0,0,0,-1,531,1450,0,0
-686,-426,0,0,0,0,0,0,0,0,0,-1,538,1450,0,0
-679,-426,0,0,0,0,0,0,0,0,0,-1,545,1450,0,0
-672,-426,0,0,0,0,0,0,0,0,0,-1,552,1450,0,0
-665,-426,0,0,0,0,0,0,0,0,0,-1,559,1450,0,0
-658,-426,0,0,0,0,0,0,0,0,0,-1,566,1450,0,0
-651,-426,0,0,0,0,0,0,0,0,0,-1,573,1450,0,0
-644,-426,0,0,0,0,0,0,0,0,0,-1,580,1450,0,0
-637,-426,0,0,0,0,0,0,0,0,0,-1,587,1450,0,0
-630,-426,0,0,0,0,0,0,0,0,0,-1,594,1450,0,0
-623,-426,0,0,0,0,0,0,0,0,0,-1,601,1450,0,0
-616,-426,0,0,0,0,0,0,0,0,0,-1,608,1450,0,0
-609,-426,0,0,0,0,0,0,0,0,0,-1,615,1450,0,0
-602,-426,0,0,0,0,0,0,0,0,0,-1,622,1450,0,0
-595,-426,0,0,0,0,0,0,0,0,0,-1,629,1450,0,0
-588,-426,-10.184,-0.554321,0,0,0,0,0,0,0,-1,636,1450,-10.184,0.554321
-581,-426,-7.3349,1.48157,0,0,0,0,0,0,0,-1,643,1450,-7.33491,-1.48152
-574,-426,-5.02856,2.89319,0,0,0,0,0,0,0,-1,650,1450,-5.02858,-2.89319
-567,-426,-3.04797,1.72644,0,0,0,0,0,0,0,-1,657,1450,-3.04797,-1.72639
-560,-426,-5.55682,3.44397,0,0,0,0,0,0,0,-1,664,1450,-5.55684,-3.44399
-553,-426,-4.67017,6.66614,0,0,0,0,0,0,0,-1,671,1450,-4.67015,-6.66619
-546,-426,-7.58752,8.28882,0,0,0,0,0,0,0,-1,678,1450,-7.58752,-8.28878
-539,-426,-10.436,10.7441,0,0,0,0,0,0,0,-1,685,1450,-10.436,-10.7441
-532,-426,-21.426,20.871,0,0,0,0,0,0,0,-1,692,1450,-21.426,-20.871
-525,-426,-21.4549,21.8618,0.00358019,0.00470613,0.00407124,0.00825315,3.31802e-05,0.854102,0.00549107,0.0274447,699,1450,-21.4549,-21.8619
-518,-426,-21.4481,22.8624,0.00275253,0.00349759,0.00303122,0.00617909,7.10296e-05,0.84654,0.00409592,0.0162448,706,1450,-21.4481,-22.8624
-511,-426,-21.4995,23.7792,0.00211572,0.00248625,0.00217636,0.00448521,0.000116758,0.82786,0.00295199,0.0155098,713,1450,-21.4994,-23.7792
-504,-426,-21.5834,24.6586,0.00163347,0.00165205,0.0014549,0.00309769,0.000187833,0.788591,0.00200545,0.0161714,720,1450,-21.5834,-24.6586
-497,-426,-21.6298,25.5612,0.00131165,0.000988583,0.000880957,0.00204576,0.000254473,0.694724,0.00128743,0.0134257,727,1450,-21.6298,-25.5612
-490,-426,-21.6821,26.4655,0.00110042,0.000478871,0.000425603,0.00131663,0.000262655,0.470046,0.000804623,0.0132149,734,1450,-21.682,-26.4655
-483,-426,-21.7393,27.3644,0.00108579,0.000222203,0.000172688,0.00111904,0.000188952,0.190223,0.000691703,0.0134954,741,1450,-21.7393,-27.3644
-476,-426,-21.7836,28.2665,0.00114177,0.000107083,3.91687e-05,0.00114325,0.000105602,0.0377837,0.000729516,0.0104965,748,1450,-21.7836,-28.2665
-469,-426,-21.8506,29.1553,0.00136628,0.000245929,8.59283e-05,0.00137283,0.000239377,0.0761044,0.000846784,0.01533,755,1450,-21.8507,-29.1553
-462,-426,-21.8113,30.0876,0,0,0,0,0,0,0,-1,762,1450,-21.8113,-30.0876
-455,-426,-10.215,17.7007,0,0,0,0,0,0,0,-1,769,1450,-10.215,-17.7007
-448,-426,-6.46545,10.1322,0,0,0,0,0,0,0,-1,776,1450,-6.46543,-10.1322
-441,-426,-10.9547,11.4747,0,0,0,0,0,0,0,-1,783,1450,-10.9546,-11.4748
-434,-426,-10.4998,13.6189,0,0,0,0,0,0,0,-1,790,1450,-10.4997,-13.6189
-427,-426,-9.36627,13.7396,0,0,0,0,0,0,0,-1,797,1450,-9.36628,-13.7396
-420,-426,-5.33765,7.95044,0,0,0,0,0,0,0,-1,804,1450,-5.33766,-7.95041
-413,-426,-10.1148,5.0415,0,0,0,0,0,0,0,-1,811,1450,-10.1148,-5.04152
-406,-426,-11.4199,3.6438,0,0,0,0,0,0,0,-1,818,1450,-11.4198,-3.64382
-399,-426,-12.7595,2.29004,0,0,0,0,0,0,0,-1,825,1450,-12.7595,-2.29003
-392,-426,-12.4147,0.537354,0,0,0,0,0,0,0,-1,832,1450,-12.4147,-0.53731
-385,-426,0,0,0,0,0,0,0,0,0,-1,839,1450,0,0
-378,-426,0,0,0,0,0,0,0,0,0,-1,846,1450,0,0
-371,-426,0,0,0,0,0,0,0,0,0,-1,853,1450,0,0
-364,-426,0,0,0,0,0,0,0,0,0,-1,860,1450,0,0
-357,-426,0,0,0,0,0,0,0,0,0,-1,867,1450,0,0
-350,-426,0,0,0,0,0,0,0,0,0,-1,874,1450,0,0
-343,-426,0,0,0,0,0,0,0,0,0,-1,881,1450,0,0
-336,-426,0,0,0,0,0,0,0,0,0,-1,888,1450,0,0
-329,-426,0,0,0,0,0,0,0,0,0,-1,895,1450,0,0
-322,-426,0,0,0,0,0,0,0,0,0,-1,902,1450,0,0
-315,-426,0,0,0,0,0,0,0,0,0,-1,909,1450,0,0
-308,-426,0,0,0,0,0,0,0,0,0,-1,916,1450,0,0
-301,-426,0,0,0,0,0,0,0,0,0,-1,923,1450,0,0
-294,-426,0,0,0,0,0,0,0,0,0,-1,930,1450,0,0
-287,-426,0,0,0,0,0,0,0,0,0,-1,937,1450,0,0
-280,-426,0,0,0,0,0,0,0,0,0,-1,944,1450,0,0
-273,-426,0,0,0,0,0,0,0,0,0,-1,951,1450,0,0
-266,-426,0,0,0,0,0,0,0,0,0,-1,958,1450,0,0
-259,-426,0,0,0,0,0,0,0,0,0,-1,965,1450,0,0
-252,-426,0,0,0,0,0,0,0,0,0,-1,972,1450,0,0
-245,-426,0,0,0,0,0,0,0,0,0,-1,979,1450,0,0
-238,-426,0,0,0,0,0,0,0,0,0,-1,986,1450,0,0
-231,-426,0,0,0,0,0,0,0,0,0,-1,993,1450,0,0
-224,-426,0,0,0,0,0,0,0,0,0,-1,1000,1450,0,0
-217,-426,0,0,0,0,0,0,0,0,0,-1,1007,1450,0,0
-210,-426,0,0,0,0,0,0,0,0,0,-1,1014,1450,0,0
-203,-426,0,0,0,0,0,0,0,0,0,-1,1021,1450,0,0
-196,-426,0,0,0,0,0,0,0,0,0,-1,1028,1450,0,0
-189,-426,0,0,0,0,0,0,0,0,0,-1,1035,1450,0,0
-182,-426,0,0,0,0,0,0,0,0,0,-1,1042,1450,0,0
-175,-426,0,0,0,0,0,0,0,0,0,-1,1049,1450,0,0
-168,-426,0,0,0,0,0,0,0,0,0,-1,1056,1450,0,0
-161,-426,0,0,0,0,0,0,0,0,0,-1,1063,1450,0,0
-154,-426,0,0,0,0,0,0,0,0,0,-1,1070,1450,0,0
-147,-426,0,0,0,0,0,0,0,0,0,-1,1077,1450,0,0
-140,-426,0,0,0,0,0,0,0,0,0,-1,1084,1450,0,0
-133,-426,0,0,0,0,0,0,0,0,0,-1,1091,1450,0,0
-126,-426,0,0,0,0,0,0,0,0,0,-1,1098,1450,0,0
-119,-426,0,0,0,0,0,0,0,0,0,-1,1105,1450,0,0
-112,-426,0,0,0,0,0,0,0,0,0,-1,1112,1450,0,0
-105,-426,0,0,0,0,0,0,0,0,0,-1,1119,1450,0,0
-98,-426,0,0,0,0,0,0,0,0,0,-1,1126,1450,0,0
-91,-426,0,0,0,0,0,0,0,0,0,-1,1133,1450,0,0
-84,-426,0,0,0,0,0,0,0,0,0,-1,1140,1450,0,0
-77,-426,0,0,0,0,0,0,0,0,0,-1,1147,1450,0,0
-70,-426,0,0,0,0,0,0,0,0,0,-1,1154,1450,0,0
-63,-426,0,0,0,0,0,0,0,0,0,-1,1161,1450,0,0
-56,-426,0,0,0,0,0,0,0,0,0,-1,1168,1450,0,0
-49,-426,0,0,0,0,0,0,0,0,0,-1,1175,1450,0,0
-42,-426,0,0,0,0,0,0,0,0,0,-1,1182,1450,0,0
-35,-426,0,0,0,0,0,0,0,0,0,-1,1189,1450,0,0
-28,-426,0,0,0,0,0,0,0,0,0,-1,1196,1450,0,0
-21,-426,0,0,0,0,0,0,0,0,0,-1,1203,1450,0,0
-14,-426,0,0,0,0,0,0,0,0,0,-1,1210,1450,0,0
-7,-426,0,0,0,0,0,0,0,0,0,-1,1217,1450,0,0
0,-426,0,0,0,0,0,0,0,0,0,-1,1224,1450,0,0
7,-426,0,0,0,0,0,0,0,0,0,-1,1231,1450,0,0
14,-426,0,0,0,0,0,0,0,0,0,-1,1238,1450,0,0
21,-426,0,0,0,0,0,0,0,0,0,-1,1245,1450,0,0
28,-426,0,0,0,0,0,0,0,0,0,-1,1252,1450,0,0
35,-426,0,0,0,0,0,0,0,0,0,-1,1259,1450,0,0
42,-426,0,0,0,0,0,0,0,0,0,-1,1266,1450,0,0
49,-426,0,0,0,0,0,0,0,0,0,-1,1273,1450,0,0
56,-426,0,0,0,0,0,0,0,0,0,-1,1280,1450,0,0
63,-426,0,0,0,0,0,0,0,0,0,-1,1287,1450,0,0
70,-426,0,0,0,0,0,0,0,0,0,-1,1294,1450,0,0
77,-426,0,0,0,0,0,0,0,0,0,-1,1301,1450,0,0
84,-426,0,0,0,0,0,0,0,0,0,-1,1308,1450,0,0
91,-426,0,0,0,0,0,0,0,0,0,-1,1315,1450,0,0
98,-426,0,0,0,0,0,0,0,0,0,-1,1322,1450,0,0
105,-426,0,0,0,0,0,0,0,0,0,-1,1329,1450,0,0
112,-426,0,0,0,0,0,0,0,0,0,-1,1336,1450,0,0
119,-426,0,0,0,0,0,0,0,0,0,-1,1343,1450,0,0
126,-426,0,0,0,0,0,0,0,0,0,-1,1350,1450,0,0
133,-426,0,0,0,0,0,0,0,0,0,-1,1357,1450,0,0
140,-426,0,0,0,0,0,0,0,0,0,-1,1364,1450,0,0
147,-426,0,0,0,0,0,0,0,0,0,-1,1371,1450,0,0
154,-426,0,0,0,0,0,0,0,0,0,-1,1378,1450,0,0
161,-426,0,0,0,0,0,0,0,0,0,-1,1385,1450,0,0
168,-426,0,0,0,0,0,0,0,0,0,-1,1392,1450,0,0
175,-426,0,0,0,0,0,0,0,0,0,-1,1399,1450,0,0
182,-426,0,0,0,0,0,0,0,0,0,-1,1406,1450,0,0
189,-426,0,0,0,0,0,0,0,0,0,-1,1413,1450,0,0
196,-426,0,0,0,0,0,0,0,0,0,-1,1420,1450,0,0
203,-426,0,0,0,0,0,0,0,0,0,-1,1427,1450,0,0
210,-426,0,0,0,0,0,0,0,0,0,-1,1434,1450,0,0
217,-426,0,0,0,0,0,0,0,0,0,-1,1441,1450,0,0
224,-426,0,0,0,0,0,0,0,0,0,-1,1448,1450,0,0
231,-426,0,0,0,0,0,0,0,0,0,-1,1455,1450,0,0
238,-426,0,0,0,0,0,0,0,0,0,-1,1462,1450,0,0
245,-426,0,0,0,0,0,0,0,0,0,-1,1469,1450,0,0
252,-426,0,0,0,0,0,0,0,0,0,-1,1476,1450,0,0
259,-426,0,0,0,0,0,0,0,0,0,-1,1483,1450,0,0
266,-426,0,0,0,0,0,0,0,0,0,-1,1490,1450,0,0
273,-426,0,0,0,0,0,0,0,0,0,-1,1497,1450,0,0
280,-426,0,0,0,0,0,0,0,0,0,-1,1504,1450,0,0
287,-426,0,0,0,0,0,0,0,0,0,-1,1511,1450,0,0
294,-426,0,0,0,0,0,0,0,0,0,-1,1518,1450,0,0
301,-426,0,0,0,0,0,0,0,0,0,-1,1525,1450,0,0
308,-426,0,0,0,0,0,0,0,0,0,-1,1532,1450,0,0
315,-426,0,0,0,0,0,0,0,0,0,-1,1539,1450,0,0
322,-426,0,0,0,0,0,0,0,0,0,-1,1546,1450,0,0
329,-426,0,0,0,0,0,0,0,0,0,-1,1553,1450,0,0
336,-426,0,0,0,0,0,0,0,0,0,-1,1560,1450,0,0
343,-426,0,0,0,0,0,0,0,0,0,-1,1567,1450,0,0
350,-426,0,0,0,0,0,0,0,0,0,-1,1574,1450,0,0
357,-426,0,0,0,0,0,0,0,0,0,-1,1581,1450,0,0
364,-426,0,0,0,0,0,0,0,0,0,-1,1588,1450,0,0
371,-426,0,0,0,0,0,0,0,0,0,-1,1595,1450,0,0
378,-426,0,0,0,0,0,0,0,0,0,-1,1602,1450,0,0
385,-426,0,0,0,0,0,0,0,0,0,-1,1609,1450,0,0
392,-426,0,0,0,0,0,0,0,0,0,-1,1616,1450,0,0
399,-426,0,0,0,0,0,0,0,0,0,-1,1623,1450,0,0
406,-426,0,0,0,0,0,0,0,0,0,-1,1630,1450,0,0
413,-426,0,0,0,0,0,0,0,0,0,-1,1637,1450,0,0
420,-426,0,0,0,0,0,0,0,0,0,-1,1644,1450,0,0
427,-426,0,0,0,0,0,0,0,0,0,-1,1651,1450,0,0
434,-426,0,0,0,0,0,0,0,0,0,-1,1658,1450,0,0
441,-426,0,0,0,0,0,0,0,0,0,-1,1665,1450,0,0
448,-426,0,0,0,0,0,0,0,0,0,-1,1672,1450,0,0
455,-426,0,0,0,0,0,0,0,0,0,-1,1679,1450,0,0
462,-426,0,0,0,0,0,0,0,0,0,-1,1686,1450,0,0
469,-426,0,0,0,0,0,0,0,0,0,-1,1693,1450,0,0
476,-426,0,0,0,0,0,0,0,0,0,-1,1700,1450,0,0
483,-426,0,0,0,0,0,0,0,0,0,-1,1707,1450,0,0
490,-426,0,0,0,0,0,0,0,0,0,-1,1714,1450,0,0
497,-426,0,0,0,0,0,0,0,0,0,-1,1721,1450,0,0
504,-426,20.6873,3.38367,0,0,0,0,0,0,0,-1,1728,1450,20.6873,-3.38361
511,-426,19.6676,3.53748,0,0,0,0,0,0,0,-1,1735,1450,19.6676,-3.53749
518,-426,18.6853,3.32288,0,0,0,0,0,0,0,-1,1742,1450,18.6853,-3.3229
525,-426,18.9552,2.71033,0,0,0,0,0,0,0,-1,1749,1450,18.9552,-2.71034
532,-426,19.4333,2.70764,0,0,0,0,0,0,0,-1,1756,1450,19.4334,-2.70764
539,-426,25.1482,2.56287,0,0,0,0,0,0,0,-1,1763,1450,25.1482,-2.56286
546,-426,24.1136,3.75659,0,0,0,0,0,0,0,-1,1770,1450,24.1136,-3.7566
553,-426,23.0791,4.95032,0,0,0,0,0,0,0,-1,1777,1450,23.0791,-4.95034
560,-426,12.9688,11.8289,0,0,0,0,0,0,0,-1,1784,1450,12.9688,-11.8288
567,-426,13.6388,11.5623,0,0,0,0,0,0,0,-1,1791,1450,13.6388,-11.5623
574,-426,14.3943,11.0286,0,0,0,0,0,0,0,-1,1798,1450,14.3942,-11.0285
581,-426,16.3879,11.4653,0,0,0,0,0,0,0,-1,1805,1450,16.3879,-11.4653
588,-426,18.1212,12.5547,0,0,0,0,0,0,0,-1,1812,1450,18.1212,-12.5547
595,-426,30.0474,21.0964,0,0,0,0,0,0,0,-1,1819,1450,30.0474,-21.0965
602,-426,39.1945,28.5791,0,0,0,0,0,0,0,-1,1826,1450,39.1945,-28.5791
609,-426,39.1727,27.6998,0.00295234,0.00175192,-0.00205479,0.00449279,0.000211473,-0.6433,0.00292725,0.0148726,1833,1450,39.1727,-27.6999
616,-426,39.1261,26.8198,0.00209477,0.00113208,-0.00136642,0.00306215,0.000164704,-0.616052,0.00198881,0.0152166,1840,1450,39.1261,-26.8198
623,-426,39.0724,25.939,0.00158605,0.000711576,-0.000907335,0.00215601,0.000141624,-0.560869,0.00139253,0.0130671,1847,1450,39.0724,-25.939
630,-426,39.0518,25.0602,0.00150075,0.000270183,-0.000628844,0.00176525,5.68246e-06,-0.398149,0.00117494,0.0139228,1854,1450,39.0517,-25.0601
637,-426,38.9886,24.1726,0.00167736,-5.61342e-05,-0.000490463,0.00180651,-0.000185281,-0.257471,0.00127061,0.0149628,1861,1450,38.9886,-24.1726
644,-426,38.8966,23.2845,0.00219109,-0.000250859,-0.000580158,0.00232192,-0.000381683,-0.221789,0.00168961,0.0144139,1868,1450,38.8966,-23.2845
651,-426,38.8239,22.4191,0.00303612,-0.000317371,-0.000909997,0.00326714,-0.000548391,-0.248617,0.00238203,0.0130032,1875,1450,38.8238,-22.4191
658,-426,38.8009,21.4869,0.00427292,-0.000250548,-0.00147961,0.0047139,-0.00069153,-0.289658,0.00339666,0.0156554,1882,1450,38.8009,-21.4869
665,-426,38.8158,20.5192,0,0,0,0,0,0,0,-1,1889,1450,38.8158,-20.5191
672,-426,36.2397,16.927,0,0,0,0,0,0,0,-1,1896,1450,36.2397,-16.9271
679,-426,17.1522,8.15784,0,0,0,0,0,0,0,-1,1903,1450,17.1522,-8.15784
686,-426,13.5326,8.03711,0,0,0,0,0,0,0,-1,1910,1450,13.5326,-8.03717
693,-426,11.8607,6.45215,0,0,0,0,0,0,0,-1,1917,1450,11.8607,-6.45215
700,-426,9.24304,2.95447,0,0,0,0,0,0,0,-1,1924,1450,9.24305,-2.95442
707,-426,8.44519,-1.21448,0,0,0,0,0,0,0,-1,1931,1450,8.44514,1.21454
714,-426,0,0,0,0,0,0,0,0,0,-1,1938,1450,0,0
721,-426,0,0,0,0,0,0,0,0,0,-1,1945,1450,0,0
728,-426,0,0,0,0,0,0,0,0,0,-1,1952,1450,0,0
735,-426,0,0,0,0,0,0,0,0,0,-1,1959,1450,0,0
742,-426,0,0,0,0,0,0,0,0,0,-1,1966,1450,0,0
749,-426,0,0,0,0,0,0,0,0,0,-1,1973,1450,0,0
756,-426,0,0,0,0,0,0,0,0,0,-1,1980,1450,0,0
763,-426,0,0,0,0,0,0,0,0,0,-1,1987,1450,0,0
770,-426,0,0,0,0,0,0,0,0,0,-1,1994,1450,0,0
777,-426,0,0,0,0,0,0,0,0,0,-1,2001,1450,0,0
784,-426,0,0,0,0,0,0,0,0,0,-1,2008,1450,0,0
791,-426,0,0,0,0,0,0,0,0,0,-1,2015,1450,0,0
798,-426,0,0,0,0,0,0,0,0,0,-1,2022,1450,0,0
805,-426,0,0,0,0,0,0,0,0,0,-1,2029,1450,0,0
812,-426,0,0,0,0,0,0,0,0,0,-1,2036,1450,0,0
-700,-433,0,0,0,0,0,0,0,0,0,-1,524,1457,0,0
-693,-433,0,0,0,0,0,0,0,0,0,-1,531,1457,0,0
-686,-433,0,0,0,0,0,0,0,0,0,-1,538,1457,0,0
-679,-433,0,0,0,0,0,0,0,0,0,-1,545,1457,0,0
-672,-433,0,0,0,0,0,0,0,0,0,-1,552,1457,0,0
-665,-433,0,0,0,0,0,0,0,0,0,-1,559,1457,0,0
-658,-433,0,0,0,0,0,0,0,0,0,-1,566,1457,0,0
-651,-433,0,0,0,0,0,0,0,0,0,-1,573,1457,0,0
-644,-433,0,0,0,0,0,0,0,0,0,-1,580,1457,0,0
-637,-433,0,0,0,0,0,0,0,0,0,-1,587,1457,0,0
-630,-433,0,0,0,0,0,0,0,0,0,-1,594,1457,0,0
-623,-433,0,0,0,0,0,0,0,0,0,-1,601,1457,0,0
-616,-433,0,0,0,0,0,0,0,0,0,-1,608,1457,0,0
-609,-433,0,0,0,0,0,0,0,0,0,-1,615,1457,0,0
-602,-433,0,0,0,0,0,0,0,0,0,-1,622,1457,0,0
-595,-433,0,0,0,0,0,0,0,0,0,-1,629,1457,0,0
-588,-433,-10.3756,-0.467041,0,0,0,0,0,0,0,-1,636,1457,-10.3756,0.467081
-581,-433,-8.12201,0.884033,0,0,0,0,0,0,0,-1,643,1457,-8.12204,-0.884056
-574,-433,-5.86847,2.23523,0,0,0,0,0,0,0,-1,650,1457,-5.86844,-2.23519
-567,-433,-5.42255,1.16833,0,0,0,0,0,0,0,-1,657,1457,-5.42254,-1.1683
-560,-433,-6.84027,1.86414,0,0,0,0,0,0,0,-1,664,1457,-6.84026,-1.86412
-553,-433,-5.74017,1.79163,0,0,0,0,0,0,0,-1,671,1457,-5.74015,-1.79166
-546,-433,-8.12451,7.35095,0,0,0,0,0,0,0,-1,678,1457,-8.12451,-7.35097
-539,-433,-7.3136,8.75659,0,0,0,0,0,0,0,-1,685,1457,-7.31362,-8.75659
-532,-433,-14.5645,14.8475,0,0,0,0,0,0,0,-1,692,1457,-14.5645,-14.8475
-525,-433,-20.5969,21.9008,0,0,0,0,0,0,0,-1,699,1457,-20.5969,-21.9008
-518,-433,-20.5594,22.9236,0.00290193,0.00447377,0.00375054,0.00751985,-0.000144148,0.888678,0.00506197,0.0186337,706,1457,-20.5594,-22.9235
-511,-433,-20.6345,23.8295,0.00226192,0.00329444,0.00277741,0.00560316,-4.6802e-05,0.877288,0.00375114,0.016574,713,1457,-20.6344,-23.8294
-504,-433,-20.6884,24.7052,0.00175271,0.00230699,0.00194302,0.00399253,6.71584e-05,0.856237,0.00263959,0.0137301,720,1457,-20.6883,-24.7053
-497,-433,-20.7257,25.5995,0.00140478,0.00151811,0.00127731,0.00274002,0.000182876,0.807564,0.00176887,0.0143107,727,1457,-20.7257,-25.5994
-490,-433,-20.8087,26.4812,0.00116061,0.000891817,0.000740281,0.00177859,0.00027383,0.695603,0.00110581,0.0158999,734,1457,-20.8087,-26.4812
-483,-433,-20.8589,27.4027,0.00111288,0.000516287,0.000420428,0.00133009,0.000299084,0.476858,0.00080575,0.0173986,741,1457,-20.8589,-27.4028
-476,-433,-20.8987,28.338,0.00114569,0.000310456,0.00024086,0.00121017,0.000245976,0.261573,0.000738573,0.0117925,748,1457,-20.8987,-28.338
-469,-433,-20.97,29.2338,0.00131725,0.000324584,0.000240158,0.00137229,0.000269534,0.225329,0.000839566,0.0115678,755,1457,-20.97,-29.2338
-462,-433,-21.0232,30.1292,0,0,0,0,0,0,0,-1,762,1457,-21.0232,-30.1291
-455,-433,-13.8576,22.7446,0,0,0,0,0,0,0,-1,769,1457,-13.8576,-22.7446
-448,-433,-6.94812,14.5563,0,0,0,0,0,0,0,-1,776,1457,-6.94809,-14.5562
-441,-433,-9.97485,14.0258,0,0,0,0,0,0,0,-1,783,1457,-9.97488,-14.0257
-434,-433,-9.41205,14.2297,0,0,0,0,0,0,0,-1,790,1457,-9.41205,-14.2297
-427,-433,-8.67419,13.6827,0,0,0,0,0,0,0,-1,797,1457,-8.67422,-13.6827
-420,-433,-5.74658,9.49121,0,0,0,0,0,0,0,-1,804,1457,-5.7466,-9.49119
-413,-433,-3.63074,5.5813,0,0,0,0,0,0,0,-1,811,1457,-3.63072,-5.58129
-406,-433,-12.3472,4.69373,0,0,0,0,0,0,0,-1,818,1457,-12.3472,-4.69374
-399,-433,-12.055,2.83594,0,0,0,0,0,0,0,-1,825,1457,-12.055,-2.83594
-392,-433,-12.9772,1.6228,0,0,0,0,0,0,0,-1,832,1457,-12.9772,-1.62282
-385,-433,-13.7999,0.514771,0,0,0,0,0,0,0,-1,839,1457,-13.7999,-0.514788
-378,-433,0,0,0,0,0,0,0,0,0,-1,846,1457,0,0
-371,-433,0,0,0,0,0,0,0,0,0,-1,853,1457,0,0
-364,-433,0,0,0,0,0,0,0,0,0,-1,860,1457,0,0
-357,-433,0,0,0,0,0,0,0,0,0,-1,867,1457,0,0
-350,-433,0,0,0,0,0,0,0,0,0,-1,874,1457,0,0
-343,-433,0,0,0,0,0,0,0,0,0,-1,881,1457,0,0
-336,-433,0,0,0,0,0,0,0,0,0,-1,888,1457,0,0
-329,-433,0,0,0,0,0,0,0,0,0,-1,895,1457,0,0
-322,-433,0,0,0,0,0,0,0,0,0,-1,902,1457,0,0
-315,-433,0,0,0,0,0,0,0,0,0,-1,909,1457,0,0
-308,-433,0,0,0,0,0,0,0,0,0,-1,916,1457,0,0
-301,-433,0,0,0,0,0,0,0,0,0,-1,923,1457,0,0
-294,-433,0,0,0,0,0,0,0,0,0,-1,930,1457,0,0
-287,-433,0,0,0,0,0,0,0,0,0,-1,937,1457,0,0
-280,-433,0,0,0,0,0,0,0,0,0,-1,944,1457,0,0
-273,-433,0,0,0,0,0,0,0,0,0,-1,951,1457,0,0
-266,-433,0,0,0,0,0,0,0,0,0,-1,958,1457,0,0
-259,-433,0,0,0,0,0,0,0,0,0,-1,965,1457,0,0
-252,-433,0,0,0,0,0,0,0,0,0,-1,972,1457,0,0
-245,-433,0,0,0,0,0,0,0,0,0,-1,979,1457,0,0
-238,-433,0,0,0,0,0,0,0,0,0,-1,986,1457,0,0
-231,-433,0,0,0,0,0,0,0,0,0,-1,993,1457,0,0
-224,-433,0,0,0,0,0,0,0,0,0,-1,1000,1457,0,0
-217,-433,0,0,0,0,0,0,0,0,0,-1,1007,1457,0,0
-210,-433,0,0,0,0,0,0,0,0,0,-1,1014,1457,0,0
-203,-433,0,0,0,0,0,0,0,0,0,-1,1021,1457,0,0
-196,-433,0,0,0,0,0,0,0,0,0,-1,1028,1457,0,0
-189,-433,0,0,0,0,0,0,0,0,0,-1,1035,1457,0,0
-182,-433,0,0,0,0,0,0,0,0,0,-1,1042,1457,0,0
-175,-433,0,0,0,0,0,0,0,0,0,-1,1049,1457,0,0
-168,-433,0,0,0,0,0,0,0,0,0,-1,1056,1457,0,0
-161,-433,0,0,0,0,0,0,0,0,0,-1,1063,1457,0,0
-154,-433,0,0,0,0,0,0,0,0,0,-1,1070,1457,0,0
-147,-433,0,0,0,0,0,0,0,0,0,-1,1077,1457,0,0
-140,-433,0,0,0,0,0,0,0,0,0,-1,1084,1457,0,0
-133,-433,0,0,0,0,0,0,0,0,0,-1,1091,1457,0,0
-126,-433,0,0,0,0,0,0,0,0,0,-1,1098,1457,0,0
-119,-433,0,0,0,0,0,0,0,0,0,-1,1105,1457,0,0
-112,-433,0,0,0,0,0,0,0,0,0,-1,1112,1457,0,0
-105,-433,0,0,0,0,0,0,0,0,0,-1,1119,1457,0,0
-98,-433,0,0,0,0,0,0,0,0,0,-1,1126,1457,0,0
-91,-433,0,0,0,0,0,0,0,0,0,-1,1133,1457,0,0
-84,-433,0,0,0,0,0,0,0,0,0,-1,1140,1457,0,0
-77,-433,0,0,0,0,0,0,0,0,0,-1,1147,1457,0,0
-70,-433,0,0,0,0,0,0,0,0,0,-1,1154,1457,0,0
-63,-433,0,0,0,0,0,0,0,0,0,-1,1161,1457,0,0
-56,-433,0,0,0,0,0,0,0,0,0,-1,1168,1457,0,0
-49,-433,0,0,0,0,0,0,0,0,0,-1,1175,1457,0,0
-42,-433,0,0,0,0,0,0,0,0,0,-1,1182,1457,0,0
-35,-433,0,0,0,0,0,0,0,0,0,-1,1189,1457,0,0
-28,-433,0,0,0,0,0,0,0,0,0,-1,1196,1457,0,0
-21,-433,0,0,0,0,0,0,0,0,0,-1,1203,1457,0,0
-14,-433,0,0,0,0,0,0,0,0,0,-1,1210,1457,0,0
-7,-433,0,0,0,0,0,0,0,0,0,-1,1217,1457,0,0
0,-433,0,0,0,0,0,0,0,0,0,-1,1224,1457,0,0
7,-433,0,0,0,0,0,0,0,0,0,-1,1231,1457,0,0
14,-433,0,0,0,0,0,0,0,0,0,-1,1238,1457,0,0
21,-433,0,0,0,0,0,0,0,0,0,-1,1245,1457,0,0
28,-433,0,0,0,0,0,0,0,0,0,-1,1252,1457,0,0
35,-433,0,0,0,0,0,0,0,0,0,-1,1259,1457,0,0
42,-433,0,0,0,0,0,0,0,0,0,-1,1266,1457,0,0
49,-433,0,0,0,0,0,0,0,0,0,-1,1273,1457,0,0
56,-433,0,0,0,0,0,0,0,0,0,-1,1280,1457,0,0
63,-433,0,0,0,0,0,0,0,0,0,-1,1287,1457,0,0
70,-433,0,0,0,0,0,0,0,0,0,-1,1294,1457,0,0
77,-433,0,0,0,0,0,0,0,0,0,-1,1301,1457,0,0
84,-433,0,0,0,0,0,0,0,0,0,-1,1308,1457,0,0
91,-433,0,0,0,0,0,0,0,0,0,-1,1315,1457,0,0
98,-433,0,0,0,0,0,0,0,0,0,-1,1322,1457,0,0
105,-433,0,0,0,0,0,0,0,0,0,-1,1329,1457,0,0
112,-433,0,0,0,0,0,0,0,0,0,-1,1336,1457,0,0
119,-433,0,0,0,0,0,0,0,0,0,-1,1343,1457,0,0
126,-433,0,0,0,0,0,0,0,0,0,-1,1350,1457,0,0
133,-433,0,0,0,0,0,0,0,0,0,-1,1357,1457,0,0
140,-433,0,0,0,0,0,0,0,0,0,-1,1364,1457,0,0
147,-433,0,0,0,0,0,0,0,0,0,-1,1371,1457,0,0
154,-433,0,0,0,0,0,0,0,0,0,-1,1378,1457,0,0
161,-433,0,0,0,0,0,0,0,0,0,-1,1385,1457,0,0
168,-433,0,0,0,0,0,0,0,0,0,-1,1392,1457,0,0
175,-433,0,0,0,0,0,0,0,0,0,-1,1399,1457,0,0
182,-433,0,0,0,0,0,0,0,0,0,-1,1406,1457,0,0
189,-433,0,0,0,0,0,0,0,0,0,-1,1413,1457,0,0
196,-433,0,0,0,0,0,0,0,0,0,-1,1420,1457,0,0
203,-433,0,0,0,0,0,0,0,0,0,-1,1427,1457,0,0
210,-433,0,0,0,0,0,0,0,0,0,-1,1434,1457,0,0
217,-433,0,0,0,0,0,0,0,0,0,-1,1441,1457,0,0
224,-433,0,0,0,0,0,0,0,0,0,-1,1448,1457,0,0
231,-433,0,0,0,0,0,0,0,0,0,-1,1455,1457,0,0
238,-433,0,0,0,0,0,0,0,0,0,-1,1462,1457,0,0
245,-433,0,0,0,0,0,0,0,0,0,-1,1469,1457,0,0
252,-433,0,0,0,0,0,0,0,0,0,-1,1476,1457,0,0
259,-433,0,0,0,0,0,0,0,0,0,-1,1483,1457,0,0
266,-433,0,0,0,0,0,0,0,0,0,-1,1490,1457,0,0
273,-433,0,0,0,0,0,0,0,0,0,-1,1497,1457,0,0
280,-433,0,0,0,0,0,0,0,0,0,-1,1504,1457,0,0
287,-433,0,0,0,0,0,0,0,0,0,-1,1511,1457,0,0
294,-433,0,0,0,0,0,0,0,0,0,-1,1518,1457,0,0
301,-433,0,0,0,0,0,0,0,0,0,-1,1525,1457,0,0
308,-433,0,0,0,0,0,0,0,0,0,-1,1532,1457,0,0
315,-433,0,0,0,0,0,0,0,0,0,-1,1539,1457,0,0
322,-433,0,0,0,0,0,0,0,0,0,-1,1546,1457,0,0
329,-433,0,0,0,0,0,0,0,0,0,-1,1553,1457,0,0
336,-433,0,0,0,0,0,0,0,0,0,-1,1560,1457,0,0
343,-433,0,0,0,0,0,0,0,0,0,-1,1567,1457,0,0
350,-433,0,0,0,0,0,0,0,0,0,-1,1574,1457,0,0
357,-433,0,0,0,0,0,0,0,0,0,-1,1581,1457,0,0
364,-433,0,0,0,0,0,0,0,0,0,-1,1588,1457,0,0
371,-433,0,0,0,0,0,0,0,0,0,-1,1595,1457,0,0
378,-433,0,0,0,0,0,0,0,0,0,-1,1602,1457,0,0
385,-433,0,0,0,0,0,0,0,0,0,-1,1609,1457,0,0
392,-433,0,0,0,0,0,0,0,0,0,-1,1616,1457,0,0
399,-433,0,0,0,0,0,0,0,0,0,-1,1623,1457,0,0
406,-433,0,0,0,0,0,0,0,0,0,-1,1630,1457,0,0
413,-433,0,0,0,0,0,0,0,0,0,-1,1637,1457,0,0
420,-433,0,0,0,0,0,0,0,0,0,-1,1644,1457,0,0
427,-433,0,0,0,0,0,0,0,0,0,-1,1651,1457,0,0
434,-433,0,0,0,0,0,0,0,0,0,-1,1658,1457,0,0
441,-433,0,0,0,0,0,0,0,0,0,-1,1665,1457,0,0
448,-433,0,0,0,0,0,0,0,0,0,-1,1672,1457,0,0
455,-433,0,0,0,0,0,0,0,0,0,-1,1679,1457,0,0
462,-433,0,0,0,0,0,0,0,0,0,-1,1686,1457,0,0
469,-433,0,0,0,0,0,0,0,0,0,-1,1693,1457,0,0
476,-433,0,0,0,0,0,0,0,0,0,-1,1700,1457,0,0
483,-433,0,0,0,0,0,0,0,0,0,-1,1707,1457,0,0
490,-433,0,0,0,0,0,0,0,0,0,-1,1714,1457,0,0
497,-433,0,0,0,0,0,0,0,0,0,-1,1721,1457,0,0
504,-433,19.9058,3.03662,0,0,0,0,0,0,0,-1,1728,1457,19.9058,-3.03656
511,-433,19.0145,3.07837,0,0,0,0,0,0,0,-1,1735,1457,19.0146,-3.07834
518,-433,18.071,3.06433,0,0,0,0,0,0,0,-1,1742,1457,18.071,-3.06432
525,-433,17.2048,3.37085,0,0,0,0,0,0,0,-1,1749,1457,17.2049,-3.37083
532,-433,16.5637,3.36646,0,0,0,0,0,0,0,-1,1756,1457,16.5637,-3.36643
539,-433,15.9193,3.30396,0,0,0,0,0,0,0,-1,1763,1457,15.9193,-3.30394
546,-433,23.1903,4.81775,0,0,0,0,0,0,0,-1,1770,1457,23.1903,-4.81775
553,-433,13.9674,11.5781,0,0,0,0,0,0,0,-1,1777,1457,13.9674,-11.5781
560,-433,13.9855,11.7341,0,0,0,0,0,0,0,-1,1784,1457,13.9855,-11.7341
567,-433,13.9264,11.3364,0,0,0,0,0,0,0,-1,1791,1457,13.9263,-11.3364
574,-433,15.5305,12.3673,0,0,0,0,0,0,0,-1,1798,1457,15.5305,-12.3673
581,-433,16.6405,12.1898,0,0,0,0,0,0,0,-1,1805,1457,16.6405,-12.1898
588,-433,26.4386,19.7478,0,0,0,0,0,0,0,-1,1812,1457,26.4386,-19.7478
595,-433,38.3622,29.6151,0,0,0,0,0,0,0,-1,1819,1457,38.3622,-29.6151
602,-433,38.3071,28.6543,0.00420832,0.00227082,-0.00272872,0.00613515,0.000343989,-0.614828,0.00398039,0.0311275,1826,1457,38.3071,-28.6543
609,-433,38.3126,27.7152,0.00309701,0.00162151,-0.00196048,0.00445396,0.000264557,-0.605438,0.00288517,0.0178985,1833,1457,38.3127,-27.7152
616,-433,38.2762,26.8668,0.0022154,0.000995039,-0.00126918,0.00301346,0.000196976,-0.561327,0.00194664,0.0151748,1840,1457,38.2762,-26.8668
623,-433,38.2009,25.9827,0.00172357,0.000573743,-0.000801953,0.00213539,0.000161917,-0.474412,0.00137281,0.0118536,1847,1457,38.2009,-25.9826
630,-433,38.1511,25.1024,0.0016415,9.63986e-05,-0.000494381,0.00178614,-4.82462e-05,-0.284633,0.00120716,0.0155901,1854,1457,38.1512,-25.1025
637,-433,38.1058,24.2296,0.00177945,-0.0002753,-0.000302578,0.00182308,-0.00031893,-0.143209,0.00133446,0.0169327,1861,1457,38.1059,-24.2296
644,-433,38.022,23.3655,0.00222276,-0.000514324,-0.000320624,0.00225982,-0.000551381,-0.115065,0.00172005,0.0179491,1868,1457,38.022,-23.3655
651,-433,37.9613,22.4469,0.00304398,-0.000624465,-0.000614631,0.00314422,-0.000724704,-0.161665,0.00237486,0.0142361,1875,1457,37.9613,-22.4469
658,-433,37.9292,21.5422,0,0,0,0,0,0,0,-1,1882,1457,37.9293,-21.5422
665,-433,36.4893,18.9447,0,0,0,0,0,0,0,-1,1889,1457,36.4893,-18.9447
672,-433,18.115,8.7207,0,0,0,0,0,0,0,-1,1896,1457,18.115,-8.72074
679,-433,17.2969,9.6355,0,0,0,0,0,0,0,-1,1903,1457,17.2968,-9.63548
686,-433,13.6356,8.61694,0,0,0,0,0,0,0,-1,1910,1457,13.6356,-8.61694
693,-433,13.4081,8.39624,0,0,0,0,0,0,0,-1,1917,1457,13.4081,-8.39624
700,-433,7.16809,-1.5166,0,0,0,0,0,0,0,-1,1924,1457,7.16806,1.51656
707,-433,8.68359,-2.82202,0,0,0,0,0,0,0,-1,1931,1457,8.68359,2.82197
714,-433,0,0,0,0,0,0,0,0,0,-1,1938,1457,0,0
721,-433,0,0,0,0,0,0,0,0,0,-1,1945,1457,0,0
728,-433,0,0,0,0,0,0,0,0,0,-1,1952,1457,0,0
735,-433,0,0,0,0,0,0,0,0,0,-1,1959,1457,0,0
742,-433,0,0,0,0,0,0,0,0,0,-1,1966,1457,0,0
749,-433,0,0,0,0,0,0,0,0,0,-1,1973,1457,0,0
756,-433,0,0,0,0,0,0,0,0,0,-1,1980,1457,0,0
763,-433,0,0,0,0,0,0,0,0,0,-1,1987,1457,0,0
770,-433,0,0,0,0,0,0,0,0,0,-1,1994,1457,0,0
777,-433,0,0,0,0,0,0,0,0,0,-1,2001,1457,0,0
784,-433,0,0,0,0,0,0,0,0,0,-1,2008,1457,0,0
791,-433,0,0,0,0,0,0,0,0,0,-1,2015,1457,0,0
798,-433,0,0,0,0,0,0,0,0,0,-1,2022,1457,0,0
805,-433,0,0,0,0,0,0,0,0,0,-1,2029,1457,0,0
812,-433,0,0,0,0,0,0,0,0,0,-1,2036,1457,0,0
-700,-440,0,0,0,0,0,0,0,0,0,-1,524,1464,0,0
-693,-440,0,0,0,0,0,0,0,0,0,-1,531,1464,0,0
-686,-440,0,0,0,0,0,0,0,0,0,-1,538,1464,0,0
-679,-440,0,0,0,0,0,0,0,0,0,-1,545,1464,0,0
-672,-440,0,0,0,0,0,0,0,0,0,-1,552,1464,0,0
-665,-440,0,0,0,0,0,0,0,0,0,-1,559,1464,0,0
-658,-440,0,0,0,0,0,0,0,0,0,-1,566,1464,0,0
-651,-440,0,0,0,0,0,0,0,0,0,-1,573,1464,0,0
-644,-440,0,0,0,0,0,0,0,0,0,-1,580,1464,0,0
-637,-440,0,0,0,0,0,0,0,0,0,-1,587,1464,0,0
-630,-440,0,0,0,0,0,0,0,0,0,-1,594,1464,0,0
-623,-440,0,0,0,0,0,0,0,0,0,-1,601,1464,0,0
-616,-440,0,0,0,0,0,0,0,0,0,-1,608,1464,0,0
-609,-440,0,0,0,0,0,0,0,0,0,-1,615,1464,0,0
-602,-440,0,0,0,0,0,0,0,0,0,-1,622,1464,0,0
-595,-440,0,0,0,0,0,0,0,0,0,-1,629,1464,0,0
-588,-440,0,0,0,0,0,0,0,0,0,-1,636,1464,0,0
-581,-440,-8.97278,0.254517,0,0,0,0,0,0,0,-1,643,1464,-8.97276,-0.254526
-574,-440,-7.00818,-0.918579,0,0,0,0,0,0,0,-1,650,1464,-7.00817,0.918538
-567,-440,-6.12152,-0.0766602,0,0,0,0,0,0,0,-1,657,1464,-6.12151,0.0767097
-560,-440,-5.46747,0.82251,0,0,0,0,0,0,0,-1,664,1464,-5.46748,-0.822551
-553,-440,-6.84729,0.0831299,0,0,0,0,0,0,0,-1,671,1464,-6.84732,-0.083136
-546,-440,-5.63446,-0.153198,0,0,0,0,0,0,0,-1,678,1464,-5.63447,0.153147
-539,-440,-6.80017,8.58252,0,0,0,0,0,0,0,-1,685,1464,-6.80015,-8.58257
-532,-440,-9.69647,11.3262,0,0,0,0,0,0,0,-1,692,1464,-9.69649,-11.3262
-525,-440,-19.7914,21.8038,0,0,0,0,0,0,0,-1,699,1464,-19.7914,-21.8039
-518,-440,-19.7106,22.8519,0.00324478,0.00575911,0.00476389,0.00942893,-0.000425034,0.914404,0.00643231,0.0367587,706,1464,-19.7106,-22.8519
-511,-440,-19.707,23.8876,0.00258507,0.0043879,0.00365515,0.00725115,-0.000278181,0.906293,0.00492944,0.016297,713,1464,-19.707,-23.8876
-504,-440,-19.7831,24.7894,0.00202394,0.00320805,0.00267842,0.00535907,-0.000127078,0.894173,0.00361581,0.0194533,720,1464,-19.7831,-24.7894
-497,-440,-19.8564,25.6074,0.00162124,0.0022472,0.0018783,0.00383842,3.00171e-05,0.867955,0.002549,0.0236453,727,1464,-19.8564,-25.6074
-490,-440,-19.9135,26.4724,0.0013195,0.00145846,0.00122053,0.00261148,0.000166482,0.813831,0.00168823,0.0243697,734,1464,-19.9135,-26.4724
-483,-440,-19.9552,27.4252,0.00120523,0.00090592,0.000774302,0.00184421,0.000266944,0.689937,0.00115086,0.0206963,741,1464,-19.9552,-27.4252
-476,-440,-19.9896,28.3719,0.00117213,0.000535924,0.000480126,0.00142997,0.000278083,0.492829,0.000875464,0.013532,748,1464,-19.9896,-28.3719
-469,-440,-20.0626,29.2948,0.0012478,0.000426815,0.00037511,0.00139338,0.00028124,0.370194,0.00085081,0.0131367,755,1464,-20.0626,-29.2947
-462,-440,-20.174,30.1664,0.00149225,0.000621206,0.000525265,0.00173906,0.000374392,0.439267,0.00105692,0.0201707,762,1464,-20.1739,-30.1664
-455,-440,-20.1541,31.144,0,0,0,0,0,0,0,-1,769,1464,-20.1541,-31.144
-448,-440,-12.8837,23.5623,0,0,0,0,0,0,0,-1,776,1464,-12.8837,-23.5623
-441,-440,-7.28583,14.7465,0,0,0,0,0,0,0,-1,783,1464,-7.28584,-14.7464
-434,-440,-8.33636,14.5024,0,0,0,0,0,0,0,-1,790,1464,-8.33638,-14.5025
-427,-440,-8.28094,14.2512,0,0,0,0,0,0,0,-1,797,1464,-8.28094,-14.2512
-420,-440,-6.86603,8.09216,0,0,0,0,0,0,0,-1,804,1464,-6.86602,-8.09222
-413,-440,-3.46796,5.72278,0,0,0,0,0,0,0,-1,811,1464,-3.46797,-5.72276
-406,-440,-5.2887,5.20264,0,0,0,0,0,0,0,-1,818,1464,-5.2887,-5.20261
-399,-440,-12.7318,3.94421,0,0,0,0,0,0,0,-1,825,1464,-12.7318,-3.94419
-392,-440,-13.5565,2.51855,0,0,0,0,0,0,0,-1,832,1464,-13.5565,-2.51861
-385,-440,-14.6741,1.39795,0,0,0,0,0,0,0,-1,839,1464,-14.6741,-1.39801
-378,-440,-15.8063,0.293457,0,0,0,0,0,0,0,-1,846,1464,-15.8063,-0.293412
-371,-440,0,0,0,0,0,0,0,0,0,-1,853,1464,0,0
-364,-440,0,0,0,0,0,0,0,0,0,-1,860,1464,0,0
-357,-440,0,0,0,0,0,0,0,0,0,-1,867,1464,0,0
-350,-440,0,0,0,0,0,0,0,0,0,-1,874,1464,0,0
-343,-440,0,0,0,0,0,0,0,0,0,-1,881,1464,0,0
-336,-440,0,0,0,0,0,0,0,0,0,-1,888,1464,0,0
-329,-440,0,0,0,0,0,0,0,0,0,-1,895,1464,0,0
-322,-440,0,0,0,0,0,0,0,0,0,-1,902,1464,0,0
-315,-440,0,0,0,0,0,0,0,0,0,-1,909,1464,0,0
-308,-440,0,0,0,0,0,0,0,0,0,-1,916,1464,0,0
-301,-440,0,0,0,0,0,0,0,0,0,-1,923,1464,0,0
-294,-440,0,0,0,0,0,0,0,0,0,-1,930,1464,0,0
-287,-440,0,0,0,0,0,0,0,0,0,-1,937,1464,0,0
-280,-440,0,0,0,0,0,0,0,0,0,-1,944,1464,0,0
-273,-440,0,0,0,0,0,0,0,0,0,-1,951,1464,0,0
-266,-440,0,0,0,0,0,0,0,0,0,-1,958,1464,0,0
-259,-440,0,0,0,0,0,0,0,0,0,-1,965,1464,0,0
-252,-440,0,0,0,0,0,0,0,0,0,-1,972,1464,0,0
-245,-440,0,0,0,0,0,0,0,0,0,-1,979,1464,0,0
-238,-440,0,0,0,0,0,0,0,0,0,-1,986,1464,0,0
-231,-440,0,0,0,0,0,0,0,0,0,-1,993,1464,0,0
-224,-440,0,0,0,0,0,0,0,0,0,-1,1000,1464,0,0
-217,-440,0,0,0,0,0,0,0,0,0,-1,1007,1464,0,0
-210,-440,0,0,0,0,0,0,0,0,0,-1,1014,1464,0,0
-203,-440,0,0,0,0,0,0,0,0,0,-1,1021,1464,0,0
-196,-440,0,0,0,0,0,0,0,0,0,-1,1028,1464,0,0
-189,-440,0,0,0,0,0,0,0,0,0,-1,1035,1464,0,0
-182,-440,0,0,0,0,0,0,0,0,0,-1,1042,1464,0,0
-175,-440,0,0,0,0,0,0,0,0,0,-1,1049,1464,0,0
-168,-440,0,0,0,0,0,0,0,0,0,-1,1056,1464,0,0
-161,-440,0,0,0,0,0,0,0,0,0,-1,1063,1464,0,0
-154,-440,0,0,0,0,0,0,0,0,0,-1,1070,1464,0,0
-147,-440,0,0,0,0,0,0,0,0,0,-1,1077,1464,0,0
-140,-440,0,0,0,0,0,0,0,0,0,-1,1084,1464,0,0
-133,-440,0,0,0,0,0,0,0,0,0,-1,1091,1464,0,0
-126,-440,0,0,0,0,0,0,0,0,0,-1,1098,1464,0,0
-119,-440,0,0,0,0,0,0,0,0,0,-1,1105,1464,0,0
-112,-440,0,0,0,0,0,0,0,0,0,-1,1112,1464,0,0
-105,-440,0,0,0,0,0,0,0,0,0,-1,1119,1464,0,0
-98,-440,0,0,0,0,0,0,0,0,0,-1,1126,1464,0,0
-91,-440,0,0,0,0,0,0,0,0,0,-1,1133,1464,0,0
-84,-440,0,0,0,0,0,0,0,0,0,-1,1140,1464,0,0
-77,-440,0,0,0,0,0,0,0,0,0,-1,1147,1464,0,0
-70,-440,0,0,0,0,0,0,0,0,0,-1,1154,1464,0,0
-63,-440,0,0,0,0,0,0,0,0,0,-1,1161,1464,0,0
-56,-440,0,0,0,0,0,0,0,0,0,-1,1168,1464,0,0
-49,-440,0,0,0,0,0,0,0,0,0,-1,1175,1464,0,0
-42,-440,0,0,0,0,0,0,0,0,0,-1,1182,1464,0,0
-35,-440,0,0,0,0,0,0,0,0,0,-1,1189,1464,0,0
-28,-440,0,0,0,0,0,0,0,0,0,-1,1196,1464,0,0
-21,-440,0,0,0,0,0,0,0,0,0,-1,1203,1464,0,0
-14,-440,0,0,0,0,0,0,0,0,0,-1,1210,1464,0,0
-7,-440,0,0,0,0,0,0,0,0,0,-1,1217,1464,0,0
0,-440,0,0,0,0,0,0,0,0,0,-1,1224,1464,0,0
7,-440,0,0,0,0,0,0,0,0,0,-1,1231,1464,0,0
14,-440,0,0,0,0,0,0,0,0,0,-1,1238,1464,0,0
21,-440,0,0,0,0,0,0,0,0,0,-1,1245,1464,0,0
28,-440,0,0,0,0,0,0,0,0,0,-1,1252,1464,0,0
35,-440,0,0,0,0,0,0,0,0,0,-1,1259,1464,0,0
42,-440,0,0,0,0,0,0,0,0,0,-1,1266,1464,0,0
49,-440,0,0,0,0,0,0,0,0,0,-1,1273,1464,0,0
56,-440,0,0,0,0,0,0,0,0,0,-1,1280,1464,0,0
63,-440,0,0,0,0,0,0,0,0,0,-1,1287,1464,0,0
70,-440,0,0,0,0,0,0,0,0,0,-1,1294,1464,0,0
77,-440,0,0,0,0,0,0,0,0,0,-1,1301,1464,0,0
84,-440,0,0,0,0,0,0,0,0,0,-1,1308,1464,0,0
91,-440,0,0,0,0,0,0,0,0,0,-1,1315,1464,0,0
98,-440,0,0,0,0,0,0,0,0,0,-1,1322,1464,0,0
105,-440,0,0,0,0,0,0,0,0,0,-1,1329,1464,0,0
112,-440,0,0,0,0,0,0,0,0,0,-1,1336,1464,0,0
119,-440,0,0,0,0,0,0,0,0,0,-1,1343,1464,0,0
126,-440,0,0,0,0,0,0,0,0,0,-1,1350,1464,0,0
133,-440,0,0,0,0,0,0,0,0,0,-1,1357,1464,0,0
140,-440,0,0,0,0,0,0,0,0,0,-1,1364,1464,0,0
147,-440,0,0,0,0,0,0,0,0,0,-1,1371,1464,0,0
154,-440,0,0,0,0,0,0,0,0,0,-1,1378,1464,0,0
161,-440,0,0,0,0,0,0,0,0,0,-1,1385,1464,0,0
168,-440,0,0,0,0,0,0,0,0,0,-1,1392,1464,0,0
175,-440,0,0,0,0,0,0,0,0,0,-1,1399,1464,0,0
182,-440,0,0,0,0,0,0,0,0,0,-1,1406,1464,0,0
189,-440,0,0,0,0,0,0,0,0,0,-1,1413,1464,0,0
196,-440,0,0,0,0,0,0,0,0,0,-1,1420,1464,0,0
203,-440,0,0,0,0,0,0,0,0,0,-1,1427,1464,0,0
210,-440,0,0,0,0,0,0,0,0,0,-1,1434,1464,0,0
217,-440,0,0,0,0,0,0,0,0,0,-1,1441,1464,0,0
224,-440,0,0,0,0,0,0,0,0,0,-1,1448,1464,0,0
231,-440,0,0,0,0,0,0,0,0,0,-1,1455,1464,0,0
238,-440,0,0,0,0,0,0,0,0,0,-1,1462,1464,0,0
245,-440,0,0,0,0,0,0,0,0,0,-1,1469,1464,0,0
252,-440,0,0,0,0,0,0,0,0,0,-1,1476,1464,0,0
259,-440,0,0,0,0,0,0,0,0,0,-1,1483,1464,0,0
266,-440,0,0,0,0,0,0,0,0,0,-1,1490,1464,0,0
273,-440,0,0,0,0,0,0,0,0,0,-1,1497,1464,0,0
280,-440,0,0,0,0,0,0,0,0,0,-1,1504,1464,0,0
287,-440,0,0,0,0,0,0,0,0,0,-1,1511,1464,0,0
294,-440,0,0,0,0,0,0,0,0,0,-1,1518,1464,0,0
301,-440,0,0,0,0,0,0,0,0,0,-1,1525,1464,0,0
308,-440,0,0,0,0,0,0,0,0,0,-1,1532,1464,0,0
315,-440,0,0,0,0,0,0,0,0,0,-1,1539,1464,0,0
322,-440,0,0,0,0,0,0,0,0,0,-1,1546,1464,0,0
329,-440,0,0,0,0,0,0,0,0,0,-1,1553,1464,0,0
336,-440,0,0,0,0,0,0,0,0,0,-1,1560,1464,0,0
343,-440,0,0,0,0,0,0,0,0,0,-1,1567,1464,0,0
350,-440,0,0,0,0,0,0,0,0,0,-1,1574,1464,0,0
357,-440,0,0,0,0,0,0,0,0,0,-1,1581,1464,0,0
364,-440,0,0,0,0,0,0,0,0,0,-1,1588,1464,0,0
371,-440,0,0,0,0,0,0,0,0,0,-1,1595,1464,0,0
378,-440,0,0,0,0,0,0,0,0,0,-1,1602,1464,0,0
385,-440,0,0,0,0,0,0,0,0,0,-1,1609,1464,0,0
392,-440,0,0,0,0,0,0,0,0,0,-1,1616,1464,0,0
399,-440,0,0,0,0,0,0,0,0,0,-1,1623,1464,0,0
406,-440,0,0,0,0,0,0,0,0,0,-1,1630,1464,0,0
413,-440,0,0,0,0,0,0,0,0,0,-1,1637,1464,0,0
420,-440,0,0,0,0,0,0,0,0,0,-1,1644,1464,0,0
427,-440,0,0,0,0,0,0,0,0,0,-1,1651,1464,0,0
434,-440,0,0,0,0,0,0,0,0,0,-1,1658,1464,0,0
441,-440,0,0,0,0,0,0,0,0,0,-1,1665,1464,0,0
448,-440,0,0,0,0,0,0,0,0,0,-1,1672,1464,0,0
455,-440,0,0,0,0,0,0,0,0,0,-1,1679,1464,0,0
462,-440,0,0,0,0,0,0,0,0,0,-1,1686,1464,0,0
469,-440,0,0,0,0,0,0,0,0,0,-1,1693,1464,0,0
476,-440,0,0,0,0,0,0,0,0,0,-1,1700,1464,0,0
483,-440,0,0,0,0,0,0,0,0,0,-1,1707,1464,0,0
490,-440,0,0,0,0,0,0,0,0,0,-1,1714,1464,0,0
497,-440,16.965,-0.528442,0,0,0,0,0,0,0,-1,1721,1464,16.965,0.528492
504,-440,15.8052,0.670166,0,0,0,0,0,0,0,-1,1728,1464,15.8052,-0.670145
511,-440,17.5754,2.77832,0,0,0,0,0,0,0,-1,1735,1464,17.5754,-2.77826
518,-440,16.9017,3.07861,0,0,0,0,0,0,0,-1,1742,1464,16.9018,-3.07859
525,-440,18.4495,12.0867,0,0,0,0,0,0,0,-1,1749,1464,18.4495,-12.0867
532,-440,15.4319,3.64392,0,0,0,0,0,0,0,-1,1756,1464,15.4318,-3.64391
539,-440,14.8214,3.41321,0,0,0,0,0,0,0,-1,1763,1464,14.8214,-3.4132
546,-440,14.8651,10.7683,0,0,0,0,0,0,0,-1,1770,1464,14.8651,-10.7683
553,-440,15.1213,11.4121,0,0,0,0,0,0,0,-1,1777,1464,15.1213,-11.4121
560,-440,17.4325,12.5394,0,0,0,0,0,0,0,-1,1784,1464,17.4325,-12.5394
567,-440,16.9025,12.4249,0,0,0,0,0,0,0,-1,1791,1464,16.9025,-12.425
574,-440,19.2841,14.8679,0,0,0,0,0,0,0,-1,1798,1464,19.2841,-14.868
581,-440,26.4432,21.3477,0,0,0,0,0,0,0,-1,1805,1464,26.4432,-21.3476
588,-440,37.3154,30.642,0,0,0,0,0,0,0,-1,1812,1464,37.3155,-30.642
595,-440,37.3547,29.6072,0.005487,0.00271108,-0.00334408,0.00771972,0.000478363,-0.588691,0.00499467,0.0372574,1819,1464,37.3547,-29.6071
602,-440,37.4543,28.634,0.00408606,0.00196735,-0.00245072,0.00569658,0.000356822,-0.581395,0.00368455,0.0216292,1826,1464,37.4544,-28.6341
609,-440,37.4097,27.7761,0.00303618,0.00134329,-0.00172363,0.00410999,0.000269476,-0.557154,0.00265473,0.0185843,1833,1464,37.4096,-27.7761
616,-440,37.3442,26.9236,0.00217876,0.000734619,-0.00105374,0.00273409,0.000179289,-0.48502,0.001766,0.0193426,1840,1464,37.3442,-26.9235
623,-440,37.3135,26.0247,0.00171449,0.000313284,-0.000581388,0.0019243,0.000103471,-0.346336,0.00124981,0.014673,1847,1464,37.3135,-26.0247
630,-440,37.2471,25.1154,0.00162679,-0.000184818,-0.000227343,0.00165488,-0.000212912,-0.122953,0.00118064,0.0118856,1854,1464,37.2471,-25.1153
637,-440,37.2162,24.2911,0.00173877,-0.00059178,3.27955e-05,0.00173923,-0.000592241,0.0140683,0.00139932,0.0163548,1861,1464,37.2161,-24.2912
644,-440,37.1744,23.4257,0.00213504,-0.000871693,9.64323e-05,0.00213813,-0.000874782,0.0320283,0.00178975,0.0170225,1868,1464,37.1744,-23.4257
651,-440,37.1672,22.447,0.00295181,-0.00103594,-0.000146693,0.0029572,-0.00104133,-0.0367197,0.00239525,0.029586,1875,1464,37.1673,-22.447
658,-440,37.234,21.3527,0,0,0,0,0,0,0,-1,1882,1464,37.234,-21.3527
665,-440,24.2067,12.5813,0,0,0,0,0,0,0,-1,1889,1464,24.2067,-12.5813
672,-440,18.9385,9.6394,0,0,0,0,0,0,0,-1,1896,1464,18.9384,-9.63939
679,-440,16.9508,10.2336,0,0,0,0,0,0,0,-1,1903,1464,16.9508,-10.2337
686,-440,15.2556,8.44177,0,0,0,0,0,0,0,-1,1910,1464,15.2556,-8.44177
693,-440,9.88635,2.89795,0,0,0,0,0,0,0,-1,1917,1464,9.88638,-2.89798
700,-440,7.07825,-2.62061,0,0,0,0,0,0,0,-1,1924,1464,7.07829,2.62057
707,-440,0,0,0,0,0,0,0,0,0,-1,1931,1464,0,0
714,-440,0,0,0,0,0,0,0,0,0,-1,1938,1464,0,0
721,-440,0,0,0,0,0,0,0,0,0,-1,1945,1464,0,0
728,-440,0,0,0,0,0,0,0,0,0,-1,1952,1464,0,0
735,-440,0,0,0,0,0,0,0,0,0,-1,1959,1464,0,0
742,-440,0,0,0,0,0,0,0,0,0,-1,1966,1464,0,0
749,-440,0,0,0,0,0,0,0,0,0,-1,1973,1464,0,0
756,-440,0,0,0,0,0,0,0,0,0,-1,1980,1464,0,0
763,-440,0,0,0,0,0,0,0,0,0,-1,1987,1464,0,0
770,-440,0,0,0,0,0,0,0,0,0,-1,1994,1464,0,0
777,-440,0,0,0,0,0,0,0,0,0,-1,2001,1464,0,0
784,-440,0,0,0,0,0,0,0,0,0,-1,2008,1464,0,0
791,-440,0,0,0,0,0,0,0,0,0,-1,2015,1464,0,0
798,-440,0,0,0,0,0,0,0,0,0,-1,2022,1464,0,0
805,-440,0,0,0,0,0,0,0,0,0,-1,2029,1464,0,0
812,-440,0,0,0,0,0,0,0,0,0,-1,2036,1464,0,0
-700,-447,0,0,0,0,0,0,0,0,0,-1,524,1471,0,0
-693,-447,0,0,0,0,0,0,0,0,0,-1,531,1471,0,0
-686,-447,0,0,0,0,0,0,0,0,0,-1,538,1471,0,0
-679,-447,0,0,0,0,0,0,0,0,0,-1,545,1471,0,0
-672,-447,0,0,0,0,0,0,0,0,0,-1,552,1471,0,0
-665,-447,0,0,0,0,0,0,0,0,0,-1,559,1471,0,0
-658,-447,0,0,0,0,0,0,0,0,0,-1,566,1471,0,0
-651,-447,0,0,0,0,0,0,0,0,0,-1,573,1471,0,0
-644,-447,0,0,0,0,0,0,0,0,0,-1,580,1471,0,0
-637,-447,0,0,0,0,0,0,0,0,0,-1,587,1471,0,0
-630,-447,0,0,0,0,0,0,0,0,0,-1,594,1471,0,0
-623,-447,0,0,0,0,0,0,0,0,0,-1,601,1471,0,0
-616,-447,0,0,0,0,0,0,0,0,0,-1,608,1471,0,0
-609,-447,0,0,0,0,0,0,0,0,0,-1,615,1471,0,0
-602,-447,0,0,0,0,0,0,0,0,0,-1,622,1471,0,0
-595,-447,0,0,0,0,0,0,0,0,0,-1,629,1471,0,0
-588,-447,0,0,0,0,0,0,0,0,0,-1,636,1471,0,0
-581,-447,-7.06482,-1.50476,0,0,0,0,0,0,0,-1,643,1471,-7.0648,1.50474
-574,-447,-6.88092,-0.00585938,0,0,0,0,0,0,0,-1,650,1471,-6.88095,0.00589852
-567,-447,-6.8205,-1.32178,0,0,0,0,0,0,0,-1,657,1471,-6.82047,1.32172
-560,-447,-8.85748,2.80774,0,0,0,0,0,0,0,-1,664,1471,-8.85748,-2.80775
-553,-447,-7.60486,3.26794,0,0,0,0,0,0,0,-1,671,1471,-7.60487,-3.26799
-546,-447,-3.94501,1.8656,0,0,0,0,0,0,0,-1,678,1471,-3.945,-1.86554
-539,-447,-5.35492,4.50024,0,0,0,0,0,0,0,-1,685,1471,-5.35492,-4.50018
-532,-447,-6.12781,8.81091,0,0,0,0,0,0,0,-1,692,1471,-6.12781,-8.81094
-525,-447,-9.44501,12.098,0,0,0,0,0,0,0,-1,699,1471,-9.44502,-12.098
-518,-447,-18.8656,22.6316,0,0,0,0,0,0,0,-1,706,1471,-18.8656,-22.6316
-511,-447,-18.8374,23.8669,0.00292988,0.00551331,0.00458913,0.00898906,-0.000545862,0.922585,0.0061827,0.0323514,713,1471,-18.8374,-23.867
-504,-447,-18.8812,24.875,0.00234094,0.00409774,0.003455,0.00678425,-0.000345569,0.909881,0.00464231,0.0209082,720,1471,-18.8812,-24.875
-497,-447,-19.0426,25.7399,0.00189895,0.00295212,0.002509,0.0049892,-0.000138125,0.888837,0.00337312,0.0268679,727,1471,-19.0426,-25.7399
-490,-447,-19.0443,26.5704,0.00156565,0.00201815,0.00174085,0.00354739,3.64109e-05,0.850018,0.00235289,0.0270258,734,1471,-19.0443,-26.5704
-483,-447,-19.0816,27.4888,0.00139083,0.00132511,0.00117678,0.00253521,0.000180729,0.77144,0.00163323,0.0238002,741,1471,-19.0816,-27.4888
-476,-447,-19.087,28.4152,0.00129984,0.000857632,0.00078752,0.0018967,0.000260764,0.648543,0.00118713,0.0152251,748,1471,-19.087,-28.4152
-469,-447,-19.1392,29.3391,0.00131525,0.000693799,0.000590005,0.00167135,0.0003377,0.543028,0.00102047,0.013887,755,1471,-19.1392,-29.3391
-462,-447,-19.2267,30.2528,0.0015173,0.000831789,0.000639725,0.00190031,0.000448784,0.539465,0.00114693,0.0143605,762,1471,-19.2267,-30.2528
-455,-447,-19.2529,31.1432,0.00188675,0.00129384,0.00094765,0.00258323,0.000597358,0.633805,0.0015616,0.0277628,769,1471,-19.2529,-31.1432
-448,-447,-19.2292,32.1124,0,0,0,0,0,0,0,-1,776,1471,-19.2293,-32.1125
-441,-447,-8.68506,19.0931,0,0,0,0,0,0,0,-1,783,1471,-8.68504,-19.0932
-434,-447,-7.43402,15.6273,0,0,0,0,0,0,0,-1,790,1471,-7.43404,-15.6274
-427,-447,-7.21832,14.691,0,0,0,0,0,0,0,-1,797,1471,-7.21834,-14.6911
-420,-447,-8.0545,12.8055,0,0,0,0,0,0,0,-1,804,1471,-8.05452,-12.8055
-413,-447,-4.27393,6.59705,0,0,0,0,0,0,0,-1,811,1471,-4.27392,-6.59707
-406,-447,-1.04279,6.18591,0,0,0,0,0,0,0,-1,818,1471,-1.04276,-6.18586
-399,-447,0.0134888,0.687622,0,0,0,0,0,0,0,-1,825,1471,0.0134841,-0.68767
-392,-447,-14.0646,3.76147,0,0,0,0,0,0,0,-1,832,1471,-14.0646,-3.7615
-385,-447,-15.1695,2.61865,0,0,0,0,0,0,0,-1,839,1471,-15.1695,-2.61871
-378,-447,-15.9424,1.49316,0,0,0,0,0,0,0,-1,846,1471,-15.9424,-1.49313
-371,-447,-17.3655,0.73291,0,0,0,0,0,0,0,-1,853,1471,-17.3655,-0.732946
-364,-447,0,0,0,0,0,0,0,0,0,-1,860,1471,0,0
-357,-447,0,0,0,0,0,0,0,0,0,-1,867,1471,0,0
-350,-447,0,0,0,0,0,0,0,0,0,-1,874,1471,0,0
-343,-447,0,0,0,0,0,0,0,0,0,-1,881,1471,0,0
-336,-447,0,0,0,0,0,0,0,0,0,-1,888,1471,0,0
-329,-447,0,0,0,0,0,0,0,0,0,-1,895,1471,0,0
-322,-447,0,0,0,0,0,0,0,0,0,-1,902,1471,0,0
-315,-447,0,0,0,0,0,0,0,0,0,-1,909,1471,0,0
-308,-447,0,0,0,0,0,0,0,0,0,-1,916,1471,0,0
-301,-447,0,0,0,0,0,0,0,0,0,-1,923,1471,0,0
-294,-447,0,0,0,0,0,0,0,0,0,-1,930,1471,0,0
-287,-447,0,0,0,0,0,0,0,0,0,-1,937,1471,0,0
-280,-447,0,0,0,0,0,0,0,0,0,-1,944,1471,0,0
-273,-447,0,0,0,0,0,0,0,0,0,-1,951,1471,0,0
-266,-447,0,0,0,0,0,0,0,0,0,-1,958,1471,0,0
-259,-447,0,0,0,0,0,0,0,0,0,-1,965,1471,0,0
-252,-447,0,0,0,0,0,0,0,0,0,-1,972,1471,0,0
-245,-447,0,0,0,0,0,0,0,0,0,-1,979,1471,0,0
-238,-447,0,0,0,0,0,0,0,0,0,-1,986,1471,0,0
-231,-447,0,0,0,0,0,0,0,0,0,-1,993,1471,0,0
-224,-447,0,0,0,0,0,0,0,0,0,-1,1000,1471,0,0
-217,-447,0,0,0,0,0,0,0,0,0,-1,1007,1471,0,0
-210,-447,0,0,0,0,0,0,0,0,0,-1,1014,1471,0,0
-203,-447,0,0,0,0,0,0,0,0,0,-1,1021,1471,0,0
-196,-447,0,0,0,0,0,0,0,0,0,-1,1028,1471,0,0
-189,-447,0,0,0,0,0,0,0,0,0,-1,1035,1471,0,0
-182,-447,0,0,0,0,0,0,0,0,0,-1,1042,1471,0,0
-175,-447,0,0,0,0,0,0,0,0,0,-1,1049,1471,0,0
-168,-447,0,0,0,0,0,0,0,0,0,-1,1056,1471,0,0
-161,-447,0,0,0,0,0,0,0,0,0,-1,1063,1471,0,0
-154,-447,0,0,0,0,0,0,0,0,0,-1,1070,1471,0,0
-147,-447,0,0,0,0,0,0,0,0,0,-1,1077,1471,0,0
-140,-447,0,0,0,0,0,0,0,0,0,-1,1084,1471,0,0
-133,-447,0,0,0,0,0,0,0,0,0,-1,1091,1471,0,0
-126,-447,0,0,0,0,0,0,0,0,0,-1,1098,1471,0,0
-119,-447,0,0,0,0,0,0,0,0,0,-1,1105,1471,0,0
-112,-447,0,0,0,0,0,0,0,0,0,-1,1112,1471,0,0
-105,-447,0,0,0,0,0,0,0,0,0,-1,1119,1471,0,0
-98,-447,0,0,0,0,0,0,0,0,0,-1,1126,1471,0,0
-91,-447,0,0,0,0,0,0,0,0,0,-1,1133,1471,0,0
-84,-447,0,0,0,0,0,0,0,0,0,-1,1140,1471,0,0
-77,-447,0,0,0,0,0,0,0,0,0,-1,1147,1471,0,0
-70,-447,0,0,0,0,0,0,0,0,0,-1,1154,1471,0,0
-63,-447,0,0,0,0,0,0,0,0,0,-1,1161,1471,0,0
-56,-447,0,0,0,0,0,0,0,0,0,-1,1168,1471,0,0
-49,-447,0,0,0,0,0,0,0,0,0,-1,1175,1471,0,0
-42,-447,0,0,0,0,0,0,0,0,0,-1,1182,1471,0,0
-35,-447,0,0,0,0,0,0,0,0,0,-1,1189,1471,0,0
-28,-447,0,0,0,0,0,0,0,0,0,-1,1196,1471,0,0
-21,-447,0,0,0,0,0,0,0,0,0,-1,1203,1471,0,0
-14,-447,0,0,0,0,0,0,0,0,0,-1,1210,1471,0,0
-7,-447,0,0,0,0,0,0,0,0,0,-1,1217,1471,0,0
0,-447,0,0,0,0,0,0,0,0,0,-1,1224,1471,0,0
7,-447,0,0,0,0,0,0,0,0,0,-1,1231,1471,0,0
14,-447,0,0,0,0,0,0,0,0,0,-1,1238,1471,0,0
21,-447,0,0,0,0,0,0,0,0,0,-1,1245,1471,0,0
28,-447,0,0,0,0,0,0,0,0,0,-1,1252,1471,0,0
35,-447,0,0,0,0,0,0,0,0,0,-1,1259,1471,0,0
42,-447,0,0,0,0,0,0,0,0,0,-1,1266,1471,0,0
49,-447,0,0,0,0,0,0,0,0,0,-1,1273,1471,0,0
56,-447,0,0,0,0,0,0,0,0,0,-1,1280,1471,0,0
63,-447,0,0,0,0,0,0,0,0,0,-1,1287,1471,0,0
70,-447,0,0,0,0,0,0,0,0,0,-1,1294,1471,0,0
77,-447,0,0,0,0,0,0,0,0,0,-1,1301,1471,0,0
84,-447,0,0,0,0,0,0,0,0,0,-1,1308,1471,0,0
91,-447,0,0,0,0,0,0,0,0,0,-1,1315,1471,0,0
98,-447,0,0,0,0,0,0,0,0,0,-1,1322,1471,0,0
105,-447,0,0,0,0,0,0,0,0,0,-1,1329,1471,0,0
112,-447,0,0,0,0,0,0,0,0,0,-1,1336,1471,0,0
119,-447,0,0,0,0,0,0,0,0,0,-1,1343,1471,0,0
126,-447,0,0,0,0,0,0,0,0,0,-1,1350,1471,0,0
133,-447,0,0,0,0,0,0,0,0,0,-1,1357,1471,0,0
140,-447,0,0,0,0,0,0,0,0,0,-1,1364,1471,0,0
147,-447,0,0,0,0,0,0,0,0,0,-1,1371,1471,0,0
154,-447,0,0,0,0,0,0,0,0,0,-1,1378,1471,0,0
161,-447,0,0,0,0,0,0,0,0,0,-1,1385,1471,0,0
168,-447,0,0,0,0,0,0,0,0,0,-1,1392,1471,0,0
175,-447,0,0,0,0,0,0,0,0,0,-1,1399,1471,0,0
182,-447,0,0,0,0,0,0,0,0,0,-1,1406,1471,0,0
189,-447,0,0,0,0,0,0,0,0,0,-1,1413,1471,0,0
196,-447,0,0,0,0,0,0,0,0,0,-1,1420,1471,0,0
203,-447,0,0,0,0,0,0,0,0,0,-1,1427,1471,0,0
210,-447,0,0,0,0,0,0,0,0,0,-1,1434,1471,0,0
217,-447,0,0,0,0,0,0,0,0,0,-1,1441,1471,0,0
224,-447,0,0,0,0,0,0,0,0,0,-1,1448,1471,0,0
231,-447,0,0,0,0,0,0,0,0,0,-1,1455,1471,0,0
238,-447,0,0,0,0,0,0,0,0,0,-1,1462,1471,0,0
245,-447,0,0,0,0,0,0,0,0,0,-1,1469,1471,0,0
252,-447,0,0,0,0,0,0,0,0,0,-1,1476,1471,0,0
259,-447,0,0,0,0,0,0,0,0,0,-1,1483,1471,0,0
266,-447,0,0,0,0,0,0,0,0,0,-1,1490,1471,0,0
273,-447,0,0,0,0,0,0,0,0,0,-1,1497,1471,0,0
280,-447,0,0,0,0,0,0,0,0,0,-1,1504,1471,0,0
287,-447,0,0,0,0,0,0,0,0,0,-1,1511,1471,0,0
294,-447,0,0,0,0,0,0,0,0,0,-1,1518,1471,0,0
301,-447,0,0,0,0,0,0,0,0,0,-1,1525,1471,0,0
308,-447,0,0,0,0,0,0,0,0,0,-1,1532,1471,0,0
315,-447,0,0,0,0,0,0,0,0,0,-1,1539,1471,0,0
322,-447,0,0,0,0,0,0,0,0,0,-1,1546,1471,0,0
329,-447,0,0,0,0,0,0,0,0,0,-1,1553,1471,0,0
336,-447,0,0,0,0,0,0,0,0,0,-1,1560,1471,0,0
343,-447,0,0,0,0,0,0,0,0,0,-1,1567,1471,0,0
350,-447,0,0,0,0,0,0,0,0,0,-1,1574,1471,0,0
357,-447,0,0,0,0,0,0,0,0,0,-1,1581,1471,0,0
364,-447,0,0,0,0,0,0,0,0,0,-1,1588,1471,0,0
371,-447,0,0,0,0,0,0,0,0,0,-1,1595,1471,0,0
378,-447,0,0,0,0,0,0,0,0,0,-1,1602,1471,0,0
385,-447,0,0,0,0,0,0,0,0,0,-1,1609,1471,0,0
392,-447,0,0,0,0,0,0,0,0,0,-1,1616,1471,0,0
399,-447,0,0,0,0,0,0,0,0,0,-1,1623,1471,0,0
406,-447,0,0,0,0,0,0,0,0,0,-1,1630,1471,0,0
413,-447,0,0,0,0,0,0,0,0,0,-1,1637,1471,0,0
420,-447,0,0,0,0,0,0,0,0,0,-1,1644,1471,0,0
427,-447,0,0,0,0,0,0,0,0,0,-1,1651,1471,0,0
434,-447,0,0,0,0,0,0,0,0,0,-1,1658,1471,0,0
441,-447,0,0,0,0,0,0,0,0,0,-1,1665,1471,0,0
448,-447,0,0,0,0,0,0,0,0,0,-1,1672,1471,0,0
455,-447,0,0,0,0,0,0,0,0,0,-1,1679,1471,0,0
462,-447,0,0,0,0,0,0,0,0,0,-1,1686,1471,0,0
469,-447,0,0,0,0,0,0,0,0,0,-1,1693,1471,0,0
476,-447,0,0,0,0,0,0,0,0,0,-1,1700,1471,0,0
483,-447,0,0,0,0,0,0,0,0,0,-1,1707,1471,0,0
490,-447,18.2214,-0.810303,0,0,0,0,0,0,0,-1,1714,1471,18.2215,0.810307
497,-447,17.0237,0.352417,0,0,0,0,0,0,0,-1,1721,1471,17.0237,-0.352442
504,-447,15.8998,1.53479,0,0,0,0,0,0,0,-1,1728,1471,15.8997,-1.53478
511,-447,14.7201,2.76111,0,0,0,0,0,0,0,-1,1735,1471,14.7201,-2.76107
518,-447,17.7618,13.2864,0,0,0,0,0,0,0,-1,1742,1471,17.7619,-13.2863
525,-447,17.1191,11.9014,0,0,0,0,0,0,0,-1,1749,1471,17.1191,-11.9013
532,-447,16.3959,10.0455,0,0,0,0,0,0,0,-1,1756,1471,16.3959,-10.0456
539,-447,14.1699,10.0204,0,0,0,0,0,0,0,-1,1763,1471,14.1699,-10.0204
546,-447,16.3715,11.8046,0,0,0,0,0,0,0,-1,1770,1471,16.3714,-11.8046
553,-447,17.5106,13.4012,0,0,0,0,0,0,0,-1,1777,1471,17.5107,-13.4012
560,-447,17.0187,13.168,0,0,0,0,0,0,0,-1,1784,1471,17.0187,-13.168
567,-447,18.9286,15.1703,0,0,0,0,0,0,0,-1,1791,1471,18.9286,-15.1703
574,-447,32.1848,27.6504,0,0,0,0,0,0,0,-1,1798,1471,32.1848,-27.6503
581,-447,36.5962,31.6534,0,0,0,0,0,0,0,-1,1805,1471,36.5962,-31.6534
588,-447,36.6241,30.541,0.0069233,0.00289121,-0.00361269,0.0090444,0.000770107,-0.530898,0.00578999,0.0428439,1812,1471,36.6242,-30.541
595,-447,36.6191,29.6017,0.00512975,0.00230176,-0.00287335,0.00691818,0.000513333,-0.556742,0.00445088,0.015128,1819,1471,36.6192,-29.6017
602,-447,36.5598,28.701,0.00380751,0.00158984,-0.0020753,0.00505163,0.000345723,-0.540044,0.00325863,0.0124859,1826,1471,36.5598,-28.701
609,-447,36.5012,27.8165,0.00281939,0.0010137,-0.00138367,0.00356871,0.000264378,-0.496333,0.0022961,0.0138773,1833,1471,36.5012,-27.8165
616,-447,36.4613,26.9404,0.00200963,0.000436248,-0.000727508,0.00229446,0.000151421,-0.373166,0.00148175,0.0166261,1840,1471,36.4613,-26.9404
623,-447,36.4357,26.0753,0.0015786,5.94441e-06,-0.000226441,0.00161055,-2.60108e-05,-0.140193,0.00108247,0.0182166,1847,1471,36.4356,-26.0753
630,-447,36.3707,25.1984,0.00147636,-0.000510374,0.000208932,0.0014981,-0.000532108,0.103653,0.00121556,0.0101363,1854,1471,36.3708,-25.1983
637,-447,36.3464,24.3229,0.00154893,-0.000949455,0.000575319,0.00167504,-0.00107557,0.215798,0.00160059,0.0105283,1861,1471,36.3464,-24.3229
644,-447,36.3212,23.4409,0.001867,-0.00127339,0.0007705,0.00204586,-0.00145225,0.228091,0.0020293,0.0137136,1868,1471,36.3212,-23.4409
651,-447,36.436,22.3231,0,0,0,0,0,0,0,-1,1875,1471,36.4361,-22.3231
658,-447,30.2566,16.5862,0,0,0,0,0,0,0,-1,1882,1471,30.2566,-16.5862
665,-447,18.4946,9.79919,0,0,0,0,0,0,0,-1,1889,1471,18.4946,-9.79922
672,-447,18.9784,9.66077,0,0,0,0,0,0,0,-1,1896,1471,18.9784,-9.66081
679,-447,14.844,7.4248,0,0,0,0,0,0,0,-1,1903,1471,14.844,-7.42477
686,-447,9.81079,4.30859,0,0,0,0,0,0,0,-1,1910,1471,9.8108,-4.30864
693,-447,10.48,2.08643,0,0,0,0,0,0,0,-1,1917,1471,10.48,-2.08642
700,-447,0,0,0,0,0,0,0,0,0,-1,1924,1471,0,0
707,-447,0,0,0,0,0,0,0,0,0,-1,1931,1471,0,0
714,-447,0,0,0,0,0,0,0,0,0,-1,1938,1471,0,0
721,-447,0,0,0,0,0,0,0,0,0,-1,1945,1471,0,0
728,-447,0,0,0,0,0,0,0,0,0,-1,1952,1471,0,0
735,-447,0,0,0,0,0,0,0,0,0,-1,1959,1471,0,0
742,-447,0,0,0,0,0,0,0,0,0,-1,1966,1471,0,0
749,-447,0,0,0,0,0,0,0,0,0,-1,1973,1471,0,0
756,-447,0,0,0,0,0,0,0,0,0,-1,1980,1471,0,0
763,-447,0,0,0,0,0,0,0,0,0,-1,1987,1471,0,0
770,-447,0,0,0,0,0,0,0,0,0,-1,1994,1471,0,0
777,-447,0,0,0,0,0,0,0,0,0,-1,2001,1471,0,0
784,-447,0,0,0,0,0,0,0,0,0,-1,2008,1471,0,0
791,-447,0,0,0,0,0,0,0,0,0,-1,2015,1471,0,0
798,-447,0,0,0,0,0,0,0,0,0,-1,2022,1471,0,0
805,-447,0,0,0,0,0,0,0,0,0,-1,2029,1471,0,0
812,-447,0,0,0,0,0,0,0,0,0,-1,2036,1471,0,0
-700,-454,0,0,0,0,0,0,0,0,0,-1,524,1478,0,0
-693,-454,0,0,0,0,0,0,0,0,0,-1,531,1478,0,0
-686,-454,0,0,0,0,0,0,0,0,0,-1,538,1478,0,0
-679,-454,0,0,0,0,0,0,0,0,0,-1,545,1478,0,0
-672,-454,0,0,0,0,0,0,0,0,0,-1,552,1478,0,0
-665,-454,0,0,0,0,0,0,0,0,0,-1,559,1478,0,0
-658,-454,0,0,0,0,0,0,0,0,0,-1,566,1478,0,0
-651,-454,0,0,0,0,0,0,0,0,0,-1,573,1478,0,0
-644,-454,0,0,0,0,0,0,0,0,0,-1,580,1478,0,0
-637,-454,0,0,0,0,0,0,0,0,0,-1,587,1478,0,0
-630,-454,0,0,0,0,0,0,0,0,0,-1,594,1478,0,0
-623,-454,0,0,0,0,0,0,0,0,0,-1,601,1478,0,0
-616,-454,0,0,0,0,0,0,0,0,0,-1,608,1478,0,0
-609,-454,0,0,0,0,0,0,0,0,0,-1,615,1478,0,0
-602,-454,0,0,0,0,0,0,0,0,0,-1,622,1478,0,0
-595,-454,0,0,0,0,0,0,0,0,0,-1,629,1478,0,0
-588,-454,0,0,0,0,0,0,0,0,0,-1,636,1478,0,0
-581,-454,0,0,0,0,0,0,0,0,0,-1,643,1478,0,0
-574,-454,-8.4881,-0.465942,0,0,0,0,0,0,0,-1,650,1478,-8.4881,0.465885
-567,-454,-8.10046,0.922974,0,0,0,0,0,0,0,-1,657,1478,-8.10047,-0.923034
-560,-454,-10.656,3.51172,0,0,0,0,0,0,0,-1,664,1478,-10.656,-3.51176
-553,-454,-9.01129,3.95251,0,0,0,0,0,0,0,-1,671,1478,-9.0113,-3.95256
-546,-454,-9.61896,6.05237,0,0,0,0,0,0,0,-1,678,1478,-9.61897,-6.05239
-539,-454,-7.72589,4.96533,0,0,0,0,0,0,0,-1,685,1478,-7.72592,-4.96532
-532,-454,-7.03931,7.59985,0,0,0,0,0,0,0,-1,692,1478,-7.03929,-7.59981
-525,-454,-5.78723,9.677,0,0,0,0,0,0,0,-1,699,1478,-5.78722,-9.67703
-518,-454,-9.82098,13.8295,0,0,0,0,0,0,0,-1,706,1478,-9.82098,-13.8295
-511,-454,-18.066,23.8944,0,0,0,0,0,0,0,-1,713,1478,-18.066,-23.8944
-504,-454,-17.9987,24.8708,0.00273427,0.00509165,0.00432938,0.00839993,-0.000574004,0.918303,0.00580076,0.0241266,720,1478,-17.9987,-24.8709
-497,-454,-18.1053,25.8149,0.00226155,0.0037354,0.00321803,0.0062998,-0.000302852,0.897957,0.00430437,0.0206949,727,1478,-18.1053,-25.8149
-490,-454,-18.1315,26.6978,0.00190307,0.00264191,0.0023337,0.00463525,-9.02638e-05,0.863896,0.00312069,0.0184413,734,1478,-18.1315,-26.6977
-483,-454,-18.1714,27.6007,0.00164552,0.00179344,0.00163652,0.00335767,8.12861e-05,0.80798,0.00221185,0.016547,741,1478,-18.1714,-27.6007
-476,-454,-18.2291,28.4711,0.00148134,0.00122912,0.00114887,0.002511,0.00019946,0.730732,0.00161163,0.0146235,748,1478,-18.2291,-28.471
-469,-454,-18.2667,29.3612,0.00142406,0.000988611,0.000862735,0.00209612,0.000316551,0.661797,0.00130476,0.010728,755,1478,-18.2667,-29.3612
-462,-454,-18.3312,30.2881,0.00154696,0.00104414,0.000819243,0.0021525,0.000438597,0.63652,0.00131344,0.0114331,762,1478,-18.3313,-30.2881
-455,-454,-18.3958,31.179,0.00184163,0.00142683,0.00104046,0.00269516,0.000573298,0.687022,0.00163944,0.0140373,769,1478,-18.3958,-31.179
-448,-454,-18.3881,32.1134,0.00224883,0.00215925,0.00151958,0.00372428,0.000683804,0.770665,0.00228922,0.0274266,776,1478,-18.388,-32.1134
-441,-454,-18.2182,33.1825,0,0,0,0,0,0,0,-1,783,1478,-18.2182,-33.1825
-434,-454,-7.55743,19.4857,0,0,0,0,0,0,0,-1,790,1478,-7.55746,-19.4858
-427,-454,-6.00183,15.8636,0,0,0,0,0,0,0,-1,797,1478,-6.00184,-15.8637
-420,-454,-6.28088,15.2135,0,0,0,0,0,0,0,-1,804,1478,-6.28087,-15.2135
-413,-454,-5.4408,13.674,0,0,0,0,0,0,0,-1,811,1478,-5.44079,-13.6739
-406,-454,-2.38208,10.0308,0,0,0,0,0,0,0,-1,818,1478,-2.38209,-10.0308
-399,-454,-1.21033,6.95447,0,0,0,0,0,0,0,-1,825,1478,-1.21035,-6.95452
-392,-454,0.0967407,0.985474,0,0,0,0,0,0,0,-1,832,1478,0.0967364,-0.985529
-385,-454,2.38629,3.297,0,0,0,0,0,0,0,-1,839,1478,2.38629,-3.29702
-378,-454,-15.9756,2.83997,0,0,0,0,0,0,0,-1,846,1478,-15.9756,-2.83994
-371,-454,-17.2753,2.01453,0,0,0,0,0,0,0,-1,853,1478,-17.2753,-2.01455
-364,-454,1.08124,0.819458,0,0,0,0,0,0,0,-1,860,1478,1.08124,-0.819513
-357,-454,0,0,0,0,0,0,0,0,0,-1,867,1478,0,0
-350,-454,0,0,0,0,0,0,0,0,0,-1,874,1478,0,0
-343,-454,0,0,0,0,0,0,0,0,0,-1,881,1478,0,0
-336,-454,0,0,0,0,0,0,0,0,0,-1,888,1478,0,0
-329,-454,0,0,0,0,0,0,0,0,0,-1,895,1478,0,0
-322,-454,0,0,0,0,0,0,0,0,0,-1,902,1478,0,0
-315,-454,0,0,0,0,0,0,0,0,0,-1,909,1478,0,0
-308,-454,0,0,0,0,0,0,0,0,0,-1,916,1478,0,0
-301,-454,0,0,0,0,0,0,0,0,0,-1,923,1478,0,0
-294,-454,0,0,0,0,0,0,0,0,0,-1,930,1478,0,0
-287,-454,0,0,0,0,0,0,0,0,0,-1,937,1478,0,0
-280,-454,0,0,0,0,0,0,0,0,0,-1,944,1478,0,0
-273,-454,0,0,0,0,0,0,0,0,0,-1,951,1478,0,0
-266,-454,0,0,0,0,0,0,0,0,0,-1,958,1478,0,0
-259,-454,0,0,0,0,0,0,0,0,0,-1,965,1478,0,0
-252,-454,0,0,0,0,0,0,0,0,0,-1,972,1478,0,0
-245,-454,0,0,0,0,0,0,0,0,0,-1,979,1478,0,0
-238,-454,0,0,0,0,0,0,0,0,0,-1,986,1478,0,0
-231,-454,0,0,0,0,0,0,0,0,0,-1,993,1478,0,0
-224,-454,0,0,0,0,0,0,0,0,0,-1,1000,1478,0,0
-217,-454,0,0,0,0,0,0,0,0,0,-1,1007,1478,0,0
-210,-454,0,0,0,0,0,0,0,0,0,-1,1014,1478,0,0
-203,-454,0,0,0,0,0,0,0,0,0,-1,1021,1478,0,0
-196,-454,0,0,0,0,0,0,0,0,0,-1,1028,1478,0,0
-189,-454,0,0,0,0,0,0,0,0,0,-1,1035,1478,0,0
-182,-454,0,0,0,0,0,0,0,0,0,-1,1042,1478,0,0
-175,-454,0,0,0,0,0,0,0,0,0,-1,1049,1478,0,0
-168,-454,0,0,0,0,0,0,0,0,0,-1,1056,1478,0,0
-161,-454,0,0,0,0,0,0,0,0,0,-1,1063,1478,0,0
-154,-454,0,0,0,0,0,0,0,0,0,-1,1070,1478,0,0
-147,-454,0,0,0,0,0,0,0,0,0,-1,1077,1478,0,0
-140,-454,0,0,0,0,0,0,0,0,0,-1,1084,1478,0,0
-133,-454,0,0,0,0,0,0,0,0,0,-1,1091,1478,0,0
-126,-454,0,0,0,0,0,0,0,0,0,-1,1098,1478,0,0
-119,-454,0,0,0,0,0,0,0,0,0,-1,1105,1478,0,0
-112,-454,0,0,0,0,0,0,0,0,0,-1,1112,1478,0,0
-105,-454,0,0,0,0,0,0,0,0,0,-1,1119,1478,0,0
-98,-454,0,0,0,0,0,0,0,0,0,-1,1126,1478,0,0
-91,-454,0,0,0,0,0,0,0,0,0,-1,1133,1478,0,0
-84,-454,0,0,0,0,0,0,0,0,0,-1,1140,1478,0,0
-77,-454,0,0,0,0,0,0,0,0,0,-1,1147,1478,0,0
-70,-454,0,0,0,0,0,0,0,0,0,-1,1154,1478,0,0
-63,-454,0,0,0,0,0,0,0,0,0,-1,1161,1478,0,0
-56,-454,0,0,0,0,0,0,0,0,0,-1,1168,1478,0,0
-49,-454,0,0,0,0,0,0,0,0,0,-1,1175,1478,0,0
-42,-454,0,0,0,0,0,0,0,0,0,-1,1182,1478,0,0
-35,-454,0,0,0,0,0,0,0,0,0,-1,1189,1478,0,0
-28,-454,0,0,0,0,0,0,0,0,0,-1,1196,1478,0,0
-21,-454,0,0,0,0,0,0,0,0,0,-1,1203,1478,0,0
-14,-454,0,0,0,0,0,0,0,0,0,-1,1210,1478,0,0
-7,-454,0,0,0,0,0,0,0,0,0,-1,1217,1478,0,0
0,-454,0,0,0,0,0,0,0,0,0,-1,1224,1478,0,0
7,-454,0,0,0,0,0,0,0,0,0,-1,1231,1478,0,0
14,-454,0,0,0,0,0,0,0,0,0,-1,1238,1478,0,0
21,-454,0,0,0,0,0,0,0,0,0,-1,1245,1478,0,0
28,-454,0,0,0,0,0,0,0,0,0,-1,1252,1478,0,0
35,-454,0,0,0,0,0,0,0,0,0,-1,1259,1478,0,0
42,-454,0,0,0,0,0,0,0,0,0,-1,1266,1478,0,0
49,-454,0,0,0,0,0,0,0,0,0,-1,1273,1478,0,0
56,-454,0,0,0,0,0,0,0,0,0,-1,1280,1478,0,0
63,-454,0,0,0,0,0,0,0,0,0,-1,1287,1478,0,0
70,-454,0,0,0,0,0,0,0,0,0,-1,1294,1478,0,0
77,-454,0,0,0,0,0,0,0,0,0,-1,1301,1478,0,0
84,-454,0,0,0,0,0,0,0,0,0,-1,1308,1478,0,0
91,-454,0,0,0,0,0,0,0,0,0,-1,1315,1478,0,0
98,-454,0,0,0,0,0,0,0,0,0,-1,1322,1478,0,0
105,-454,0,0,0,0,0,0,0,0,0,-1,1329,1478,0,0
112,-454,0,0,0,0,0,0,0,0,0,-1,1336,1478,0,0
119,-454,0,0,0,0,0,0,0,0,0,-1,1343,1478,0,0
126,-454,0,0,0,0,0,0,0,0,0,-1,1350,1478,0,0
133,-454,0,0,0,0,0,0,0,0,0,-1,1357,1478,0,0
140,-454,0,0,0,0,0,0,0,0,0,-1,1364,1478,0,0
147,-454,0,0,0,0,0,0,0,0,0,-1,1371,1478,0,0
154,-454,0,0,0,0,0,0,0,0,0,-1,1378,1478,0,0
161,-454,0,0,0,0,0,0,0,0,0,-1,1385,1478,0,0
168,-454,0,0,0,0,0,0,0,0,0,-1,1392,1478,0,0
175,-454,0,0,0,0,0,0,0,0,0,-1,1399,1478,0,0
182,-454,0,0,0,0,0,0,0,0,0,-1,1406,1478,0,0
189,-454,0,0,0,0,0,0,0,0,0,-1,1413,1478,0,0
196,-454,0,0,0,0,0,0,0,0,0,-1,1420,1478,0,0
203,-454,0,0,0,0,0,0,0,0,0,-1,1427,1478,0,0
210,-454,0,0,0,0,0,0,0,0,0,-1,1434,1478,0,0
217,-454,0,0,0,0,0,0,0,0,0,-1,1441,1478,0,0
224,-454,0,0,0,0,0,0,0,0,0,-1,1448,1478,0,0
231,-454,0,0,0,0,0,0,0,0,0,-1,1455,1478,0,0
238,-454,0,0,0,0,0,0,0,0,0,-1,1462,1478,0,0
245,-454,0,0,0,0,0,0,0,0,0,-1,1469,1478,0,0
252,-454,0,0,0,0,0,0,0,0,0,-1,1476,1478,0,0
259,-454,0,0,0,0,0,0,0,0,0,-1,1483,1478,0,0
266,-454,0,0,0,0,0,0,0,0,0,-1,1490,1478,0,0
273,-454,0,0,0,0,0,0,0,0,0,-1,1497,1478,0,0
280,-454,0,0,0,0,0,0,0,0,0,-1,1504,1478,0,0
287,-454,0,0,0,0,0,0,0,0,0,-1,1511,1478,0,0
294,-454,0,0,0,0,0,0,0,0,0,-1,1518,1478,0,0
301,-454,0,0,0,0,0,0,0,0,0,-1,1525,1478,0,0
308,-454,0,0,0,0,0,0,0,0,0,-1,1532,1478,0,0
315,-454,0,0,0,0,0,0,0,0,0,-1,1539,1478,0,0
322,-454,0,0,0,0,0,0,0,0,0,-1,1546,1478,0,0
329,-454,0,0,0,0,0,0,0,0,0,-1,1553,1478,0,0
336,-454,0,0,0,0,0,0,0,0,0,-1,1560,1478,0,0
343,-454,0,0,0,0,0,0,0,0,0,-1,1567,1478,0,0
350,-454,0,0,0,0,0,0,0,0,0,-1,1574,1478,0,0
357,-454,0,0,0,0,0,0,0,0,0,-1,1581,1478,0,0
364,-454,0,0,0,0,0,0,0,0,0,-1,1588,1478,0,0
371,-454,0,0,0,0,0,0,0,0,0,-1,1595,1478,0,0
378,-454,0,0,0,0,0,0,0,0,0,-1,1602,1478,0,0
385,-454,0,0,0,0,0,0,0,0,0,-1,1609,1478,0,0
392,-454,0,0,0,0,0,0,0,0,0,-1,1616,1478,0,0
399,-454,0,0,0,0,0,0,0,0,0,-1,1623,1478,0,0
406,-454,0,0,0,0,0,0,0,0,0,-1,1630,1478,0,0
413,-454,0,0,0,0,0,0,0,0,0,-1,1637,1478,0,0
420,-454,0,0,0,0,0,0,0,0,0,-1,1644,1478,0,0
427,-454,0,0,0,0,0,0,0,0,0,-1,1651,1478,0,0
434,-454,0,0,0,0,0,0,0,0,0,-1,1658,1478,0,0
441,-454,0,0,0,0,0,0,0,0,0,-1,1665,1478,0,0
448,-454,0,0,0,0,0,0,0,0,0,-1,1672,1478,0,0
455,-454,0,0,0,0,0,0,0,0,0,-1,1679,1478,0,0
462,-454,0,0,0,0,0,0,0,0,0,-1,1686,1478,0,0
469,-454,0,0,0,0,0,0,0,0,0,-1,1693,1478,0,0
476,-454,0,0,0,0,0,0,0,0,0,-1,1700,1478,0,0
483,-454,14.2399,3.97498,0,0,0,0,0,0,0,-1,1707,1478,14.2399,-3.97502
490,-454,18.1821,-0.175781,0,0,0,0,0,0,0,-1,1714,1478,18.1821,0.175822
497,-454,16.8854,1.01208,0,0,0,0,0,0,0,-1,1721,1478,16.8854,-1.01209
504,-454,15.587,2.05994,0,0,0,0,0,0,0,-1,1728,1478,15.5871,-2.05998
511,-454,17.0273,14.5258,0,0,0,0,0,0,0,-1,1735,1478,17.0273,-14.5258
518,-454,16.4158,13.1039,0,0,0,0,0,0,0,-1,1742,1478,16.4157,-13.1038
525,-454,15.7842,11.6628,0,0,0,0,0,0,0,-1,1749,1478,15.7841,-11.6629
532,-454,15.1094,10.2476,0,0,0,0,0,0,0,-1,1756,1478,15.1094,-10.2475
539,-454,13.7905,10.9373,0,0,0,0,0,0,0,-1,1763,1478,13.7906,-10.9372
546,-454,16.2002,13.2458,0,0,0,0,0,0,0,-1,1770,1478,16.2002,-13.2459
553,-454,15.6747,12.1868,0,0,0,0,0,0,0,-1,1777,1478,15.6747,-12.1868
560,-454,16.3895,14.0527,0,0,0,0,0,0,0,-1,1784,1478,16.3895,-14.0528
567,-454,36.0481,33.0751,0,0,0,0,0,0,0,-1,1791,1478,36.048,-33.0751
574,-454,35.7473,32.3615,0,0,0,0,0,0,0,-1,1798,1478,35.7473,-32.3614
581,-454,35.7959,31.4534,0.0081735,0.0031634,-0.00389755,0.0103016,0.00103529,-0.499777,0.00654998,0.0370768,1805,1478,35.7959,-31.4534
588,-454,35.8521,30.5094,0.00617811,0.00251137,-0.00310839,0.00795352,0.00073596,-0.51895,0.00507485,0.0160313,1812,1478,35.8521,-30.5094
595,-454,35.748,29.6423,0.00461125,0.00188236,-0.00239438,0.00600267,0.000490944,-0.526419,0.00384858,0.0126932,1819,1478,35.7481,-29.6423
602,-454,35.6888,28.7557,0.0034089,0.00122561,-0.00168937,0.00432864,0.000305872,-0.498553,0.0027894,0.00913605,1826,1478,35.6888,-28.7557
609,-454,35.6608,27.8848,0.00250862,0.000700314,-0.00104389,0.00298548,0.000223456,-0.428503,0.00192017,0.0118054,1833,1478,35.6607,-27.8848
616,-454,35.6223,27.0254,0.00176695,0.000154952,-0.000399319,0.00186045,6.14565e-05,-0.229994,0.00122033,0.0153936,1840,1478,35.6223,-27.0254
623,-454,35.5903,26.1619,0.00137036,-0.000307249,0.000154523,0.00138447,-0.000321363,0.0910877,0.00104668,0.0166523,1847,1478,35.5903,-26.1618
630,-454,35.5565,25.2869,0.0012362,-0.000861972,0.000723081,0.00146125,-0.00108702,0.301737,0.00147653,0.0161918,1854,1478,35.5565,-25.2869
637,-454,35.4474,24.4143,0.00125189,-0.00136169,0.00126939,0.00176692,-0.00187672,0.38544,0.00210398,0.0136702,1861,1478,35.4473,-24.4143
644,-454,35.4939,23.4958,0.0014571,-0.00177451,0.00171132,0.00219489,-0.0025123,0.407049,0.00271976,0.0330864,1868,1478,35.4938,-23.4958
651,-454,35.5844,22.5104,0,0,0,0,0,0,0,-1,1875,1478,35.5843,-22.5104
658,-454,17.2583,10.0765,0,0,0,0,0,0,0,-1,1882,1478,17.2583,-10.0765
665,-454,17.683,9.67566,0,0,0,0,0,0,0,-1,1889,1478,17.683,-9.67572
672,-454,16.5476,6.41931,0,0,0,0,0,0,0,-1,1896,1478,16.5476,-6.41929
679,-454,14.2161,5.45007,0,0,0,0,0,0,0,-1,1903,1478,14.2161,-5.45013
686,-454,10.3767,2.12842,0,0,0,0,0,0,0,-1,1910,1478,10.3767,-2.12839
693,-454,11.1857,1.48486,0,0,0,0,0,0,0,-1,1917,1478,11.1857,-1.48487
700,-454,0,0,0,0,0,0,0,0,0,-1,1924,1478,0,0
707,-454,0,0,0,0,0,0,0,0,0,-1,1931,1478,0,0
714,-454,0,0,0,0,0,0,0,0,0,-1,1938,1478,0,0
721,-454,0,0,0,0,0,0,0,0,0,-1,1945,1478,0,0
728,-454,0,0,0,0,0,0,0,0,0,-1,1952,1478,0,0
735,-454,0,0,0,0,0,0,0,0,0,-1,1959,1478,0,0
742,-454,0,0,0,0,0,0,0,0,0,-1,1966,1478,0,0
749,-454,0,0,0,0,0,0,0,0,0,-1,1973,1478,0,0
756,-454,0,0,0,0,0,0,0,0,0,-1,1980,1478,0,0
763,-454,0,0,0,0,0,0,0,0,0,-1,1987,1478,0,0
770,-454,0,0,0,0,0,0,0,0,0,-1,1994,1478,0,0
777,-454,0,0,0,0,0,0,0,0,0,-1,2001,1478,0,0
784,-454,0,0,0,0,0,0,0,0,0,-1,2008,1478,0,0
791,-454,0,0,0,0,0,0,0,0,0,-1,2015,1478,0,0
798,-454,0,0,0,0,0,0,0,0,0,-1,2022,1478,0,0
805,-454,0,0,0,0,0,0,0,0,0,-1,2029,1478,0,0
812,-454,0,0,0,0,0,0,0,0,0,-1,2036,1478,0,0
-700,-461,0,0,0,0,0,0,0,0,0,-1,524,1485,0,0
-693,-461,0,0,0,0,0,0,0,0,0,-1,531,1485,0,0
-686,-461,0,0,0,0,0,0,0,0,0,-1,538,1485,0,0
-679,-461,0,0,0,0,0,0,0,0,0,-1,545,1485,0,0
-672,-461,0,0,0,0,0,0,0,0,0,-1,552,1485,0,0
-665,-461,0,0,0,0,0,0,0,0,0,-1,559,1485,0,0
-658,-461,0,0,0,0,0,0,0,0,0,-1,566,1485,0,0
-651,-461,0,0,0,0,0,0,0,0,0,-1,573,1485,0,0
-644,-461,0,0,0,0,0,0,0,0,0,-1,580,1485,0,0
-637,-461,0,0,0,0,0,0,0,0,0,-1,587,1485,0,0
-630,-461,0,0,0,0,0,0,0,0,0,-1,594,1485,0,0
-623,-461,0,0,0,0,0,0,0,0,0,-1,601,1485,0,0
-616,-461,0,0,0,0,0,0,0,0,0,-1,608,1485,0,0
-609,-461,0,0,0,0,0,0,0,0,0,-1,615,1485,0,0
-602,-461,0,0,0,0,0,0,0,0,0,-1,622,1485,0,0
-595,-461,0,0,0,0,0,0,0,0,0,-1,629,1485,0,0
-588,-461,0,0,0,0,0,0,0,0,0,-1,636,1485,0,0
-581,-461,0,0,0,0,0,0,0,0,0,-1,643,1485,0,0
-574,-461,0,0,0,0,0,0,0,0,0,-1,650,1485,0,0
-567,-461,-9.69031,0.513306,0,0,0,0,0,0,0,-1,657,1485,-9.69032,-0.513305
-560,-461,-7.28815,1.54004,0,0,0,0,0,0,0,-1,664,1485,-7.28817,-1.54005
-553,-461,-11.9607,5.27783,0,0,0,0,0,0,0,-1,671,1485,-11.9607,-5.27778
-546,-461,-11.4215,4.44666,0,0,0,0,0,0,0,-1,678,1485,-11.4215,-4.4467
-539,-461,-9.36493,5.23438,0,0,0,0,0,0,0,-1,685,1485,-9.3649,-5.23432
-532,-461,-7.82898,6.78357,0,0,0,0,0,0,0,-1,692,1485,-7.829,-6.78363
-525,-461,-6.37878,8.75659,0,0,0,0,0,0,0,-1,699,1485,-6.3788,-8.75659
-518,-461,-6.49695,10.886,0,0,0,0,0,0,0,-1,706,1485,-6.49696,-10.8859
-511,-461,-15.8618,21.5214,0,0,0,0,0,0,0,-1,713,1485,-15.8617,-21.5213
-504,-461,-17.1406,24.8523,0,0,0,0,0,0,0,-1,720,1485,-17.1405,-24.8523
-497,-461,-17.157,25.8636,0.00278013,0.00463315,0.00402418,0.00783609,-0.000422817,0.898544,0.00537055,0.012215,727,1485,-17.1571,-25.8637
-490,-461,-17.2118,26.7571,0.0023235,0.00334042,0.00299108,0.00586595,-0.000202029,0.869589,0.00397969,0.0125705,734,1485,-17.2118,-26.7571
-483,-461,-17.268,27.6584,0.00194466,0.00229143,0.00213078,0.00425587,-1.97797e-05,0.825995,0.00284386,0.0120546,741,1485,-17.268,-27.6585
-476,-461,-17.3459,28.5396,0.00169938,0.00159562,0.00153438,0.00318276,0.000112243,0.768497,0.00208543,0.0111024,748,1485,-17.3459,-28.5395
-469,-461,-17.3905,29.4307,0.00156643,0.00124496,0.00115711,0.00257392,0.00023747,0.716386,0.00164252,0.0131689,755,1485,-17.3905,-29.4307
-462,-461,-17.4288,30.3232,0.00160553,0.00119789,0.00101934,0.00244123,0.000362192,0.686721,0.0015212,0.0196758,762,1485,-17.4289,-30.3232
-455,-461,-17.501,31.2128,0.00181075,0.0014784,0.00113784,0.00279448,0.000494667,0.712888,0.00172195,0.0264552,769,1485,-17.501,-31.2128
-448,-461,-17.5389,32.1609,0.00216164,0.00208418,0.00149489,0.0036183,0.000627518,0.772446,0.00223262,0.0230088,776,1485,-17.5389,-32.1609
-441,-461,-17.5187,32.9954,0,0,0,0,0,0,0,-1,783,1485,-17.5187,-32.9954
-434,-461,-17.2761,34.2042,0,0,0,0,0,0,0,-1,790,1485,-17.2761,-34.2042
-427,-461,-8.26154,21.546,0,0,0,0,0,0,0,-1,797,1485,-8.26153,-21.5461
-420,-461,-5.70355,16.6116,0,0,0,0,0,0,0,-1,804,1485,-5.70353,-16.6115
-413,-461,-5.98798,16.0605,0,0,0,0,0,0,0,-1,811,1485,-5.98796,-16.0605
-406,-461,-5.52667,14.839,0,0,0,0,0,0,0,-1,818,1485,-5.52666,-14.839
-399,-461,-1.93439,9.82849,0,0,0,0,0,0,0,-1,825,1485,-1.9344,-9.82846
-392,-461,-0.357544,5.55225,0,0,0,0,0,0,0,-1,832,1485,-0.357536,-5.55228
-385,-461,1.71509,3.35254,0,0,0,0,0,0,0,-1,839,1485,1.71511,-3.35255
-378,-461,1.95996,3.01111,0,0,0,0,0,0,0,-1,846,1485,1.95993,-3.01111
-371,-461,0.702881,2.33459,0,0,0,0,0,0,0,-1,853,1485,0.702859,-2.33459
-364,-461,-1.93097,2.56458,0,0,0,0,0,0,0,-1,860,1485,-1.93095,-2.56456
-357,-461,-2.41516,3.49487,0,0,0,0,0,0,0,-1,867,1485,-2.41517,-3.49487
-350,-461,0,0,0,0,0,0,0,0,0,-1,874,1485,0,0
-343,-461,0,0,0,0,0,0,0,0,0,-1,881,1485,0,0
-336,-461,0,0,0,0,0,0,0,0,0,-1,888,1485,0,0
-329,-461,0,0,0,0,0,0,0,0,0,-1,895,1485,0,0
-322,-461,0,0,0,0,0,0,0,0,0,-1,902,1485,0,0
-315,-461,0,0,0,0,0,0,0,0,0,-1,909,1485,0,0
-308,-461,0,0,0,0,0,0,0,0,0,-1,916,1485,0,0
-301,-461,0,0,0,0,0,0,0,0,0,-1,923,1485,0,0
-294,-461,0,0,0,0,0,0,0,0,0,-1,930,1485,0,0
-287,-461,0,0,0,0,0,0,0,0,0,-1,937,1485,0,0
-280,-461,0,0,0,0,0,0,0,0,0,-1,944,1485,0,0
-273,-461,0,0,0,0,0,0,0,0,0,-1,951,1485,0,0
-266,-461,0,0,0,0,0,0,0,0,0,-1,958,1485,0,0
-259,-461,0,0,0,0,0,0,0,0,0,-1,965,1485,0,0
-252,-461,0,0,0,0,0,0,0,0,0,-1,972,1485,0,0
-245,-461,0,0,0,0,0,0,0,0,0,-1,979,1485,0,0
-238,-461,0,0,0,0,0,0,0,0,0,-1,986,1485,0,0
-231,-461,0,0,0,0,0,0,0,0,0,-1,993,1485,0,0
-224,-461,0,0,0,0,0,0,0,0,0,-1,1000,1485,0,0
-217,-461,0,0,0,0,0,0,0,0,0,-1,1007,1485,0,0
-210,-461,0,0,0,0,0,0,0,0,0,-1,1014,1485,0,0
-203,-461,0,0,0,0,0,0,0,0,0,-1,1021,1485,0,0
-196,-461,0,0,0,0,0,0,0,0,0,-1,1028,1485,0,0
-189,-461,0,0,0,0,0,0,0,0,0,-1,1035,1485,0,0
-182,-461,0,0,0,0,0,0,0,0,0,-1,1042,1485,0,0
-175,-461,0,0,0,0,0,0,0,0,0,-1,1049,1485,0,0
-168,-461,0,0,0,0,0,0,0,0,0,-1,1056,1485,0,0
-161,-461,0,0,0,0,0,0,0,0,0,-1,1063,1485,0,0
-154,-461,0,0,0,0,0,0,0,0,0,-1,1070,1485,0,0
-147,-461,0,0,0,0,0,0,0,0,0,-1,1077,1485,0,0
-140,-461,0,0,0,0,0,0,0,0,0,-1,1084,1485,0,0
-133,-461,0,0,0,0,0,0,0,0,0,-1,1091,1485,0,0
-126,-461,0,0,0,0,0,0,0,0,0,-1,1098,1485,0,0
-119,-461,0,0,0,0,0,0,0,0,0,-1,1105,1485,0,0
-112,-461,0,0,0,0,0,0,0,0,0,-1,1112,1485,0,0
-105,-461,0,0,0,0,0,0,0,0,0,-1,1119,1485,0,0
-98,-461,0,0,0,0,0,0,0,0,0,-1,1126,1485,0,0
-91,-461,0,0,0,0,0,0,0,0,0,-1,1133,1485,0,0
-84,-461,0,0,0,0,0,0,0,0,0,-1,1140,1485,0,0
-77,-461,0,0,0,0,0,0,0,0,0,-1,1147,1485,0,0
-70,-461,0,0,0,0,0,0,0,0,0,-1,1154,1485,0,0
-63,-461,0,0,0,0,0,0,0,0,0,-1,1161,1485,0,0
-56,-461,0,0,0,0,0,0,0,0,0,-1,1168,1485,0,0
-49,-461,0,0,0,0,0,0,0,0,0,-1,1175,1485,0,0
-42,-461,0,0,0,0,0,0,0,0,0,-1,1182,1485,0,0
-35,-461,0,0,0,0,0,0,0,0,0,-1,1189,1485,0,0
-28,-461,0,0,0,0,0,0,0,0,0,-1,1196,1485,0,0
-21,-461,0,0,0,0,0,0,0,0,0,-1,1203,1485,0,0
-14,-461,0,0,0,0,0,0,0,0,0,-1,1210,1485,0,0
-7,-461,0,0,0,0,0,0,0,0,0,-1,1217,1485,0,0
0,-461,0,0,0,0,0,0,0,0,0,-1,1224,1485,0,0
7,-461,0,0,0,0,0,0,0,0,0,-1,1231,1485,0,0
14,-461,0,0,0,0,0,0,0,0,0,-1,1238,1485,0,0
21,-461,0,0,0,0,0,0,0,0,0,-1,1245,1485,0,0
28,-461,0,0,0,0,0,0,0,0,0,-1,1252,1485,0,0
35,-461,0,0,0,0,0,0,0,0,0,-1,1259,1485,0,0
42,-461,0,0,0,0,0,0,0,0,0,-1,1266,1485,0,0
49,-461,0,0,0,0,0,0,0,0,0,-1,1273,1485,0,0
56,-461,0,0,0,0,0,0,0,0,0,-1,1280,1485,0,0
63,-461,0,0,0,0,0,0,0,0,0,-1,1287,1485,0,0
70,-461,0,0,0,0,0,0,0,0,0,-1,1294,1485,0,0
77,-461,0,0,0,0,0,0,0,0,0,-1,1301,1485,0,0
84,-461,0,0,0,0,0,0,0,0,0,-1,1308,1485,0,0
91,-461,0,0,0,0,0,0,0,0,0,-1,1315,1485,0,0
98,-461,0,0,0,0,0,0,0,0,0,-1,1322,1485,0,0
105,-461,0,0,0,0,0,0,0,0,0,-1,1329,1485,0,0
112,-461,0,0,0,0,0,0,0,0,0,-1,1336,1485,0,0
119,-461,0,0,0,0,0,0,0,0,0,-1,1343,1485,0,0
126,-461,0,0,0,0,0,0,0,0,0,-1,1350,1485,0,0
133,-461,0,0,0,0,0,0,0,0,0,-1,1357,1485,0,0
140,-461,0,0,0,0,0,0,0,0,0,-1,1364,1485,0,0
147,-461,0,0,0,0,0,0,0,0,0,-1,1371,1485,0,0
154,-461,0,0,0,0,0,0,0,0,0,-1,1378,1485,0,0
161,-461,0,0,0,0,0,0,0,0,0,-1,1385,1485,0,0
168,-461,0,0,0,0,0,0,0,0,0,-1,1392,1485,0,0
175,-461,0,0,0,0,0,0,0,0,0,-1,1399,1485,0,0
182,-461,0,0,0,0,0,0,0,0,0,-1,1406,1485,0,0
189,-461,0,0,0,0,0,0,0,0,0,-1,1413,1485,0,0
196,-461,0,0,0,0,0,0,0,0,0,-1,1420,1485,0,0
203,-461,0,0,0,0,0,0,0,0,0,-1,1427,1485,0,0
210,-461,0,0,0,0,0,0,0,0,0,-1,1434,1485,0,0
217,-461,0,0,0,0,0,0,0,0,0,-1,1441,1485,0,0
224,-461,0,0,0,0,0,0,0,0,0,-1,1448,1485,0,0
231,-461,0,0,0,0,0,0,0,0,0,-1,1455,1485,0,0
238,-461,0,0,0,0,0,0,0,0,0,-1,1462,1485,0,0
245,-461,0,0,0,0,0,0,0,0,0,-1,1469,1485,0,0
252,-461,0,0,0,0,0,0,0,0,0,-1,1476,1485,0,0
259,-461,0,0,0,0,0,0,0,0,0,-1,1483,1485,0,0
266,-461,0,0,0,0,0,0,0,0,0,-1,1490,1485,0,0
273,-461,0,0,0,0,0,0,0,0,0,-1,1497,1485,0,0
280,-461,0,0,0,0,0,0,0,0,0,-1,1504,1485,0,0
287,-461,0,0,0,0,0,0,0,0,0,-1,1511,1485,0,0
294,-461,0,0,0,0,0,0,0,0,0,-1,1518,1485,0,0
301,-461,0,0,0,0,0,0,0,0,0,-1,1525,1485,0,0
308,-461,0,0,0,0,0,0,0,0,0,-1,1532,1485,0,0
315,-461,0,0,0,0,0,0,0,0,0,-1,1539,1485,0,0
322,-461,0,0,0,0,0,0,0,0,0,-1,1546,1485,0,0
329,-461,0,0,0,0,0,0,0,0,0,-1,1553,1485,0,0
336,-461,0,0,0,0,0,0,0,0,0,-1,1560,1485,0,0
343,-461,0,0,0,0,0,0,0,0,0,-1,1567,1485,0,0
350,-461,0,0,0,0,0,0,0,0,0,-1,1574,1485,0,0
357,-461,0,0,0,0,0,0,0,0,0,-1,1581,1485,0,0
364,-461,0,0,0,0,0,0,0,0,0,-1,1588,1485,0,0
371,-461,0,0,0,0,0,0,0,0,0,-1,1595,1485,0,0
378,-461,0,0,0,0,0,0,0,0,0,-1,1602,1485,0,0
385,-461,0,0,0,0,0,0,0,0,0,-1,1609,1485,0,0
392,-461,0,0,0,0,0,0,0,0,0,-1,1616,1485,0,0
399,-461,0,0,0,0,0,0,0,0,0,-1,1623,1485,0,0
406,-461,0,0,0,0,0,0,0,0,0,-1,1630,1485,0,0
413,-461,0,0,0,0,0,0,0,0,0,-1,1637,1485,0,0
420,-461,0,0,0,0,0,0,0,0,0,-1,1644,1485,0,0
427,-461,0,0,0,0,0,0,0,0,0,-1,1651,1485,0,0
434,-461,0,0,0,0,0,0,0,0,0,-1,1658,1485,0,0
441,-461,0,0,0,0,0,0,0,0,0,-1,1665,1485,0,0
448,-461,0,0,0,0,0,0,0,0,0,-1,1672,1485,0,0
455,-461,0,0,0,0,0,0,0,0,0,-1,1679,1485,0,0
462,-461,0,0,0,0,0,0,0,0,0,-1,1686,1485,0,0
469,-461,0,0,0,0,0,0,0,0,0,-1,1693,1485,0,0
476,-461,14.1906,0.690552,0,0,0,0,0,0,0,-1,1700,1485,14.1906,-0.690525
483,-461,10.6361,3.09106,0,0,0,0,0,0,0,-1,1707,1485,10.6361,-3.091
490,-461,17.9972,0.665894,0,0,0,0,0,0,0,-1,1714,1485,17.9972,-0.665876
497,-461,16.6829,1.87732,0,0,0,0,0,0,0,-1,1721,1485,16.6828,-1.87736
504,-461,15.3884,3.09216,0,0,0,0,0,0,0,-1,1728,1485,15.3885,-3.09212
511,-461,15.4292,14.3512,0,0,0,0,0,0,0,-1,1735,1485,15.4292,-14.3512
518,-461,14.8081,10.0085,0,0,0,0,0,0,0,-1,1742,1485,14.8081,-10.0086
525,-461,14.0022,10.8033,0,0,0,0,0,0,0,-1,1749,1485,14.0022,-10.8033
532,-461,17.1704,14.077,0,0,0,0,0,0,0,-1,1756,1485,17.1704,-14.077
539,-461,17.0229,14.7386,0,0,0,0,0,0,0,-1,1763,1485,17.0229,-14.7387
546,-461,16.2106,14.1372,0,0,0,0,0,0,0,-1,1770,1485,16.2106,-14.1372
553,-461,25.9354,24.2889,0,0,0,0,0,0,0,-1,1777,1485,25.9354,-24.2889
560,-461,34.9722,34.1575,0,0,0,0,0,0,0,-1,1784,1485,34.9722,-34.1574
567,-461,35.0195,33.0729,0.0119304,0.00516774,-0.00555293,0.0150505,0.00204764,-0.511921,0.00942552,0.0446983,1791,1485,35.0195,-33.0728
574,-461,35.0625,32.2905,0.00919518,0.00388361,-0.00431708,0.011608,0.00147084,-0.509644,0.00729794,0.0344531,1798,1485,35.0625,-32.2905
581,-461,35.0281,31.423,0.00706511,0.00285012,-0.00335707,0.00892138,0.000993849,-0.5051,0.00564554,0.0191245,1805,1485,35.0281,-31.423
588,-461,34.9786,30.5831,0.00536663,0.00215318,-0.00262401,0.00683676,0.000683059,-0.510685,0.00434807,0.0116974,1812,1485,34.9786,-30.5831
595,-461,34.8826,29.7153,0.00405012,0.00150735,-0.00195108,0.00510749,0.000449979,-0.496638,0.00326535,0.0091319,1819,1485,34.8826,-29.7153
602,-461,34.8376,28.8058,0.0030033,0.000897106,-0.00132796,0.00364505,0.000255364,-0.450162,0.00234954,0.00970688,1826,1485,34.8377,-28.8058
609,-461,34.8009,27.9225,0.00219872,0.000404234,-0.000721416,0.00245277,0.000150179,-0.338599,0.00158749,0.0119203,1833,1485,34.8009,-27.9225
616,-461,34.7555,27.0629,0.00153397,-0.000119948,-8.41712e-05,0.00153824,-0.00012422,-0.0507173,0.00106931,0.0138805,1840,1485,34.7556,-27.0629
623,-461,34.7296,26.2306,0.00114723,-0.000648265,0.000547268,0.00130089,-0.000801922,0.273725,0.0012254,0.0186113,1847,1485,34.7296,-26.2306
630,-461,34.6709,25.3822,0.000881745,-0.00127465,0.00129498,0.00148862,-0.00188153,0.438246,0.00195016,0.019455,1854,1485,34.6709,-25.3823
637,-461,34.5842,24.4707,0.000698071,-0.00188416,0.00207576,0.00185149,-0.00303758,0.507179,0.00285026,0.0183942,1861,1485,34.5842,-24.4707
644,-461,34.6268,23.656,0.000532115,-0.00246966,0.00286595,0.0022664,-0.00420395,0.544186,0.00379108,0.0459458,1868,1485,34.6269,-23.656
651,-461,34.734,22.7183,0,0,0,0,0,0,0,-1,1875,1485,34.734,-22.7183
658,-461,16.8987,10.1084,0,0,0,0,0,0,0,-1,1882,1485,16.8986,-10.1084
665,-461,17.2638,9.81384,0,0,0,0,0,0,0,-1,1889,1485,17.2638,-9.81385
672,-461,14.4877,6.89429,0,0,0,0,0,0,0,-1,1896,1485,14.4876,-6.89431
679,-461,10.0535,2.16321,0,0,0,0,0,0,0,-1,1903,1485,10.0535,-2.16317
686,-461,10.8195,1.84192,0,0,0,0,0,0,0,-1,1910,1485,10.8194,-1.84195
693,-461,0,0,0,0,0,0,0,0,0,-1,1917,1485,0,0
700,-461,0,0,0,0,0,0,0,0,0,-1,1924,1485,0,0
707,-461,0,0,0,0,0,0,0,0,0,-1,1931,1485,0,0
714,-461,0,0,0,0,0,0,0,0,0,-1,1938,1485,0,0
721,-461,0,0,0,0,0,0,0,0,0,-1,1945,1485,0,0
728,-461,0,0,0,0,0,0,0,0,0,-1,1952,1485,0,0
735,-461,0,0,0,0,0,0,0,0,0,-1,1959,1485,0,0
742,-461,0,0,0,0,0,0,0,0,0,-1,1966,1485,0,0
749,-461,0,0,0,0,0,0,0,0,0,-1,1973,1485,0,0
756,-461,0,0,0,0,0,0,0,0,0,-1,1980,1485,0,0
763,-461,0,0,0,0,0,0,0,0,0,-1,1987,1485,0,0
770,-461,0,0,0,0,0,0,0,0,0,-1,1994,1485,0,0
777,-461,0,0,0,0,0,0,0,0,0,-1,2001,1485,0,0
784,-461,0,0,0,0,0,0,0,0,0,-1,2008,1485,0,0
791,-461,0,0,0,0,0,0,0,0,0,-1,2015,1485,0,0
798,-461,0,0,0,0,0,0,0,0,0,-1,2022,1485,0,0
805,-461,0,0,0,0,0,0,0,0,0,-1,2029,1485,0,0
812,-461,0,0,0,0,0,0,0,0,0,-1,2036,1485,0,0
-700,-468,0,0,0,0,0,0,0,0,0,-1,524,1492,0,0
-693,-468,0,0,0,0,0,0,0,0,0,-1,531,1492,0,0
-686,-468,0,0,0,0,0,0,0,0,0,-1,538,1492,0,0
-679,-468,0,0,0,0,0,0,0,0,0,-1,545,1492,0,0
-672,-468,0,0,0,0,0,0,0,0,0,-1,552,1492,0,0
-665,-468,0,0,0,0,0,0,0,0,0,-1,559,1492,0,0
-658,-468,0,0,0,0,0,0,0,0,0,-1,566,1492,0,0
-651,-468,0,0,0,0,0,0,0,0,0,-1,573,1492,0,0
-644,-468,0,0,0,0,0,0,0,0,0,-1,580,1492,0,0
-637,-468,0,0,0,0,0,0,0,0,0,-1,587,1492,0,0
-630,-468,0,0,0,0,0,0,0,0,0,-1,594,1492,0,0
-623,-468,0,0,0,0,0,0,0,0,0,-1,601,1492,0,0
-616,-468,0,0,0,0,0,0,0,0,0,-1,608,1492,0,0
-609,-468,0,0,0,0,0,0,0,0,0,-1,615,1492,0,0
-602,-468,0,0,0,0,0,0,0,0,0,-1,622,1492,0,0
-595,-468,0,0,0,0,0,0,0,0,0,-1,629,1492,0,0
-588,-468,0,0,0,0,0,0,0,0,0,-1,636,1492,0,0
-581,-468,0,0,0,0,0,0,0,0,0,-1,643,1492,0,0
-574,-468,0,0,0,0,0,0,0,0,0,-1,650,1492,0,0
-567,-468,-11.2603,1.8042,0,0,0,0,0,0,0,-1,657,1492,-11.2603,-1.80424
-560,-468,-8.77441,2.23694,0,0,0,0,0,0,0,-1,664,1492,-8.77443,-2.23692
-553,-468,-5.94061,9.26318,0,0,0,0,0,0,0,-1,671,1492,-5.94062,-9.26322
-546,-468,-10.47,5.43237,0,0,0,0,0,0,0,-1,678,1492,-10.47,-5.4324
-539,-468,-10.2468,5.45203,0,0,0,0,0,0,0,-1,685,1492,-10.2468,-5.45197
-532,-468,-8.39795,6.02783,0,0,0,0,0,0,0,-1,692,1492,-8.39793,-6.02789
-525,-468,-6.59332,7.15405,0,0,0,0,0,0,0,-1,699,1492,-6.59331,-7.15411
-518,-468,-6.33588,8.65393,0,0,0,0,0,0,0,-1,706,1492,-6.33588,-8.65397
-511,-468,-8.05835,13.8282,0,0,0,0,0,0,0,-1,713,1492,-8.05835,-13.8283
-504,-468,-16.3083,24.6611,0,0,0,0,0,0,0,-1,720,1492,-16.3084,-24.6612
-497,-468,-16.2985,25.7872,0.00337962,0.00575673,0.00497154,0.00967982,-0.000543471,0.902732,0.00664179,0.0385946,727,1492,-16.2985,-25.7873
-490,-468,-16.313,26.824,0.00282266,0.0042096,0.00378786,0.00736695,-0.000334683,0.875934,0.00502657,0.00879062,734,1492,-16.313,-26.824
-483,-468,-16.3835,27.7112,0.00231327,0.00289605,0.00274003,0.00536014,-0.00015082,0.838372,0.00362475,0.00883412,741,1492,-16.3835,-27.7112
-476,-468,-16.4348,28.6152,0.00198412,0.00202381,0.00200809,0.00401215,-4.22169e-06,0.79034,0.00267618,0.00935037,748,1492,-16.4348,-28.6152
-469,-468,-16.4761,29.5255,0.00176817,0.00151655,0.00150614,0.00315374,0.000130977,0.74373,0.00206023,0.0135895,755,1492,-16.4761,-29.5255
-462,-468,-16.46,30.3832,0.00171816,0.00134007,0.00124414,0.00278753,0.0002707,0.710001,0.00177502,0.0250939,762,1492,-16.46,-30.3831
-455,-468,-16.5246,31.2323,0.00182999,0.00149145,0.00122653,0.00289888,0.000422566,0.716827,0.00180826,0.0279161,769,1492,-16.5246,-31.2323
-448,-468,-16.6173,32.1935,0.00211044,0.00194993,0.00143118,0.00346361,0.000596763,0.757389,0.0021381,0.0168784,776,1492,-16.6173,-32.1934
-441,-468,-16.6714,33.0576,0.00262457,0.00281821,0.00192166,0.00464548,0.000797294,0.810569,0.0028684,0.0173123,783,1492,-16.6714,-33.0576
-434,-468,-16.6126,34.0791,0.00344193,0.00394372,0.00270045,0.00640491,0.000980747,0.83172,0.00398347,0.0464418,790,1492,-16.6126,-34.0791
-427,-468,-16.5947,35.1619,0,0,0,0,0,0,0,-1,797,1492,-16.5947,-35.1619
-420,-468,-7.57581,22.0538,0,0,0,0,0,0,0,-1,804,1492,-7.57582,-22.0538
-413,-468,-5.30328,17.3519,0,0,0,0,0,0,0,-1,811,1492,-5.30329,-17.352
-406,-468,-2.2356,9.396,0,0,0,0,0,0,0,-1,818,1492,-2.2356,-9.396
-399,-468,-0.940369,8.1936,0,0,0,0,0,0,0,-1,825,1492,-0.940365,-8.19357
-392,-468,-0.35144,8.14673,0,0,0,0,0,0,0,-1,832,1492,-0.351449,-8.14674
-385,-468,0.465759,5.35864,0,0,0,0,0,0,0,-1,839,1492,0.465732,-5.35864
-378,-468,1.99835,3.25391,0,0,0,0,0,0,0,-1,846,1492,1.99837,-3.2539
-371,-468,-0.31842,3.1532,0,0,0,0,0,0,0,-1,853,1492,-0.318441,-3.15324
-364,-468,-0.966736,2.14563,0,0,0,0,0,0,0,-1,860,1492,-0.966735,-2.14557
-357,-468,-3.06787,3.22742,0,0,0,0,0,0,0,-1,867,1492,-3.06784,-3.2274
-350,-468,-3.18658,4.12659,0,0,0,0,0,0,0,-1,874,1492,-3.18659,-4.12658
-343,-468,0,0,0,0,0,0,0,0,0,-1,881,1492,0,0
-336,-468,0,0,0,0,0,0,0,0,0,-1,888,1492,0,0
-329,-468,0,0,0,0,0,0,0,0,0,-1,895,1492,0,0
-322,-468,0,0,0,0,0,0,0,0,0,-1,902,1492,0,0
-315,-468,0,0,0,0,0,0,0,0,0,-1,909,1492,0,0
-308,-468,0,0,0,0,0,0,0,0,0,-1,916,1492,0,0
-301,-468,0,0,0,0,0,0,0,0,0,-1,923,1492,0,0
-294,-468,0,0,0,0,0,0,0,0,0,-1,930,1492,0,0
-287,-468,0,0,0,0,0,0,0,0,0,-1,937,1492,0,0
-280,-468,0,0,0,0,0,0,0,0,0,-1,944,1492,0,0
-273,-468,0,0,0,0,0,0,0,0,0,-1,951,1492,0,0
-266,-468,0,0,0,0,0,0,0,0,0,-1,958,1492,0,0
-259,-468,0,0,0,0,0,0,0,0,0,-1,965,1492,0,0
-252,-468,0,0,0,0,0,0,0,0,0,-1,972,1492,0,0
-245,-468,0,0,0,0,0,0,0,0,0,-1,979,1492,0,0
-238,-468,0,0,0,0,0,0,0,0,0,-1,986,1492,0,0
-231,-468,0,0,0,0,0,0,0,0,0,-1,993,1492,0,0
-224,-468,0,0,0,0,0,0,0,0,0,-1,1000,1492,0,0
-217,-468,0,0,0,0,0,0,0,0,0,-1,1007,1492,0,0
-210,-468,0,0,0,0,0,0,0,0,0,-1,1014,1492,0,0
-203,-468,0,0,0,0,0,0,0,0,0,-1,1021,1492,0,0
-196,-468,0,0,0,0,0,0,0,0,0,-1,1028,1492,0,0
-189,-468,0,0,0,0,0,0,0,0,0,-1,1035,1492,0,0
-182,-468,0,0,0,0,0,0,0,0,0,-1,1042,1492,0,0
-175,-468,0,0,0,0,0,0,0,0,0,-1,1049,1492,0,0
-168,-468,0,0,0,0,0,0,0,0,0,-1,1056,1492,0,0
-161,-468,0,0,0,0,0,0,0,0,0,-1,1063,1492,0,0
-154,-468,0,0,0,0,0,0,0,0,0,-1,1070,1492,0,0
-147,-468,0,0,0,0,0,0,0,0,0,-1,1077,1492,0,0
-140,-468,0,0,0,0,0,0,0,0,0,-1,1084,1492,0,0
-133,-468,0,0,0,0,0,0,0,0,0,-1,1091,1492,0,0
-126,-468,0,0,0,0,0,0,0,0,0,-1,1098,1492,0,0
-119,-468,0,0,0,0,0,0,0,0,0,-1,1105,1492,0,0
-112,-468,0,0,0,0,0,0,0,0,0,-1,1112,1492,0,0
-105,-468,0,0,0,0,0,0,0,0,0,-1,1119,1492,0,0
-98,-468,0,0,0,0,0,0,0,0,0,-1,1126,1492,0,0
-91,-468,0,0,0,0,0,0,0,0,0,-1,1133,1492,0,0
-84,-468,0,0,0,0,0,0,0,0,0,-1,1140,1492,0,0
-77,-468,0,0,0,0,0,0,0,0,0,-1,1147,1492,0,0
-70,-468,0,0,0,0,0,0,0,0,0,-1,1154,1492,0,0
-63,-468,0,0,0,0,0,0,0,0,0,-1,1161,1492,0,0
-56,-468,0,0,0,0,0,0,0,0,0,-1,1168,1492,0,0
-49,-468,0,0,0,0,0,0,0,0,0,-1,1175,1492,0,0
-42,-468,0,0,0,0,0,0,0,0,0,-1,1182,1492,0,0
-35,-468,0,0,0,0,0,0,0,0,0,-1,1189,1492,0,0
-28,-468,0,0,0,0,0,0,0,0,0,-1,1196,1492,0,0
-21,-468,0,0,0,0,0,0,0,0,0,-1,1203,1492,0,0
-14,-468,0,0,0,0,0,0,0,0,0,-1,1210,1492,0,0
-7,-468,0,0,0,0,0,0,0,0,0,-1,1217,1492,0,0
0,-468,0,0,0,0,0,0,0,0,0,-1,1224,1492,0,0
7,-468,0,0,0,0,0,0,0,0,0,-1,1231,1492,0,0
14,-468,0,0,0,0,0,0,0,0,0,-1,1238,1492,0,0
21,-468,0,0,0,0,0,0,0,0,0,-1,1245,1492,0,0
28,-468,0,0,0,0,0,0,0,0,0,-1,1252,1492,0,0
35,-468,0,0,0,0,0,0,0,0,0,-1,1259,1492,0,0
42,-468,0,0,0,0,0,0,0,0,0,-1,1266,1492,0,0
49,-468,0,0,0,0,0,0,0,0,0,-1,1273,1492,0,0
56,-468,0,0,0,0,0,0,0,0,0,-1,1280,1492,0,0
63,-468,0,0,0,0,0,0,0,0,0,-1,1287,1492,0,0
70,-468,0,0,0,0,0,0,0,0,0,-1,1294,1492,0,0
77,-468,0,0,0,0,0,0,0,0,0,-1,1301,1492,0,0
84,-468,0,0,0,0,0,0,0,0,0,-1,1308,1492,0,0
91,-468,0,0,0,0,0,0,0,0,0,-1,1315,1492,0,0
98,-468,0,0,0,0,0,0,0,0,0,-1,1322,1492,0,0
105,-468,0,0,0,0,0,0,0,0,0,-1,1329,1492,0,0
112,-468,0,0,0,0,0,0,0,0,0,-1,1336,1492,0,0
119,-468,0,0,0,0,0,0,0,0,0,-1,1343,1492,0,0
126,-468,0,0,0,0,0,0,0,0,0,-1,1350,1492,0,0
133,-468,0,0,0,0,0,0,0,0,0,-1,1357,1492,0,0
140,-468,0,0,0,0,0,0,0,0,0,-1,1364,1492,0,0
147,-468,0,0,0,0,0,0,0,0,0,-1,1371,1492,0,0
154,-468,0,0,0,0,0,0,0,0,0,-1,1378,1492,0,0
161,-468,0,0,0,0,0,0,0,0,0,-1,1385,1492,0,0
168,-468,0,0,0,0,0,0,0,0,0,-1,1392,1492,0,0
175,-468,0,0,0,0,0,0,0,0,0,-1,1399,1492,0,0
182,-468,0,0,0,0,0,0,0,0,0,-1,1406,1492,0,0
189,-468,0,0,0,0,0,0,0,0,0,-1,1413,1492,0,0
196,-468,0,0,0,0,0,0,0,0,0,-1,1420,1492,0,0
203,-468,0,0,0,0,0,0,0,0,0,-1,1427,1492,0,0
210,-468,0,0,0,0,0,0,0,0,0,-1,1434,1492,0,0
217,-468,0,0,0,0,0,0,0,0,0,-1,1441,1492,0,0
224,-468,0,0,0,0,0,0,0,0,0,-1,1448,1492,0,0
231,-468,0,0,0,0,0,0,0,0,0,-1,1455,1492,0,0
238,-468,0,0,0,0,0,0,0,0,0,-1,1462,1492,0,0
245,-468,0,0,0,0,0,0,0,0,0,-1,1469,1492,0,0
252,-468,0,0,0,0,0,0,0,0,0,-1,1476,1492,0,0
259,-468,0,0,0,0,0,0,0,0,0,-1,1483,1492,0,0
266,-468,0,0,0,0,0,0,0,0,0,-1,1490,1492,0,0
273,-468,0,0,0,0,0,0,0,0,0,-1,1497,1492,0,0
280,-468,0,0,0,0,0,0,0,0,0,-1,1504,1492,0,0
287,-468,0,0,0,0,0,0,0,0,0,-1,1511,1492,0,0
294,-468,0,0,0,0,0,0,0,0,0,-1,1518,1492,0,0
301,-468,0,0,0,0,0,0,0,0,0,-1,1525,1492,0,0
308,-468,0,0,0,0,0,0,0,0,0,-1,1532,1492,0,0
315,-468,0,0,0,0,0,0,0,0,0,-1,1539,1492,0,0
322,-468,0,0,0,0,0,0,0,0,0,-1,1546,1492,0,0
329,-468,0,0,0,0,0,0,0,0,0,-1,1553,1492,0,0
336,-468,0,0,0,0,0,0,0,0,0,-1,1560,1492,0,0
343,-468,0,0,0,0,0,0,0,0,0,-1,1567,1492,0,0
350,-468,0,0,0,0,0,0,0,0,0,-1,1574,1492,0,0
357,-468,0,0,0,0,0,0,0,0,0,-1,1581,1492,0,0
364,-468,0,0,0,0,0,0,0,0,0,-1,1588,1492,0,0
371,-468,0,0,0,0,0,0,0,0,0,-1,1595,1492,0,0
378,-468,0,0,0,0,0,0,0,0,0,-1,1602,1492,0,0
385,-468,0,0,0,0,0,0,0,0,0,-1,1609,1492,0,0
392,-468,0,0,0,0,0,0,0,0,0,-1,1616,1492,0,0
399,-468,0,0,0,0,0,0,0,0,0,-1,1623,1492,0,0
406,-468,0,0,0,0,0,0,0,0,0,-1,1630,1492,0,0
413,-468,0,0,0,0,0,0,0,0,0,-1,1637,1492,0,0
420,-468,0,0,0,0,0,0,0,0,0,-1,1644,1492,0,0
427,-468,0,0,0,0,0,0,0,0,0,-1,1651,1492,0,0
434,-468,0,0,0,0,0,0,0,0,0,-1,1658,1492,0,0
441,-468,0,0,0,0,0,0,0,0,0,-1,1665,1492,0,0
448,-468,0,0,0,0,0,0,0,0,0,-1,1672,1492,0,0
455,-468,0,0,0,0,0,0,0,0,0,-1,1679,1492,0,0
462,-468,0,0,0,0,0,0,0,0,0,-1,1686,1492,0,0
469,-468,15.6879,1.2677,0,0,0,0,0,0,0,-1,1693,1492,15.6879,-1.26772
476,-468,14.9318,1.61865,0,0,0,0,0,0,0,-1,1700,1492,14.9318,-1.61869
483,-468,11.265,4.64795,0,0,0,0,0,0,0,-1,1707,1492,11.265,-4.64798
490,-468,12.1316,3.51624,0,0,0,0,0,0,0,-1,1714,1492,12.1316,-3.51628
497,-468,16.5355,3.14587,0,0,0,0,0,0,0,-1,1721,1492,16.5356,-3.14583
504,-468,15.0642,4.10437,0,0,0,0,0,0,0,-1,1728,1492,15.0643,-4.10431
511,-468,15.6877,9.4801,0,0,0,0,0,0,0,-1,1735,1492,15.6878,-9.48007
518,-468,13.759,11.0887,0,0,0,0,0,0,0,-1,1742,1492,13.759,-11.0887
525,-468,16.6531,14.2238,0,0,0,0,0,0,0,-1,1749,1492,16.653,-14.2237
532,-468,16.9696,15.9641,0,0,0,0,0,0,0,-1,1756,1492,16.9696,-15.9641
539,-468,21.5308,20.7551,0,0,0,0,0,0,0,-1,1763,1492,21.5308,-20.7551
546,-468,25.5796,25.0283,0,0,0,0,0,0,0,-1,1770,1492,25.5796,-25.0284
553,-468,31.8678,31.5677,0,0,0,0,0,0,0,-1,1777,1492,31.8678,-31.5678
560,-468,33.8882,34.4625,0,0,0,0,0,0,0,-1,1784,1492,33.8882,-34.4625
567,-468,34.1521,33.2449,0.0105157,0.00489528,-0.00501028,0.01345,0.0019609,-0.529817,0.0083898,0.0311084,1791,1492,34.1521,-33.2449
574,-468,34.203,32.3337,0.00810932,0.0035882,-0.00385084,0.0103141,0.00138344,-0.519984,0.00646444,0.0171259,1798,1492,34.203,-32.3338
581,-468,34.175,31.4807,0.00617511,0.00258324,-0.00294865,0.00783169,0.000926653,-0.511867,0.00494129,0.017172,1805,1492,34.175,-31.4807
588,-468,34.0853,30.6372,0.00465232,0.00186194,-0.00225744,0.00591092,0.000603346,-0.508608,0.00375568,0.0130525,1812,1492,34.0853,-30.6372
595,-468,34.0151,29.7645,0.00348792,0.00120849,-0.00160604,0.00431755,0.000378858,-0.476814,0.00276076,0.0108098,1819,1492,34.0152,-29.7645
602,-468,33.9774,28.8595,0.00254657,0.000637407,-0.0010297,0.00299609,0.000187882,-0.41162,0.00193781,0.00979898,1826,1492,33.9774,-28.8595
609,-468,33.9077,27.979,0.00181335,0.000172488,-0.000440342,0.00192406,6.17863e-05,-0.246295,0.00126261,0.0106584,1833,1492,33.9078,-27.979
616,-468,33.8662,27.1223,0.00122099,-0.00032919,0.000205048,0.00124765,-0.000355854,0.129312,0.000972338,0.0104298,1840,1492,33.8663,-27.1223
623,-468,33.8348,26.2665,0.000847784,-0.000952322,0.000949746,0.00125621,-0.00136075,0.406128,0.0015113,0.0120222,1847,1492,33.8348,-26.2664
630,-468,33.7994,25.3729,0.000502138,-0.00168249,0.00189549,0.00159752,-0.00277788,0.524003,0.00255659,0.0142705,1854,1492,33.7995,-25.3729
637,-468,33.7966,24.4606,0.000160731,-0.00245578,0.00296168,0.00209024,-0.00438529,0.577421,0.00381611,0.0311091,1861,1492,33.7966,-24.4605
644,-468,33.5936,23.8142,-0.000303788,-0.00332463,0.00419164,0.00264126,-0.00626968,0.612469,0.00528499,0.0475463,1868,1492,33.5936,-23.8142
651,-468,33.5162,22.9452,0,0,0,0,0,0,0,-1,1875,1492,33.5163,-22.9451
658,-468,16.4969,10.0774,0,0,0,0,0,0,0,-1,1882,1492,16.497,-10.0774
665,-468,15.4673,8.59546,0,0,0,0,0,0,0,-1,1889,1492,15.4672,-8.59548
672,-468,9.96814,3.61133,0,0,0,0,0,0,0,-1,1896,1492,9.96817,-3.61139
679,-468,11.2191,1.91968,0,0,0,0,0,0,0,-1,1903,1492,11.2191,-1.91965
686,-468,11.9252,1.42285,0,0,0,0,0,0,0,-1,1910,1492,11.9252,-1.42291
693,-468,0,0,0,0,0,0,0,0,0,-1,1917,1492,0,0
700,-468,0,0,0,0,0,0,0,0,0,-1,1924,1492,0,0
707,-468,0,0,0,0,0,0,0,0,0,-1,1931,1492,0,0
714,-468,0,0,0,0,0,0,0,0,0,-1,1938,1492,0,0
721,-468,0,0,0,0,0,0,0,0,0,-1,1945,1492,0,0
728,-468,0,0,0,0,0,0,0,0,0,-1,1952,1492,0,0
735,-468,0,0,0,0,0,0,0,0,0,-1,1959,1492,0,0
742,-468,0,0,0,0,0,0,0,0,0,-1,1966,1492,0,0
749,-468,0,0,0,0,0,0,0,0,0,-1,1973,1492,0,0
756,-468,0,0,0,0,0,0,0,0,0,-1,1980,1492,0,0
763,-468,0,0,0,0,0,0,0,0,0,-1,1987,1492,0,0
770,-468,0,0,0,0,0,0,0,0,0,-1,1994,1492,0,0
777,-468,0,0,0,0,0,0,0,0,0,-1,2001,1492,0,0
784,-468,0,0,0,0,0,0,0,0,0,-1,2008,1492,0,0
791,-468,0,0,0,0,0,0,0,0,0,-1,2015,1492,0,0
798,-468,0,0,0,0,0,0,0,0,0,-1,2022,1492,0,0
805,-468,0,0,0,0,0,0,0,0,0,-1,2029,1492,0,0
812,-468,0,0,0,0,0,0,0,0,0,-1,2036,1492,0,0
-700,-475,0,0,0,0,0,0,0,0,0,-1,524,1499,0,0
-693,-475,0,0,0,0,0,0,0,0,0,-1,531,1499,0,0
-686,-475,0,0,0,0,0,0,0,0,0,-1,538,1499,0,0
-679,-475,0,0,0,0,0,0,0,0,0,-1,545,1499,0,0
-672,-475,0,0,0,0,0,0,0,0,0,-1,552,1499,0,0
-665,-475,0,0,0,0,0,0,0,0,0,-1,559,1499,0,0
-658,-475,0,0,0,0,0,0,0,0,0,-1,566,1499,0,0
-651,-475,0,0,0,0,0,0,0,0,0,-1,573,1499,0,0
-644,-475,0,0,0,0,0,0,0,0,0,-1,580,1499,0,0
-637,-475,0,0,0,0,0,0,0,0,0,-1,587,1499,0,0
-630,-475,0,0,0,0,0,0,0,0,0,-1,594,1499,0,0
-623,-475,0,0,0,0,0,0,0,0,0,-1,601,1499,0,0
-616,-475,0,0,0,0,0,0,0,0,0,-1,608,1499,0,0
-609,-475,0,0,0,0,0,0,0,0,0,-1,615,1499,0,0
-602,-475,0,0,0,0,0,0,0,0,0,-1,622,1499,0,0
-595,-475,0,0,0,0,0,0,0,0,0,-1,629,1499,0,0
-588,-475,0,0,0,0,0,0,0,0,0,-1,636,1499,0,0
-581,-475,0,0,0,0,0,0,0,0,0,-1,643,1499,0,0
-574,-475,0,0,0,0,0,0,0,0,0,-1,650,1499,0,0
-567,-475,0,0,0,0,0,0,0,0,0,-1,657,1499,0,0
-560,-475,-9.42731,9.29517,0,0,0,0,0,0,0,-1,664,1499,-9.42731,-9.29519
-553,-475,-8.15131,8.78369,0,0,0,0,0,0,0,-1,671,1499,-8.15131,-8.78367
-546,-475,-8.41254,8.20654,0,0,0,0,0,0,0,-1,678,1499,-8.41251,-8.20655
-539,-475,-4.7345,4.17419,0,0,0,0,0,0,0,-1,685,1499,-4.73449,-4.17418
-532,-475,-7.07379,4.25024,0,0,0,0,0,0,0,-1,692,1499,-7.07378,-4.2503
-525,-475,-6.13147,5.82166,0,0,0,0,0,0,0,-1,699,1499,-6.1315,-5.8216
-518,-475,-7.28784,9.31506,0,0,0,0,0,0,0,-1,706,1499,-7.28782,-9.315
-511,-475,-6.84851,12.4244,0,0,0,0,0,0,0,-1,713,1499,-6.84851,-12.4244
-504,-475,-8.80957,16.0863,0,0,0,0,0,0,0,-1,720,1499,-8.80954,-16.0862
-497,-475,-15.4885,25.7113,0,0,0,0,0,0,0,-1,727,1499,-15.4885,-25.7113
-490,-475,-15.4649,26.8271,0.00341779,0.00520266,0.00467478,0.00906943,-0.00044898,0.879715,0.00620137,0.0226498,734,1499,-15.4649,-26.8272
-483,-475,-15.47,27.8225,0.00275398,0.00355713,0.0033779,0.00655724,-0.000246131,0.844561,0.0044558,0.00889915,741,1499,-15.4699,-27.8225
-476,-475,-15.5089,28.698,0.00232674,0.00249219,0.00248234,0.00489318,-7.42467e-05,0.802055,0.00328715,0.0110288,748,1499,-15.5089,-28.698
-469,-475,-15.572,29.5862,0.00200345,0.00180681,0.00184656,0.00375431,5.59547e-05,0.758799,0.00248443,0.014997,755,1499,-15.572,-29.5862
-462,-475,-15.5601,30.4561,0.0018405,0.00148963,0.00146348,0.00313903,0.000191108,0.725745,0.00203198,0.0212297,762,1499,-15.5601,-30.4561
-455,-475,-15.6093,31.3621,0.00184087,0.00150782,0.00132923,0.00301396,0.000334721,0.723083,0.00190755,0.0186826,769,1499,-15.6093,-31.362
-448,-475,-15.7352,32.2411,0.00201403,0.00182087,0.00141022,0.00333097,0.000503925,0.751208,0.00207319,0.016184,776,1499,-15.7352,-32.2411
-441,-475,-15.8095,33.0879,0.00238019,0.00247555,0.00174634,0.00417486,0.000680882,0.799046,0.00258633,0.0186802,783,1499,-15.8095,-33.0879
-434,-475,-15.8167,33.9841,0.00297618,0.00339092,0.0023199,0.00551269,0.0008544,0.829974,0.00342603,0.012337,790,1499,-15.8167,-33.9841
-427,-475,-15.8137,34.8743,0,0,0,0,0,0,0,-1,797,1499,-15.8137,-34.8743
-420,-475,-14.302,33.4558,0,0,0,0,0,0,0,-1,804,1499,-14.302,-33.4559
-413,-475,-6.46777,20.8481,0,0,0,0,0,0,0,-1,811,1499,-6.46776,-20.8481
-406,-475,-2.56116,12.4956,0,0,0,0,0,0,0,-1,818,1499,-2.56116,-12.4956
-399,-475,-1.39667,6.1615,0,0,0,0,0,0,0,-1,825,1499,-1.39664,-6.16155
-392,-475,0.217163,8.61389,0,0,0,0,0,0,0,-1,832,1499,0.217167,-8.6139
-385,-475,1.18372,2.73999,0,0,0,0,0,0,0,-1,839,1499,1.18372,-2.73995
-378,-475,1.31409,2.90149,0,0,0,0,0,0,0,-1,846,1499,1.31411,-2.90151
-371,-475,2.3476,3.31116,0,0,0,0,0,0,0,-1,853,1499,2.34761,-3.31121
-364,-475,1.04462,9.05823,0,0,0,0,0,0,0,-1,860,1499,1.04461,-9.05825
-357,-475,-0.262756,7.97205,0,0,0,0,0,0,0,-1,867,1499,-0.262784,-7.97205
-350,-475,-5.16473,-1.27881,0,0,0,0,0,0,0,-1,874,1499,-5.16474,1.27884
-343,-475,-5.76923,-0.530518,0,0,0,0,0,0,0,-1,881,1499,-5.76923,0.530526
-336,-475,0,0,0,0,0,0,0,0,0,-1,888,1499,0,0
-329,-475,0,0,0,0,0,0,0,0,0,-1,895,1499,0,0
-322,-475,0,0,0,0,0,0,0,0,0,-1,902,1499,0,0
-315,-475,0,0,0,0,0,0,0,0,0,-1,909,1499,0,0
-308,-475,0,0,0,0,0,0,0,0,0,-1,916,1499,0,0
-301,-475,0,0,0,0,0,0,0,0,0,-1,923,1499,0,0
-294,-475,0,0,0,0,0,0,0,0,0,-1,930,1499,0,0
-287,-475,0,0,0,0,0,0,0,0,0,-1,937,1499,0,0
-280,-475,0,0,0,0,0,0,0,0,0,-1,944,1499,0,0
-273,-475,0,0,0,0,0,0,0,0,0,-1,951,1499,0,0
-266,-475,0,0,0,0,0,0,0,0,0,-1,958,1499,0,0
-259,-475,0,0,0,0,0,0,0,0,0,-1,965,1499,0,0
-252,-475,0,0,0,0,0,0,0,0,0,-1,972,1499,0,0
-245,-475,0,0,0,0,0,0,0,0,0,-1,979,1499,0,0
-238,-475,0,0,0,0,0,0,0,0,0,-1,986,1499,0,0
-231,-475,0,0,0,0,0,0,0,0,0,-1,993,1499,0,0
-224,-475,0,0,0,0,0,0,0,0,0,-1,1000,1499,0,0
-217,-475,0,0,0,0,0,0,0,0,0,-1,1007,1499,0,0
-210,-475,0,0,0,0,0,0,0,0,0,-1,1014,1499,0,0
-203,-475,0,0,0,0,0,0,0,0,0,-1,1021,1499,0,0
-196,-475,0,0,0,0,0,0,0,0,0,-1,1028,1499,0,0
-189,-475,0,0,0,0,0,0,0,0,0,-1,1035,1499,0,0
-182,-475,0,0,0,0,0,0,0,0,0,-1,1042,1499,0,0
-175,-475,0,0,0,0,0,0,0,0,0,-1,1049,1499,0,0
-168,-475,0,0,0,0,0,0,0,0,0,-1,1056,1499,0,0
-161,-475,0,0,0,0,0,0,0,0,0,-1,1063,1499,0,0
-154,-475,0,0,0,0,0,0,0,0,0,-1,1070,1499,0,0
-147,-475,0,0,0,0,0,0,0,0,0,-1,1077,1499,0,0
-140,-475,0,0,0,0,0,0,0,0,0,-1,1084,1499,0,0
-133,-475,0,0,0,0,0,0,0,0,0,-1,1091,1499,0,0
-126,-475,0,0,0,0,0,0,0,0,0,-1,1098,1499,0,0
-119,-475,0,0,0,0,0,0,0,0,0,-1,1105,1499,0,0
-112,-475,0,0,0,0,0,0,0,0,0,-1,1112,1499,0,0
-105,-475,0,0,0,0,0,0,0,0,0,-1,1119,1499,0,0
-98,-475,0,0,0,0,0,0,0,0,0,-1,1126,1499,0,0
-91,-475,0,0,0,0,0,0,0,0,0,-1,1133,1499,0,0
-84,-475,0,0,0,0,0,0,0,0,0,-1,1140,1499,0,0
-77,-475,0,0,0,0,0,0,0,0,0,-1,1147,1499,0,0
-70,-475,0,0,0,0,0,0,0,0,0,-1,1154,1499,0,0
-63,-475,0,0,0,0,0,0,0,0,0,-1,1161,1499,0,0
-56,-475,0,0,0,0,0,0,0,0,0,-1,1168,1499,0,0
-49,-475,0,0,0,0,0,0,0,0,0,-1,1175,1499,0,0
-42,-475,0,0,0,0,0,0,0,0,0,-1,1182,1499,0,0
-35,-475,0,0,0,0,0,0,0,0,0,-1,1189,1499,0,0
-28,-475,0,0,0,0,0,0,0,0,0,-1,1196,1499,0,0
-21,-475,0,0,0,0,0,0,0,0,0,-1,1203,1499,0,0
-14,-475,0,0,0,0,0,0,0,0,0,-1,1210,1499,0,0
-7,-475,0,0,0,0,0,0,0,0,0,-1,1217,1499,0,0
0,-475,0,0,0,0,0,0,0,0,0,-1,1224,1499,0,0
7,-475,0,0,0,0,0,0,0,0,0,-1,1231,1499,0,0
14,-475,0,0,0,0,0,0,0,0,0,-1,1238,1499,0,0
21,-475,0,0,0,0,0,0,0,0,0,-1,1245,1499,0,0
28,-475,0,0,0,0,0,0,0,0,0,-1,1252,1499,0,0
35,-475,0,0,0,0,0,0,0,0,0,-1,1259,1499,0,0
42,-475,0,0,0,0,0,0,0,0,0,-1,1266,1499,0,0
49,-475,0,0,0,0,0,0,0,0,0,-1,1273,1499,0,0
56,-475,0,0,0,0,0,0,0,0,0,-1,1280,1499,0,0
63,-475,0,0,0,0,0,0,0,0,0,-1,1287,1499,0,0
70,-475,0,0,0,0,0,0,0,0,0,-1,1294,1499,0,0
77,-475,0,0,0,0,0,0,0,0,0,-1,1301,1499,0,0
84,-475,0,0,0,0,0,0,0,0,0,-1,1308,1499,0,0
91,-475,0,0,0,0,0,0,0,0,0,-1,1315,1499,0,0
98,-475,0,0,0,0,0,0,0,0,0,-1,1322,1499,0,0
105,-475,0,0,0,0,0,0,0,0,0,-1,1329,1499,0,0
112,-475,0,0,0,0,0,0,0,0,0,-1,1336,1499,0,0
119,-475,0,0,0,0,0,0,0,0,0,-1,1343,1499,0,0
126,-475,0,0,0,0,0,0,0,0,0,-1,1350,1499,0,0
133,-475,0,0,0,0,0,0,0,0,0,-1,1357,1499,0,0
140,-475,0,0,0,0,0,0,0,0,0,-1,1364,1499,0,0
147,-475,0,0,0,0,0,0,0,0,0,-1,1371,1499,0,0
154,-475,0,0,0,0,0,0,0,0,0,-1,1378,1499,0,0
161,-475,0,0,0,0,0,0,0,0,0,-1,1385,1499,0,0
168,-475,0,0,0,0,0,0,0,0,0,-1,1392,1499,0,0
175,-475,0,0,0,0,0,0,0,0,0,-1,1399,1499,0,0
182,-475,0,0,0,0,0,0,0,0,0,-1,1406,1499,0,0
189,-475,0,0,0,0,0,0,0,0,0,-1,1413,1499,0,0
196,-475,0,0,0,0,0,0,0,0,0,-1,1420,1499,0,0
203,-475,0,0,0,0,0,0,0,0,0,-1,1427,1499,0,0
210,-475,0,0,0,0,0,0,0,0,0,-1,1434,1499,0,0
217,-475,0,0,0,0,0,0,0,0,0,-1,1441,1499,0,0
224,-475,0,0,0,0,0,0,0,0,0,-1,1448,1499,0,0
231,-475,0,0,0,0,0,0,0,0,0,-1,1455,1499,0,0
238,-475,0,0,0,0,0,0,0,0,0,-1,1462,1499,0,0
245,-475,0,0,0,0,0,0,0,0,0,-1,1469,1499,0,0
252,-475,0,0,0,0,0,0,0,0,0,-1,1476,1499,0,0
259,-475,0,0,0,0,0,0,0,0,0,-1,1483,1499,0,0
266,-475,0,0,0,0,0,0,0,0,0,-1,1490,1499,0,0
273,-475,0,0,0,0,0,0,0,0,0,-1,1497,1499,0,0
280,-475,0,0,0,0,0,0,0,0,0,-1,1504,1499,0,0
287,-475,0,0,0,0,0,0,0,0,0,-1,1511,1499,0,0
294,-475,0,0,0,0,0,0,0,0,0,-1,1518,1499,0,0
301,-475,0,0,0,0,0,0,0,0,0,-1,1525,1499,0,0
308,-475,0,0,0,0,0,0,0,0,0,-1,1532,1499,0,0
315,-475,0,0,0,0,0,0,0,0,0,-1,1539,1499,0,0
322,-475,0,0,0,0,0,0,0,0,0,-1,1546,1499,0,0
329,-475,0,0,0,0,0,0,0,0,0,-1,1553,1499,0,0
336,-475,0,0,0,0,0,0,0,0,0,-1,1560,1499,0,0
343,-475,0,0,0,0,0,0,0,0,0,-1,1567,1499,0,0
350,-475,0,0,0,0,0,0,0,0,0,-1,1574,1499,0,0
357,-475,0,0,0,0,0,0,0,0,0,-1,1581,1499,0,0
364,-475,0,0,0,0,0,0,0,0,0,-1,1588,1499,0,0
371,-475,0,0,0,0,0,0,0,0,0,-1,1595,1499,0,0
378,-475,0,0,0,0,0,0,0,0,0,-1,1602,1499,0,0
385,-475,0,0,0,0,0,0,0,0,0,-1,1609,1499,0,0
392,-475,0,0,0,0,0,0,0,0,0,-1,1616,1499,0,0
399,-475,0,0,0,0,0,0,0,0,0,-1,1623,1499,0,0
406,-475,0,0,0,0,0,0,0,0,0,-1,1630,1499,0,0
413,-475,0,0,0,0,0,0,0,0,0,-1,1637,1499,0,0
420,-475,0,0,0,0,0,0,0,0,0,-1,1644,1499,0,0
427,-475,0,0,0,0,0,0,0,0,0,-1,1651,1499,0,0
434,-475,0,0,0,0,0,0,0,0,0,-1,1658,1499,0,0
441,-475,0,0,0,0,0,0,0,0,0,-1,1665,1499,0,0
448,-475,0,0,0,0,0,0,0,0,0,-1,1672,1499,0,0
455,-475,0,0,0,0,0,0,0,0,0,-1,1679,1499,0,0
462,-475,12.6372,0.275391,0,0,0,0,0,0,0,-1,1686,1499,12.6372,-0.27536
469,-475,15.6437,2.28296,0,0,0,0,0,0,0,-1,1693,1499,15.6437,-2.28293
476,-475,15.3302,2.71436,0,0,0,0,0,0,0,-1,1700,1499,15.3303,-2.7143
483,-475,10.7461,5.91479,0,0,0,0,0,0,0,-1,1707,1499,10.7461,-5.91476
490,-475,11.9305,4.4364,0,0,0,0,0,0,0,-1,1714,1499,11.9305,-4.43644
497,-475,15.3451,4.3479,0,0,0,0,0,0,0,-1,1721,1499,15.3451,-4.34789
504,-475,16.9646,7.71265,0,0,0,0,0,0,0,-1,1728,1499,16.9646,-7.71265
511,-475,18.941,12.7572,0,0,0,0,0,0,0,-1,1735,1499,18.941,-12.7572
518,-475,17.0021,13.8564,0,0,0,0,0,0,0,-1,1742,1499,17.0021,-13.8564
525,-475,17.5637,15.2103,0,0,0,0,0,0,0,-1,1749,1499,17.5637,-15.2103
532,-475,20.8623,20.8413,0,0,0,0,0,0,0,-1,1756,1499,20.8623,-20.8413
539,-475,20.5494,20.8519,0,0,0,0,0,0,0,-1,1763,1499,20.5494,-20.852
546,-475,20.4524,19.8799,0,0,0,0,0,0,0,-1,1770,1499,20.4524,-19.8798
553,-475,32.9968,35.2506,0,0,0,0,0,0,0,-1,1777,1499,32.9968,-35.2507
560,-475,33.1312,34.2972,0.0112657,0.00612012,-0.00585344,0.0150868,0.00229899,-0.578341,0.00938586,0.0421329,1784,1499,33.1312,-34.2972
567,-475,33.365,33.2689,0.00886688,0.00443319,-0.00441957,0.0115944,0.00170564,-0.552936,0.00722846,0.0172432,1791,1499,33.365,-33.2689
574,-475,33.3042,32.3812,0.0069161,0.00320936,-0.00340851,0.00894254,0.00118292,-0.536383,0.00560912,0.0162262,1798,1499,33.3042,-32.3812
581,-475,33.2565,31.5303,0.00528188,0.00228963,-0.00260777,0.00679223,0.000779287,-0.524963,0.00429204,0.0131713,1805,1499,33.2565,-31.5303
588,-475,33.2057,30.662,0.00398142,0.00159433,-0.00198294,0.0051023,0.000473444,-0.514487,0.00325522,0.0110942,1812,1499,33.2057,-30.662
595,-475,33.1707,29.7874,0.00298661,0.000971653,-0.00137887,0.00368685,0.000271419,-0.469894,0.00237261,0.0123111,1819,1499,33.1707,-29.7873
602,-475,33.1073,28.9072,0.00217224,0.000472013,-0.000871533,0.00253961,0.000104644,-0.39892,0.00165929,0.0141482,1826,1499,33.1073,-28.9072
609,-475,33.0328,28.0662,0.00151616,5.78436e-05,-0.000316226,0.00158178,-7.77509e-06,-0.204602,0.00105712,0.0132456,1833,1499,33.0328,-28.0662
616,-475,32.9882,27.2107,0.00102733,-0.000393265,0.000319408,0.00109585,-0.000461777,0.211294,0.000923797,0.0124201,1840,1499,32.9881,-27.2107
623,-475,32.9792,26.2723,0.000702268,-0.00110209,0.00116742,0.00127548,-0.00167531,0.456431,0.00170884,0.0122205,1847,1499,32.9793,-26.2723
630,-475,32.9164,25.3694,0.000253283,-0.00193134,0.00232857,0.00173301,-0.00341107,0.56609,0.00302215,0.024329,1854,1499,32.9163,-25.3694
637,-475,32.8344,24.6555,-0.000287976,-0.00286635,0.00372779,0.00236725,-0.00552158,0.61892,0.00467441,0.0467814,1861,1499,32.8343,-24.6555
644,-475,32.6244,23.8058,0,0,0,0,0,0,0,-1,1868,1499,32.6244,-23.8058
651,-475,29.886,19.2421,0,0,0,0,0,0,0,-1,1875,1499,29.886,-19.242
658,-475,14.6708,8.80322,0,0,0,0,0,0,0,-1,1882,1499,14.6708,-8.8032
665,-475,9.33435,5.43335,0,0,0,0,0,0,0,-1,1889,1499,9.33439,-5.43332
672,-475,9.38635,1.10474,0,0,0,0,0,0,0,-1,1896,1499,9.38629,-1.10475
679,-475,12.2594,1.31079,0,0,0,0,0,0,0,-1,1903,1499,12.2594,-1.31077
686,-475,0,0,0,0,0,0,0,0,0,-1,1910,1499,0,0
693,-475,0,0,0,0,0,0,0,0,0,-1,1917,1499,0,0
700,-475,0,0,0,0,0,0,0,0,0,-1,1924,1499,0,0
707,-475,0,0,0,0,0,0,0,0,0,-1,1931,1499,0,0
714,-475,0,0,0,0,0,0,0,0,0,-1,1938,1499,0,0
721,-475,0,0,0,0,0,0,0,0,0,-1,1945,1499,0,0
728,-475,0,0,0,0,0,0,0,0,0,-1,1952,1499,0,0
735,-475,0,0,0,0,0,0,0,0,0,-1,1959,1499,0,0
742,-475,0,0,0,0,0,0,0,0,0,-1,1966,1499,0,0
749,-475,0,0,0,0,0,0,0,0,0,-1,1973,1499,0,0
756,-475,0,0,0,0,0,0,0,0,0,-1,1980,1499,0,0
763,-475,0,0,0,0,0,0,0,0,0,-1,1987,1499,0,0
770,-475,0,0,0,0,0,0,0,0,0,-1,1994,1499,0,0
777,-475,0,0,0,0,0,0,0,0,0,-1,2001,1499,0,0
784,-475,0,0,0,0,0,0,0,0,0,-1,2008,1499,0,0
791,-475,0,0,0,0,0,0,0,0,0,-1,2015,1499,0,0
798,-475,0,0,0,0,0,0,0,0,0,-1,2022,1499,0,0
805,-475,0,0,0,0,0,0,0,0,0,-1,2029,1499,0,0
812,-475,0,0,0,0,0,0,0,0,0,-1,2036,1499,0,0
-700,-482,0,0,0,0,0,0,0,0,0,-1,524,1506,0,0
-693,-482,0,0,0,0,0,0,0,0,0,-1,531,1506,0,0
-686,-482,0,0,0,0,0,0,0,0,0,-1,538,1506,0,0
-679,-482,0,0,0,0,0,0,0,0,0,-1,545,1506,0,0
-672,-482,0,0,0,0,0,0,0,0,0,-1,552,1506,0,0
-665,-482,0,0,0,0,0,0,0,0,0,-1,559,1506,0,0
-658,-482,0,0,0,0,0,0,0,0,0,-1,566,1506,0,0
-651,-482,0,0,0,0,0,0,0,0,0,-1,573,1506,0,0
-644,-482,0,0,0,0,0,0,0,0,0,-1,580,1506,0,0
-637,-482,0,0,0,0,0,0,0,0,0,-1,587,1506,0,0
-630,-482,0,0,0,0,0,0,0,0,0,-1,594,1506,0,0
-623,-482,0,0,0,0,0,0,0,0,0,-1,601,1506,0,0
-616,-482,0,0,0,0,0,0,0,0,0,-1,608,1506,0,0
-609,-482,0,0,0,0,0,0,0,0,0,-1,615,1506,0,0
-602,-482,0,0,0,0,0,0,0,0,0,-1,622,1506,0,0
-595,-482,0,0,0,0,0,0,0,0,0,-1,629,1506,0,0
-588,-482,0,0,0,0,0,0,0,0,0,-1,636,1506,0,0
-581,-482,0,0,0,0,0,0,0,0,0,-1,643,1506,0,0
-574,-482,0,0,0,0,0,0,0,0,0,-1,650,1506,0,0
-567,-482,0,0,0,0,0,0,0,0,0,-1,657,1506,0,0
-560,-482,0,0,0,0,0,0,0,0,0,-1,664,1506,0,0
-553,-482,-9.06055,9.34314,0,0,0,0,0,0,0,-1,671,1506,-9.06056,-9.34312
-546,-482,-4.08624,8.34241,0,0,0,0,0,0,0,-1,678,1506,-4.08624,-8.3424
-539,-482,-4.29877,2.73499,0,0,0,0,0,0,0,-1,685,1506,-4.29879,-2.73494
-532,-482,-3.63611,4.23987,0,0,0,0,0,0,0,-1,692,1506,-3.63609,-4.23983
-525,-482,-6.19116,5.24927,0,0,0,0,0,0,0,-1,699,1506,-6.19117,-5.24927
-518,-482,-5.92957,6.39807,0,0,0,0,0,0,0,-1,706,1506,-5.92958,-6.39806
-511,-482,-7.74634,11.9137,0,0,0,0,0,0,0,-1,713,1506,-7.74633,-11.9137
-504,-482,-6.42358,13.4211,0,0,0,0,0,0,0,-1,720,1506,-6.42356,-13.4212
-497,-482,-8.86163,17.7108,0,0,0,0,0,0,0,-1,727,1506,-8.86163,-17.7109
-490,-482,-14.6341,26.7939,0,0,0,0,0,0,0,-1,734,1506,-14.6341,-26.7939
-483,-482,-14.5899,27.8347,0.00307598,0.00426076,0.00401764,0.00772945,-0.000392706,0.858595,0.00528873,0.0135479,741,1506,-14.5899,-27.8347
-476,-482,-14.6145,28.7562,0.0025319,0.00298499,0.00293705,0.00570422,-0.000187327,0.823889,0.00386677,0.0106856,748,1506,-14.6145,-28.7562
-469,-482,-14.6916,29.6603,0.00210415,0.00210351,0.00216606,0.00426989,-6.22268e-05,0.785325,0.00286756,0.013748,755,1506,-14.6916,-29.6602
-462,-482,-14.7448,30.5247,0.00184531,0.00164418,0.00166505,0.00341283,7.66562e-05,0.755235,0.0022501,0.0150606,762,1506,-14.7448,-30.5246
-455,-482,-14.7974,31.3962,0.00176909,0.00153245,0.00142318,0.00307886,0.000222677,0.743924,0.00198252,0.0151587,769,1506,-14.7974,-31.3963
-448,-482,-14.8536,32.298,0.00188331,0.00170099,0.00139025,0.00318539,0.000398913,0.752659,0.0020039,0.0156556,776,1506,-14.8537,-32.298
-441,-482,-14.9014,33.1584,0.00218057,0.00214967,0.00157895,0.00374415,0.000586093,0.780506,0.00232549,0.0139286,783,1506,-14.9014,-33.1584
-434,-482,-14.9505,34.0382,0.00267087,0.00284712,0.00195552,0.0047165,0.000801496,0.807916,0.00291414,0.0154149,790,1506,-14.9505,-34.0382
-427,-482,-14.9792,34.9703,0.00343618,0.00392579,0.00257469,0.00626728,0.00109469,0.832797,0.00386532,0.0209599,797,1506,-14.9792,-34.9703
-420,-482,-15.0601,35.9283,0,0,0,0,0,0,0,-1,804,1506,-15.0601,-35.9284
-413,-482,-6.56415,22.3163,0,0,0,0,0,0,0,-1,811,1506,-6.56417,-22.3163
-406,-482,-2.51373,12.7556,0,0,0,0,0,0,0,-1,818,1506,-2.51376,-12.7556
-399,-482,-1.3822,9.22595,0,0,0,0,0,0,0,-1,825,1506,-1.38221,-9.22598
-392,-482,-1.06836,9.22729,0,0,0,0,0,0,0,-1,832,1506,-1.06835,-9.2273
-385,-482,0.0647583,8.90649,0,0,0,0,0,0,0,-1,839,1506,0.0647778,-8.90644
-378,-482,0.215698,5.96948,0,0,0,0,0,0,0,-1,846,1506,0.215681,-5.9695
-371,-482,-0.10907,8.10437,0,0,0,0,0,0,0,-1,853,1506,-0.109063,-8.10433
-364,-482,-0.154968,10.5032,0,0,0,0,0,0,0,-1,860,1506,-0.154976,-10.5032
-357,-482,2.14807,4.60144,0,0,0,0,0,0,0,-1,867,1506,2.14807,-4.60144
-350,-482,-7.5813,-1.45935,0,0,0,0,0,0,0,-1,874,1506,-7.58133,1.45937
-343,-482,-5.80902,1.81226,0,0,0,0,0,0,0,-1,881,1506,-5.80903,-1.81221
-336,-482,2.52826,-0.390503,0,0,0,0,0,0,0,-1,888,1506,2.52826,0.390456
-329,-482,0,0,0,0,0,0,0,0,0,-1,895,1506,0,0
-322,-482,0,0,0,0,0,0,0,0,0,-1,902,1506,0,0
-315,-482,0,0,0,0,0,0,0,0,0,-1,909,1506,0,0
-308,-482,0,0,0,0,0,0,0,0,0,-1,916,1506,0,0
-301,-482,0,0,0,0,0,0,0,0,0,-1,923,1506,0,0
-294,-482,0,0,0,0,0,0,0,0,0,-1,930,1506,0,0
-287,-482,0,0,0,0,0,0,0,0,0,-1,937,1506,0,0
-280,-482,0,0,0,0,0,0,0,0,0,-1,944,1506,0,0
-273,-482,0,0,0,0,0,0,0,0,0,-1,951,1506,0,0
-266,-482,0,0,0,0,0,0,0,0,0,-1,958,1506,0,0
-259,-482,0,0,0,0,0,0,0,0,0,-1,965,1506,0,0
-252,-482,0,0,0,0,0,0,0,0,0,-1,972,1506,0,0
-245,-482,0,0,0,0,0,0,0,0,0,-1,979,1506,0,0
-238,-482,0,0,0,0,0,0,0,0,0,-1,986,1506,0,0
-231,-482,0,0,0,0,0,0,0,0,0,-1,993,1506,0,0
-224,-482,0,0,0,0,0,0,0,0,0,-1,1000,1506,0,0
-217,-482,0,0,0,0,0,0,0,0,0,-1,1007,1506,0,0
-210,-482,0,0,0,0,0,0,0,0,0,-1,1014,1506,0,0
-203,-482,0,0,0,0,0,0,0,0,0,-1,1021,1506,0,0
-196,-482,0,0,0,0,0,0,0,0,0,-1,1028,1506,0,0
-189,-482,0,0,0,0,0,0,0,0,0,-1,1035,1506,0,0
-182,-482,0,0,0,0,0,0,0,0,0,-1,1042,1506,0,0
-175,-482,0,0,0,0,0,0,0,0,0,-1,1049,1506,0,0
-168,-482,0,0,0,0,0,0,0,0,0,-1,1056,1506,0,0
-161,-482,0,0,0,0,0,0,0,0,0,-1,1063,1506,0,0
-154,-482,0,0,0,0,0,0,0,0,0,-1,1070,1506,0,0
-147,-482,0,0,0,0,0,0,0,0,0,-1,1077,1506,0,0
-140,-482,0,0,0,0,0,0,0,0,0,-1,1084,1506,0,0
-133,-482,0,0,0,0,0,0,0,0,0,-1,1091,1506,0,0
-126,-482,0,0,0,0,0,0,0,0,0,-1,1098,1506,0,0
-119,-482,0,0,0,0,0,0,0,0,0,-1,1105,1506,0,0
-112,-482,0,0,0,0,0,0,0,0,0,-1,1112,1506,0,0
-105,-482,0,0,0,0,0,0,0,0,0,-1,1119,1506,0,0
-98,-482,0,0,0,0,0,0,0,0,0,-1,1126,1506,0,0
-91,-482,0,0,0,0,0,0,0,0,0,-1,1133,1506,0,0
-84,-482,0,0,0,0,0,0,0,0,0,-1,1140,1506,0,0
-77,-482,0,0,0,0,0,0,0,0,0,-1,1147,1506,0,0
-70,-482,0,0,0,0,0,0,0,0,0,-1,1154,1506,0,0
-63,-482,0,0,0,0,0,0,0,0,0,-1,1161,1506,0,0
-56,-482,0,0,0,0,0,0,0,0,0,-1,1168,1506,0,0
-49,-482,0,0,0,0,0,0,0,0,0,-1,1175,1506,0,0
-42,-482,0,0,0,0,0,0,0,0,0,-1,1182,1506,0,0
-35,-482,0,0,0,0,0,0,0,0,0,-1,1189,1506,0,0
-28,-482,0,0,0,0,0,0,0,0,0,-1,1196,1506,0,0
-21,-482,0,0,0,0,0,0,0,0,0,-1,1203,1506,0,0
-14,-482,0,0,0,0,0,0,0,0,0,-1,1210,1506,0,0
-7,-482,0,0,0,0,0,0,0,0,0,-1,1217,1506,0,0
0,-482,0,0,0,0,0,0,0,0,0,-1,1224,1506,0,0
7,-482,0,0,0,0,0,0,0,0,0,-1,1231,1506,0,0
14,-482,0,0,0,0,0,0,0,0,0,-1,1238,1506,0,0
21,-482,0,0,0,0,0,0,0,0,0,-1,1245,1506,0,0
28,-482,0,0,0,0,0,0,0,0,0,-1,1252,1506,0,0
35,-482,0,0,0,0,0,0,0,0,0,-1,1259,1506,0,0
42,-482,0,0,0,0,0,0,0,0,0,-1,1266,1506,0,0
49,-482,0,0,0,0,0,0,0,0,0,-1,1273,1506,0,0
56,-482,0,0,0,0,0,0,0,0,0,-1,1280,1506,0,0
63,-482,0,0,0,0,0,0,0,0,0,-1,1287,1506,0,0
70,-482,0,0,0,0,0,0,0,0,0,-1,1294,1506,0,0
77,-482,0,0,0,0,0,0,0,0,0,-1,1301,1506,0,0
84,-482,0,0,0,0,0,0,0,0,0,-1,1308,1506,0,0
91,-482,0,0,0,0,0,0,0,0,0,-1,1315,1506,0,0
98,-482,0,0,0,0,0,0,0,0,0,-1,1322,1506,0,0
105,-482,0,0,0,0,0,0,0,0,0,-1,1329,1506,0,0
112,-482,0,0,0,0,0,0,0,0,0,-1,1336,1506,0,0
119,-482,0,0,0,0,0,0,0,0,0,-1,1343,1506,0,0
126,-482,0,0,0,0,0,0,0,0,0,-1,1350,1506,0,0
133,-482,0,0,0,0,0,0,0,0,0,-1,1357,1506,0,0
140,-482,0,0,0,0,0,0,0,0,0,-1,1364,1506,0,0
147,-482,0,0,0,0,0,0,0,0,0,-1,1371,1506,0,0
154,-482,0,0,0,0,0,0,0,0,0,-1,1378,1506,0,0
161,-482,0,0,0,0,0,0,0,0,0,-1,1385,1506,0,0
168,-482,0,0,0,0,0,0,0,0,0,-1,1392,1506,0,0
175,-482,0,0,0,0,0,0,0,0,0,-1,1399,1506,0,0
182,-482,0,0,0,0,0,0,0,0,0,-1,1406,1506,0,0
189,-482,0,0,0,0,0,0,0,0,0,-1,1413,1506,0,0
196,-482,0,0,0,0,0,0,0,0,0,-1,1420,1506,0,0
203,-482,0,0,0,0,0,0,0,0,0,-1,1427,1506,0,0
210,-482,0,0,0,0,0,0,0,0,0,-1,1434,1506,0,0
217,-482,0,0,0,0,0,0,0,0,0,-1,1441,1506,0,0
224,-482,0,0,0,0,0,0,0,0,0,-1,1448,1506,0,0
231,-482,0,0,0,0,0,0,0,0,0,-1,1455,1506,0,0
238,-482,0,0,0,0,0,0,0,0,0,-1,1462,1506,0,0
245,-482,0,0,0,0,0,0,0,0,0,-1,1469,1506,0,0
252,-482,0,0,0,0,0,0,0,0,0,-1,1476,1506,0,0
259,-482,0,0,0,0,0,0,0,0,0,-1,1483,1506,0,0
266,-482,0,0,0,0,0,0,0,0,0,-1,1490,1506,0,0
273,-482,0,0,0,0,0,0,0,0,0,-1,1497,1506,0,0
280,-482,0,0,0,0,0,0,0,0,0,-1,1504,1506,0,0
287,-482,0,0,0,0,0,0,0,0,0,-1,1511,1506,0,0
294,-482,0,0,0,0,0,0,0,0,0,-1,1518,1506,0,0
301,-482,0,0,0,0,0,0,0,0,0,-1,1525,1506,0,0
308,-482,0,0,0,0,0,0,0,0,0,-1,1532,1506,0,0
315,-482,0,0,0,0,0,0,0,0,0,-1,1539,1506,0,0
322,-482,0,0,0,0,0,0,0,0,0,-1,1546,1506,0,0
329,-482,0,0,0,0,0,0,0,0,0,-1,1553,1506,0,0
336,-482,0,0,0,0,0,0,0,0,0,-1,1560,1506,0,0
343,-482,0,0,0,0,0,0,0,0,0,-1,1567,1506,0,0
350,-482,0,0,0,0,0,0,0,0,0,-1,1574,1506,0,0
357,-482,0,0,0,0,0,0,0,0,0,-1,1581,1506,0,0
364,-482,0,0,0,0,0,0,0,0,0,-1,1588,1506,0,0
371,-482,0,0,0,0,0,0,0,0,0,-1,1595,1506,0,0
378,-482,0,0,0,0,0,0,0,0,0,-1,1602,1506,0,0
385,-482,0,0,0,0,0,0,0,0,0,-1,1609,1506,0,0
392,-482,0,0,0,0,0,0,0,0,0,-1,1616,1506,0,0
399,-482,0,0,0,0,0,0,0,0,0,-1,1623,1506,0,0
406,-482,0,0,0,0,0,0,0,0,0,-1,1630,1506,0,0
413,-482,0,0,0,0,0,0,0,0,0,-1,1637,1506,0,0
420,-482,0,0,0,0,0,0,0,0,0,-1,1644,1506,0,0
427,-482,0,0,0,0,0,0,0,0,0,-1,1651,1506,0,0
434,-482,0,0,0,0,0,0,0,0,0,-1,1658,1506,0,0
441,-482,0,0,0,0,0,0,0,0,0,-1,1665,1506,0,0
448,-482,4.24146,1.55383,0,0,0,0,0,0,0,-1,1672,1506,4.24149,-1.55381
455,-482,12.4122,1.09729,0,0,0,0,0,0,0,-1,1679,1506,12.4122,-1.09734
462,-482,15.0673,3.13135,0,0,0,0,0,0,0,-1,1686,1506,15.0672,-3.13134
469,-482,15.3793,3.46301,0,0,0,0,0,0,0,-1,1693,1506,15.3793,-3.46307
476,-482,8.69751,9.18738,0,0,0,0,0,0,0,-1,1700,1506,8.69753,-9.18739
483,-482,10.0902,7.17432,0,0,0,0,0,0,0,-1,1707,1506,10.0902,-7.1743
490,-482,11.6289,5.4928,0,0,0,0,0,0,0,-1,1714,1506,11.6289,-5.49283
497,-482,15.9539,7.40222,0,0,0,0,0,0,0,-1,1721,1506,15.9538,-7.40219
504,-482,20.4233,12.006,0,0,0,0,0,0,0,-1,1728,1506,20.4233,-12.006
511,-482,18.4937,12.9175,0,0,0,0,0,0,0,-1,1735,1506,18.4936,-12.9174
518,-482,16.6002,13.9679,0,0,0,0,0,0,0,-1,1742,1506,16.6003,-13.9679
525,-482,18.495,15.9618,0,0,0,0,0,0,0,-1,1749,1506,18.495,-15.9618
532,-482,19.9375,21.0775,0,0,0,0,0,0,0,-1,1756,1506,19.9375,-21.0775
539,-482,20.2291,20.5577,0,0,0,0,0,0,0,-1,1763,1506,20.2291,-20.5578
546,-482,32.4548,36.3556,0,0,0,0,0,0,0,-1,1770,1506,32.4548,-36.3556
553,-482,32.4106,35.1687,0,0,0,0,0,0,0,-1,1777,1506,32.4106,-35.1687
560,-482,32.4315,34.1976,0.00937259,0.00548026,-0.0051326,0.0129156,0.00193724,-0.604184,0.0080428,0.0186152,1784,1506,32.4315,-34.1977
567,-482,32.5165,33.2878,0.00741459,0.00395881,-0.00389621,0.00994887,0.00142454,-0.576689,0.00621242,0.0151321,1791,1506,32.5165,-33.2879
574,-482,32.4592,32.4307,0.005821,0.00284142,-0.00301529,0.00769446,0.000967963,-0.555949,0.00483936,0.0140717,1798,1506,32.4592,-32.4307
581,-482,32.3743,31.568,0.00445711,0.00202053,-0.00231747,0.00585701,0.000620629,-0.543402,0.00371512,0.0101517,1805,1506,32.3742,-31.568
588,-482,32.3225,30.6986,0.00337635,0.00137191,-0.00176589,0.0044046,0.000343658,-0.527292,0.00282881,0.0110478,1812,1506,32.3225,-30.6986
595,-482,32.3038,29.8092,0.00256013,0.000812311,-0.00122855,0.00319389,0.000178558,-0.476251,0.0020723,0.018167,1819,1506,32.3039,-29.8092
602,-482,32.2498,28.9548,0.00189252,0.00041337,-0.000807981,0.0022483,5.75886e-05,-0.414787,0.00148004,0.0222262,1826,1506,32.2497,-28.9549
609,-482,32.1937,28.137,0.00132902,6.48294e-05,-0.000312377,0.001402,-8.14523e-06,-0.229495,0.000937391,0.0171377,1833,1506,32.1938,-28.1369
616,-482,32.1182,27.2538,0.00100613,-0.000300538,0.000268229,0.00105905,-0.000353456,0.194785,0.000848751,0.0126834,1840,1506,32.1181,-27.2537
623,-482,32.0559,26.3552,0.000777949,-0.00106498,0.00119688,0.00136699,-0.00165402,0.457345,0.0017468,0.0244587,1847,1506,32.0559,-26.3553
630,-482,32.1824,25.3113,0,0,0,0,0,0,0,-1,1854,1506,32.1824,-25.3113
637,-482,31.8696,24.8037,0,0,0,0,0,0,0,-1,1861,1506,31.8697,-24.8037
644,-482,29.0146,20.1443,0,0,0,0,0,0,0,-1,1868,1506,29.0147,-20.1442
651,-482,4.03845,7.05273,0,0,0,0,0,0,0,-1,1875,1506,4.03843,-7.05279
658,-482,10.0278,5.87903,0,0,0,0,0,0,0,-1,1882,1506,10.0279,-5.87902
665,-482,8.15198,3.22229,0,0,0,0,0,0,0,-1,1889,1506,8.15199,-3.22232
672,-482,9.87415,1.3147,0,0,0,0,0,0,0,-1,1896,1506,9.87416,-1.31473
679,-482,0,0,0,0,0,0,0,0,0,-1,1903,1506,0,0
686,-482,0,0,0,0,0,0,0,0,0,-1,1910,1506,0,0
693,-482,0,0,0,0,0,0,0,0,0,-1,1917,1506,0,0
700,-482,0,0,0,0,0,0,0,0,0,-1,1924,1506,0,0
707,-482,0,0,0,0,0,0,0,0,0,-1,1931,1506,0,0
714,-482,0,0,0,0,0,0,0,0,0,-1,1938,1506,0,0
721,-482,0,0,0,0,0,0,0,0,0,-1,1945,1506,0,0
728,-482,0,0,0,0,0,0,0,0,0,-1,1952,1506,0,0
735,-482,0,0,0,0,0,0,0,0,0,-1,1959,1506,0,0
742,-482,0,0,0,0,0,0,0,0,0,-1,1966,1506,0,0
749,-482,0,0,0,0,0,0,0,0,0,-1,1973,1506,0,0
756,-482,0,0,0,0,0,0,0,0,0,-1,1980,1506,0,0
763,-482,0,0,0,0,0,0,0,0,0,-1,1987,1506,0,0
770,-482,0,0,0,0,0,0,0,0,0,-1,1994,1506,0,0
777,-482,0,0,0,0,0,0,0,0,0,-1,2001,1506,0,0
784,-482,0,0,0,0,0,0,0,0,0,-1,2008,1506,0,0
791,-482,0,0,0,0,0,0,0,0,0,-1,2015,1506,0,0
798,-482,0,0,0,0,0,0,0,0,0,-1,2022,1506,0,0
805,-482,0,0,0,0,0,0,0,0,0,-1,2029,1506,0,0
812,-482,0,0,0,0,0,0,0,0,0,-1,2036,1506,0,0
-700,-489,0,0,0,0,0,0,0,0,0,-1,524,1513,0,0
-693,-489,0,0,0,0,0,0,0,0,0,-1,531,1513,0,0
-686,-489,0,0,0,0,0,0,0,0,0,-1,538,1513,0,0
-679,-489,0,0,0,0,0,0,0,0,0,-1,545,1513,0,0
-672,-489,0,0,0,0,0,0,0,0,0,-1,552,1513,0,0
-665,-489,0,0,0,0,0,0,0,0,0,-1,559,1513,0,0
-658,-489,0,0,0,0,0,0,0,0,0,-1,566,1513,0,0
-651,-489,0,0,0,0,0,0,0,0,0,-1,573,1513,0,0
-644,-489,0,0,0,0,0,0,0,0,0,-1,580,1513,0,0
-637,-489,0,0,0,0,0,0,0,0,0,-1,587,1513,0,0
-630,-489,0,0,0,0,0,0,0,0,0,-1,594,1513,0,0
-623,-489,0,0,0,0,0,0,0,0,0,-1,601,1513,0,0
-616,-489,0,0,0,0,0,0,0,0,0,-1,608,1513,0,0
-609,-489,0,0,0,0,0,0,0,0,0,-1,615,1513,0,0
-602,-489,0,0,0,0,0,0,0,0,0,-1,622,1513,0,0
-595,-489,0,0,0,0,0,0,0,0,0,-1,629,1513,0,0
-588,-489,0,0,0,0,0,0,0,0,0,-1,636,1513,0,0
-581,-489,0,0,0,0,0,0,0,0,0,-1,643,1513,0,0
-574,-489,0,0,0,0,0,0,0,0,0,-1,650,1513,0,0
-567,-489,0,0,0,0,0,0,0,0,0,-1,657,1513,0,0
-560,-489,0,0,0,0,0,0,0,0,0,-1,664,1513,0,0
-553,-489,-9.42206,8.5116,0,0,0,0,0,0,0,-1,671,1513,-9.42205,-8.51158
-546,-489,-7.80951,8.18506,0,0,0,0,0,0,0,-1,678,1513,-7.8095,-8.18503
-539,-489,-3.06879,2.82349,0,0,0,0,0,0,0,-1,685,1513,-3.06881,-2.82354
-532,-489,-3.14215,2.5835,0,0,0,0,0,0,0,-1,692,1513,-3.14213,-2.58353
-525,-489,-2.604,4.06274,0,0,0,0,0,0,0,-1,699,1513,-2.60399,-4.06274
-518,-489,-5.43774,7.48059,0,0,0,0,0,0,0,-1,706,1513,-5.43777,-7.48058
-511,-489,-7.52856,10.951,0,0,0,0,0,0,0,-1,713,1513,-7.52857,-10.951
-504,-489,-7.17352,12.8508,0,0,0,0,0,0,0,-1,720,1513,-7.17352,-12.8508
-497,-489,-5.51678,14.9254,0,0,0,0,0,0,0,-1,727,1513,-5.51681,-14.9254
-490,-489,-13.8745,26.5979,0,0,0,0,0,0,0,-1,734,1513,-13.8745,-26.5978
-483,-489,-13.7642,27.6578,0.00354357,0.00496455,0.00478235,0.0090889,-0.000580782,0.859141,0.00626185,0.0430005,741,1513,-13.7641,-27.6578
-476,-489,-13.7558,28.7578,0.00283289,0.00343861,0.00347286,0.00662179,-0.000350291,0.828892,0.0045358,0.0120607,748,1513,-13.7558,-28.7578
-469,-489,-13.8027,29.6814,0.0022482,0.00231564,0.00252537,0.00480752,-0.00024368,0.792074,0.00328925,0.0109227,755,1513,-13.8027,-29.6814
-462,-489,-13.8639,30.5691,0.00184885,0.00171773,0.00188348,0.00366791,-0.000101331,0.768001,0.00247974,0.0171798,762,1513,-13.8639,-30.5691
-455,-489,-13.9373,31.4879,0.00166811,0.00148491,0.00152084,0.0031001,5.29171e-05,0.755318,0.00204932,0.0219794,769,1513,-13.9372,-31.4879
-448,-489,-14.0018,32.3518,0.00168996,0.00153053,0.00136529,0.00297786,0.00024263,0.756238,0.00190951,0.0190316,776,1513,-14.0018,-32.3519
-441,-489,-14.0198,33.2161,0.00188382,0.00182703,0.00140936,0.00326508,0.000445777,0.775327,0.00204439,0.0152663,783,1513,-14.0198,-33.216
-434,-489,-14.0917,34.1018,0.00224328,0.0023652,0.00161194,0.00391733,0.000691153,0.804299,0.00241437,0.0173494,790,1513,-14.0917,-34.1018
-427,-489,-14.1423,35.0002,0.00280922,0.0031262,0.00197217,0.00494624,0.000989179,0.825494,0.00302222,0.0194326,797,1513,-14.1423,-35.0002
-420,-489,-14.2047,36.0291,0.00360006,0.00391376,0.00244725,0.00620918,0.00130464,0.817401,0.00378037,0.0300798,804,1513,-14.2047,-36.029
-413,-489,-14.1872,37.1538,0,0,0,0,0,0,0,-1,811,1513,-14.1872,-37.1538
-406,-489,-3.10559,15.8143,0,0,0,0,0,0,0,-1,818,1513,-3.10556,-15.8143
-399,-489,-1.41241,9.10718,0,0,0,0,0,0,0,-1,825,1513,-1.41244,-9.10722
-392,-489,-1.0368,9.30469,0,0,0,0,0,0,0,-1,832,1513,-1.03682,-9.30466
-385,-489,-1.75165,10.6559,0,0,0,0,0,0,0,-1,839,1513,-1.75165,-10.6559
-378,-489,-0.401428,9.87048,0,0,0,0,0,0,0,-1,846,1513,-0.401415,-9.87047
-371,-489,-1.11633,10.6606,0,0,0,0,0,0,0,-1,853,1513,-1.11633,-10.6606
-364,-489,-0.503113,8.98486,0,0,0,0,0,0,0,-1,860,1513,-0.503097,-8.98482
-357,-489,-0.609924,10.9606,0,0,0,0,0,0,0,-1,867,1513,-0.609947,-10.9605
-350,-489,-7.94659,-0.358887,0,0,0,0,0,0,0,-1,874,1513,-7.94657,0.358912
-343,-489,-7.49323,-0.437866,0,0,0,0,0,0,0,-1,881,1513,-7.49322,0.437823
-336,-489,-7.02332,-0.53125,0,0,0,0,0,0,0,-1,888,1513,-7.0233,0.531295
-329,-489,-13.2786,4.96082,0,0,0,0,0,0,0,-1,895,1513,-13.2785,-4.96077
-322,-489,0,0,0,0,0,0,0,0,0,-1,902,1513,0,0
-315,-489,0,0,0,0,0,0,0,0,0,-1,909,1513,0,0
-308,-489,0,0,0,0,0,0,0,0,0,-1,916,1513,0,0
-301,-489,0,0,0,0,0,0,0,0,0,-1,923,1513,0,0
-294,-489,0,0,0,0,0,0,0,0,0,-1,930,1513,0,0
-287,-489,0,0,0,0,0,0,0,0,0,-1,937,1513,0,0
-280,-489,0,0,0,0,0,0,0,0,0,-1,944,1513,0,0
-273,-489,0,0,0,0,0,0,0,0,0,-1,951,1513,0,0
-266,-489,0,0,0,0,0,0,0,0,0,-1,958,1513,0,0
-259,-489,0,0,0,0,0,0,0,0,0,-1,965,1513,0,0
-252,-489,0,0,0,0,0,0,0,0,0,-1,972,1513,0,0
-245,-489,0,0,0,0,0,0,0,0,0,-1,979,1513,0,0
-238,-489,0,0,0,0,0,0,0,0,0,-1,986,1513,0,0
-231,-489,0,0,0,0,0,0,0,0,0,-1,993,1513,0,0
-224,-489,0,0,0,0,0,0,0,0,0,-1,1000,1513,0,0
-217,-489,0,0,0,0,0,0,0,0,0,-1,1007,1513,0,0
-210,-489,0,0,0,0,0,0,0,0,0,-1,1014,1513,0,0
-203,-489,0,0,0,0,0,0,0,0,0,-1,1021,1513,0,0
-196,-489,0,0,0,0,0,0,0,0,0,-1,1028,1513,0,0
-189,-489,0,0,0,0,0,0,0,0,0,-1,1035,1513,0,0
-182,-489,0,0,0,0,0,0,0,0,0,-1,1042,1513,0,0
-175,-489,0,0,0,0,0,0,0,0,0,-1,1049,1513,0,0
-168,-489,0,0,0,0,0,0,0,0,0,-1,1056,1513,0,0
-161,-489,0,0,0,0,0,0,0,0,0,-1,1063,1513,0,0
-154,-489,0,0,0,0,0,0,0,0,0,-1,1070,1513,0,0
-147,-489,0,0,0,0,0,0,0,0,0,-1,1077,1513,0,0
-140,-489,0,0,0,0,0,0,0,0,0,-1,1084,1513,0,0
-133,-489,0,0,0,0,0,0,0,0,0,-1,1091,1513,0,0
-126,-489,0,0,0,0,0,0,0,0,0,-1,1098,1513,0,0
-119,-489,0,0,0,0,0,0,0,0,0,-1,1105,1513,0,0
-112,-489,0,0,0,0,0,0,0,0,0,-1,1112,1513,0,0
-105,-489,0,0,0,0,0,0,0,0,0,-1,1119,1513,0,0
-98,-489,0,0,0,0,0,0,0,0,0,-1,1126,1513,0,0
-91,-489,0,0,0,0,0,0,0,0,0,-1,1133,1513,0,0
-84,-489,0,0,0,0,0,0,0,0,0,-1,1140,1513,0,0
-77,-489,0,0,0,0,0,0,0,0,0,-1,1147,1513,0,0
-70,-489,0,0,0,0,0,0,0,0,0,-1,1154,1513,0,0
-63,-489,0,0,0,0,0,0,0,0,0,-1,1161,1513,0,0
-56,-489,0,0,0,0,0,0,0,0,0,-1,1168,1513,0,0
-49,-489,0,0,0,0,0,0,0,0,0,-1,1175,1513,0,0
-42,-489,0,0,0,0,0,0,0,0,0,-1,1182,1513,0,0
-35,-489,0,0,0,0,0,0,0,0,0,-1,1189,1513,0,0
-28,-489,0,0,0,0,0,0,0,0,0,-1,1196,1513,0,0
-21,-489,0,0,0,0,0,0,0,0,0,-1,1203,1513,0,0
-14,-489,0,0,0,0,0,0,0,0,0,-1,1210,1513,0,0
-7,-489,0,0,0,0,0,0,0,0,0,-1,1217,1513,0,0
0,-489,0,0,0,0,0,0,0,0,0,-1,1224,1513,0,0
7,-489,0,0,0,0,0,0,0,0,0,-1,1231,1513,0,0
14,-489,0,0,0,0,0,0,0,0,0,-1,1238,1513,0,0
21,-489,0,0,0,0,0,0,0,0,0,-1,1245,1513,0,0
28,-489,0,0,0,0,0,0,0,0,0,-1,1252,1513,0,0
35,-489,0,0,0,0,0,0,0,0,0,-1,1259,1513,0,0
42,-489,0,0,0,0,0,0,0,0,0,-1,1266,1513,0,0
49,-489,0,0,0,0,0,0,0,0,0,-1,1273,1513,0,0
56,-489,0,0,0,0,0,0,0,0,0,-1,1280,1513,0,0
63,-489,0,0,0,0,0,0,0,0,0,-1,1287,1513,0,0
70,-489,0,0,0,0,0,0,0,0,0,-1,1294,1513,0,0
77,-489,0,0,0,0,0,0,0,0,0,-1,1301,1513,0,0
84,-489,0,0,0,0,0,0,0,0,0,-1,1308,1513,0,0
91,-489,0,0,0,0,0,0,0,0,0,-1,1315,1513,0,0
98,-489,0,0,0,0,0,0,0,0,0,-1,1322,1513,0,0
105,-489,0,0,0,0,0,0,0,0,0,-1,1329,1513,0,0
112,-489,0,0,0,0,0,0,0,0,0,-1,1336,1513,0,0
119,-489,0,0,0,0,0,0,0,0,0,-1,1343,1513,0,0
126,-489,0,0,0,0,0,0,0,0,0,-1,1350,1513,0,0
133,-489,0,0,0,0,0,0,0,0,0,-1,1357,1513,0,0
140,-489,0,0,0,0,0,0,0,0,0,-1,1364,1513,0,0
147,-489,0,0,0,0,0,0,0,0,0,-1,1371,1513,0,0
154,-489,0,0,0,0,0,0,0,0,0,-1,1378,1513,0,0
161,-489,0,0,0,0,0,0,0,0,0,-1,1385,1513,0,0
168,-489,0,0,0,0,0,0,0,0,0,-1,1392,1513,0,0
175,-489,0,0,0,0,0,0,0,0,0,-1,1399,1513,0,0
182,-489,0,0,0,0,0,0,0,0,0,-1,1406,1513,0,0
189,-489,0,0,0,0,0,0,0,0,0,-1,1413,1513,0,0
196,-489,0,0,0,0,0,0,0,0,0,-1,1420,1513,0,0
203,-489,0,0,0,0,0,0,0,0,0,-1,1427,1513,0,0
210,-489,0,0,0,0,0,0,0,0,0,-1,1434,1513,0,0
217,-489,0,0,0,0,0,0,0,0,0,-1,1441,1513,0,0
224,-489,0,0,0,0,0,0,0,0,0,-1,1448,1513,0,0
231,-489,0,0,0,0,0,0,0,0,0,-1,1455,1513,0,0
238,-489,0,0,0,0,0,0,0,0,0,-1,1462,1513,0,0
245,-489,0,0,0,0,0,0,0,0,0,-1,1469,1513,0,0
252,-489,0,0,0,0,0,0,0,0,0,-1,1476,1513,0,0
259,-489,0,0,0,0,0,0,0,0,0,-1,1483,1513,0,0
266,-489,0,0,0,0,0,0,0,0,0,-1,1490,1513,0,0
273,-489,0,0,0,0,0,0,0,0,0,-1,1497,1513,0,0
280,-489,0,0,0,0,0,0,0,0,0,-1,1504,1513,0,0
287,-489,0,0,0,0,0,0,0,0,0,-1,1511,1513,0,0
294,-489,0,0,0,0,0,0,0,0,0,-1,1518,1513,0,0
301,-489,0,0,0,0,0,0,0,0,0,-1,1525,1513,0,0
308,-489,0,0,0,0,0,0,0,0,0,-1,1532,1513,0,0
315,-489,0,0,0,0,0,0,0,0,0,-1,1539,1513,0,0
322,-489,0,0,0,0,0,0,0,0,0,-1,1546,1513,0,0
329,-489,0,0,0,0,0,0,0,0,0,-1,1553,1513,0,0
336,-489,0,0,0,0,0,0,0,0,0,-1,1560,1513,0,0
343,-489,0,0,0,0,0,0,0,0,0,-1,1567,1513,0,0
350,-489,0,0,0,0,0,0,0,0,0,-1,1574,1513,0,0
357,-489,0,0,0,0,0,0,0,0,0,-1,1581,1513,0,0
364,-489,0,0,0,0,0,0,0,0,0,-1,1588,1513,0,0
371,-489,0,0,0,0,0,0,0,0,0,-1,1595,1513,0,0
378,-489,0,0,0,0,0,0,0,0,0,-1,1602,1513,0,0
385,-489,0,0,0,0,0,0,0,0,0,-1,1609,1513,0,0
392,-489,0,0,0,0,0,0,0,0,0,-1,1616,1513,0,0
399,-489,0,0,0,0,0,0,0,0,0,-1,1623,1513,0,0
406,-489,0,0,0,0,0,0,0,0,0,-1,1630,1513,0,0
413,-489,0,0,0,0,0,0,0,0,0,-1,1637,1513,0,0
420,-489,0,0,0,0,0,0,0,0,0,-1,1644,1513,0,0
427,-489,0,0,0,0,0,0,0,0,0,-1,1651,1513,0,0
434,-489,0,0,0,0,0,0,0,0,0,-1,1658,1513,0,0
441,-489,11.4602,2.56787,0,0,0,0,0,0,0,-1,1665,1513,11.4602,-2.56786
448,-489,12.4425,1.72351,0,0,0,0,0,0,0,-1,1672,1513,12.4425,-1.72349
455,-489,12.5575,1.37463,0,0,0,0,0,0,0,-1,1679,1513,12.5575,-1.37469
462,-489,14.9784,3.84888,0,0,0,0,0,0,0,-1,1686,1513,14.9784,-3.84892
469,-489,15.1367,4.53101,0,0,0,0,0,0,0,-1,1693,1513,15.1368,-4.531
476,-489,15.5536,5.09338,0,0,0,0,0,0,0,-1,1700,1513,15.5536,-5.09339
483,-489,8.96912,8.37805,0,0,0,0,0,0,0,-1,1707,1513,8.96909,-8.37809
490,-489,10.5366,7.49561,0,0,0,0,0,0,0,-1,1714,1513,10.5367,-7.49558
497,-489,14.6051,11.8397,0,0,0,0,0,0,0,-1,1721,1513,14.6051,-11.8397
504,-489,16.7527,14.1735,0,0,0,0,0,0,0,-1,1728,1513,16.7527,-14.1735
511,-489,17.83,17.7993,0,0,0,0,0,0,0,-1,1735,1513,17.83,-17.7993
518,-489,16.4751,14.3682,0,0,0,0,0,0,0,-1,1742,1513,16.4751,-14.3682
525,-489,17.2606,17.4949,0,0,0,0,0,0,0,-1,1749,1513,17.2606,-17.4949
532,-489,19.397,21.0182,0,0,0,0,0,0,0,-1,1756,1513,19.397,-21.0182
539,-489,31.4829,37.3417,0,0,0,0,0,0,0,-1,1763,1513,31.4829,-37.3416
546,-489,31.7,36.2211,0.0121444,0.00882852,-0.00774868,0.0184105,0.0025624,-0.680004,0.011515,0.0490627,1770,1513,31.7,-36.2211
553,-489,31.6536,35.1561,0.00975643,0.00659194,-0.00588454,0.0142677,0.00208063,-0.654064,0.00889972,0.0268021,1777,1513,31.6536,-35.1562
560,-489,31.6428,34.2244,0.00776359,0.00482761,-0.00443122,0.0109637,0.00162755,-0.625446,0.00683152,0.0138829,1784,1513,31.6429,-34.2244
567,-489,31.6488,33.3572,0.00611952,0.00347647,-0.00337481,0.00842233,0.00117367,-0.598783,0.00526743,0.0149046,1791,1513,31.6488,-33.3571
574,-489,31.5773,32.517,0.0047951,0.00247467,-0.0026228,0.00650284,0.000766932,-0.577158,0.00410354,0.0150751,1798,1513,31.5773,-32.5169
581,-489,31.5475,31.6292,0.00366326,0.00175766,-0.00204429,0.00496589,0.000455035,-0.567325,0.00316982,0.0112567,1805,1513,31.5474,-31.6292
588,-489,31.4744,30.757,0.00278886,0.00118511,-0.00159939,0.00377614,0.000197834,-0.55303,0.00245414,0.0135366,1812,1513,31.4744,-30.757
595,-489,31.4241,29.9125,0.00215674,0.000732009,-0.00117146,0.00281542,7.33224e-05,-0.512221,0.00185299,0.0204498,1819,1513,31.4241,-29.9125
602,-489,31.3906,29.0751,0.00167461,0.000483895,-0.000872597,0.0021356,2.29018e-05,-0.486031,0.00141616,0.0258779,1826,1513,31.3907,-29.0751
609,-489,31.3361,28.2219,0.00126074,0.000248212,-0.000491449,0.00146004,4.89078e-05,-0.385276,0.000957474,0.0180503,1833,1513,31.336,-28.2219
616,-489,31.2932,27.278,0.00120202,3.2079e-05,-3.88583e-05,0.00120331,3.07898e-05,-0.0331653,0.00079214,0.0237241,1840,1513,31.2932,-27.2779
623,-489,31.2692,26.2462,0,0,0,0,0,0,0,-1,1847,1513,31.2692,-26.2463
630,-489,30.3123,23.9675,0,0,0,0,0,0,0,-1,1854,1513,30.3123,-23.9676
637,-489,17.2048,11.8091,0,0,0,0,0,0,0,-1,1861,1513,17.2048,-11.8091
644,-489,9.67578,8.45874,0,0,0,0,0,0,0,-1,1868,1513,9.67576,-8.45879
651,-489,6.13818,6.85095,0,0,0,0,0,0,0,-1,1875,1513,6.13823,-6.85097
658,-489,5.43848,7.75513,0,0,0,0,0,0,0,-1,1882,1513,5.43844,-7.75509
665,-489,5.48438,8.59912,0,0,0,0,0,0,0,-1,1889,1513,5.48434,-8.59907
672,-489,0,0,0,0,0,0,0,0,0,-1,1896,1513,0,0
679,-489,0,0,0,0,0,0,0,0,0,-1,1903,1513,0,0
686,-489,0,0,0,0,0,0,0,0,0,-1,1910,1513,0,0
693,-489,0,0,0,0,0,0,0,0,0,-1,1917,1513,0,0
700,-489,0,0,0,0,0,0,0,0,0,-1,1924,1513,0,0
707,-489,0,0,0,0,0,0,0,0,0,-1,1931,1513,0,0
714,-489,0,0,0,0,0,0,0,0,0,-1,1938,1513,0,0
721,-489,0,0,0,0,0,0,0,0,0,-1,1945,1513,0,0
728,-489,0,0,0,0,0,0,0,0,0,-1,1952,1513,0,0
735,-489,0,0,0,0,0,0,0,0,0,-1,1959,1513,0,0
742,-489,0,0,0,0,0,0,0,0,0,-1,1966,1513,0,0
749,-489,0,0,0,0,0,0,0,0,0,-1,1973,1513,0,0
756,-489,0,0,0,0,0,0,0,0,0,-1,1980,1513,0,0
763,-489,0,0,0,0,0,0,0,0,0,-1,1987,1513,0,0
770,-489,0,0,0,0,0,0,0,0,0,-1,1994,1513,0,0
777,-489,0,0,0,0,0,0,0,0,0,-1,2001,1513,0,0
784,-489,0,0,0,0,0,0,0,0,0,-1,2008,1513,0,0
791,-489,0,0,0,0,0,0,0,0,0,-1,2015,1513,0,0
798,-489,0,0,0,0,0,0,0,0,0,-1,2022,1513,0,0
805,-489,0,0,0,0,0,0,0,0,0,-1,2029,1513,0,0
812,-489,0,0,0,0,0,0,0,0,0,-1,2036,1513,0,0
-700,-496,0,0,0,0,0,0,0,0,0,-1,524,1520,0,0
-693,-496,0,0,0,0,0,0,0,0,0,-1,531,1520,0,0
-686,-496,0,0,0,0,0,0,0,0,0,-1,538,1520,0,0
-679,-496,0,0,0,0,0,0,0,0,0,-1,545,1520,0,0
-672,-496,0,0,0,0,0,0,0,0,0,-1,552,1520,0,0
-665,-496,0,0,0,0,0,0,0,0,0,-1,559,1520,0,0
-658,-496,0,0,0,0,0,0,0,0,0,-1,566,1520,0,0
-651,-496,0,0,0,0,0,0,0,0,0,-1,573,1520,0,0
-644,-496,0,0,0,0,0,0,0,0,0,-1,580,1520,0,0
-637,-496,0,0,0,0,0,0,0,0,0,-1,587,1520,0,0
-630,-496,0,0,0,0,0,0,0,0,0,-1,594,1520,0,0
-623,-496,0,0,0,0,0,0,0,0,0,-1,601,1520,0,0
-616,-496,0,0,0,0,0,0,0,0,0,-1,608,1520,0,0
-609,-496,0,0,0,0,0,0,0,0,0,-1,615,1520,0,0
-602,-496,0,0,0,0,0,0,0,0,0,-1,622,1520,0,0
-595,-496,0,0,0,0,0,0,0,0,0,-1,629,1520,0,0
-588,-496,0,0,0,0,0,0,0,0,0,-1,636,1520,0,0
-581,-496,0,0,0,0,0,0,0,0,0,-1,643,1520,0,0
-574,-496,0,0,0,0,0,0,0,0,0,-1,650,1520,0,0
-567,-496,0,0,0,0,0,0,0,0,0,-1,657,1520,0,0
-560,-496,0,0,0,0,0,0,0,0,0,-1,664,1520,0,0
-553,-496,0,0,0,0,0,0,0,0,0,-1,671,1520,0,0
-546,-496,-8.09711,7.94836,0,0,0,0,0,0,0,-1,678,1520,-8.09712,-7.94842
-539,-496,-3.20129,1.16052,0,0,0,0,0,0,0,-1,685,1520,-3.20131,-1.16054
-532,-496,-2.98279,2.62146,0,0,0,0,0,0,0,-1,692,1520,-2.98278,-2.62151
-525,-496,-2.75201,4.08032,0,0,0,0,0,0,0,-1,699,1520,-2.75201,-4.08031
-518,-496,-2.6333,5.36072,0,0,0,0,0,0,0,-1,706,1520,-2.63328,-5.36077
-511,-496,-7.92126,9.68604,0,0,0,0,0,0,0,-1,713,1520,-7.92127,-9.68598
-504,-496,-7.51044,11.6274,0,0,0,0,0,0,0,-1,720,1520,-7.51042,-11.6275
-497,-496,-5.30933,14.4291,0,0,0,0,0,0,0,-1,727,1520,-5.30932,-14.4291
-490,-496,-8.21246,19.5051,0,0,0,0,0,0,0,-1,734,1520,-8.21243,-19.5051
-483,-496,-13.0586,27.8259,0,0,0,0,0,0,0,-1,741,1520,-13.0586,-27.826
-476,-496,-12.9161,28.7936,0.00306975,0.00383919,0.00388286,0.00735634,-0.000447401,0.834778,0.00505996,0.0334454,748,1520,-12.9161,-28.7936
-469,-496,-12.9315,29.7303,0.00237731,0.00246258,0.00277049,0.00519077,-0.000350868,0.793092,0.0035832,0.0110495,755,1520,-12.9315,-29.7304
-462,-496,-12.9905,30.6304,0.00187745,0.00173897,0.00201189,0.00382129,-0.000204865,0.768198,0.00261849,0.0165721,762,1520,-12.9905,-30.6304
-455,-496,-13.0407,31.5508,0.00161555,0.00140212,0.00155377,0.00306627,-4.85944e-05,0.751111,0.00206057,0.0229154,769,1520,-13.0407,-31.5508
-448,-496,-13.0802,32.4377,0.00154972,0.00134366,0.00131043,0.00276116,0.000132219,0.746166,0.00179832,0.0205237,776,1520,-13.0802,-32.4378
-441,-496,-13.1108,33.2925,0.00163813,0.00151417,0.00126027,0.00283794,0.000314352,0.760828,0.00179637,0.0148857,783,1520,-13.1108,-33.2925
-434,-496,-13.1871,34.1709,0.00186158,0.00191614,0.00135747,0.00324661,0.000531117,0.795445,0.00201088,0.015013,790,1520,-13.1871,-34.1709
-427,-496,-13.241,35.0769,0.00222169,0.00243245,0.00156425,0.00389487,0.000759272,0.819032,0.00238413,0.0195391,797,1520,-13.241,-35.0769
-420,-496,-13.2864,35.9292,0.0027607,0.00300506,0.00187396,0.00476082,0.00100494,0.817952,0.00289758,0.0204803,804,1520,-13.2864,-35.9292
-413,-496,-13.2445,36.8464,0.00352088,0.0036415,0.00229976,0.00588175,0.00128064,0.798508,0.00357165,0.0345775,811,1520,-13.2445,-36.8464
-406,-496,-13.1365,38.0122,0,0,0,0,0,0,0,-1,818,1520,-13.1365,-38.0121
-399,-496,-11.5063,36.5204,0,0,0,0,0,0,0,-1,825,1520,-11.5063,-36.5204
-392,-496,-1.49786,12.387,0,0,0,0,0,0,0,-1,832,1520,-1.49788,-12.387
-385,-496,-1.72437,11.4985,0,0,0,0,0,0,0,-1,839,1520,-1.72436,-11.4985
-378,-496,-1.45532,14.0719,0,0,0,0,0,0,0,-1,846,1520,-1.45533,-14.0719
-371,-496,0.0877075,12.5299,0,0,0,0,0,0,0,-1,853,1520,0.0876896,-12.5299
-364,-496,0.0881348,10.6422,0,0,0,0,0,0,0,-1,860,1520,0.0881368,-10.6423
-357,-496,0.323792,7.56812,0,0,0,0,0,0,0,-1,867,1520,0.323782,-7.56806
-350,-496,2.1535,7.18945,0,0,0,0,0,0,0,-1,874,1520,2.15348,-7.1894
-343,-496,-7.56244,0.335327,0,0,0,0,0,0,0,-1,881,1520,-7.56242,-0.335322
-336,-496,-3.99249,6.02222,0,0,0,0,0,0,0,-1,888,1520,-3.99246,-6.0222
-329,-496,-6.93689,-0.100342,0,0,0,0,0,0,0,-1,895,1520,-6.93686,0.1003
-322,-496,-6.17505,0.494385,0,0,0,0,0,0,0,-1,902,1520,-6.17507,-0.49437
-315,-496,-7.539,5.78638,0,0,0,0,0,0,0,-1,909,1520,-7.53898,-5.78633
-308,-496,0,0,0,0,0,0,0,0,0,-1,916,1520,0,0
-301,-496,0,0,0,0,0,0,0,0,0,-1,923,1520,0,0
-294,-496,0,0,0,0,0,0,0,0,0,-1,930,1520,0,0
-287,-496,0,0,0,0,0,0,0,0,0,-1,937,1520,0,0
-280,-496,0,0,0,0,0,0,0,0,0,-1,944,1520,0,0
-273,-496,0,0,0,0,0,0,0,0,0,-1,951,1520,0,0
-266,-496,0,0,0,0,0,0,0,0,0,-1,958,1520,0,0
-259,-496,0,0,0,0,0,0,0,0,0,-1,965,1520,0,0
-252,-496,0,0,0,0,0,0,0,0,0,-1,972,1520,0,0
-245,-496,0,0,0,0,0,0,0,0,0,-1,979,1520,0,0
-238,-496,0,0,0,0,0,0,0,0,0,-1,986,1520,0,0
-231,-496,0,0,0,0,0,0,0,0,0,-1,993,1520,0,0
-224,-496,0,0,0,0,0,0,0,0,0,-1,1000,1520,0,0
-217,-496,0,0,0,0,0,0,0,0,0,-1,1007,1520,0,0
-210,-496,0,0,0,0,0,0,0,0,0,-1,1014,1520,0,0
-203,-496,0,0,0,0,0,0,0,0,0,-1,1021,1520,0,0
-196,-496,0,0,0,0,0,0,0,0,0,-1,1028,1520,0,0
-189,-496,0,0,0,0,0,0,0,0,0,-1,1035,1520,0,0
-182,-496,0,0,0,0,0,0,0,0,0,-1,1042,1520,0,0
-175,-496,0,0,0,0,0,0,0,0,0,-1,1049,1520,0,0
-168,-496,0,0,0,0,0,0,0,0,0,-1,1056,1520,0,0
-161,-496,0,0,0,0,0,0,0,0,0,-1,1063,1520,0,0
-154,-496,0,0,0,0,0,0,0,0,0,-1,1070,1520,0,0
-147,-496,0,0,0,0,0,0,0,0,0,-1,1077,1520,0,0
-140,-496,0,0,0,0,0,0,0,0,0,-1,1084,1520,0,0
-133,-496,0,0,0,0,0,0,0,0,0,-1,1091,1520,0,0
-126,-496,0,0,0,0,0,0,0,0,0,-1,1098,1520,0,0
-119,-496,0,0,0,0,0,0,0,0,0,-1,1105,1520,0,0
-112,-496,0,0,0,0,0,0,0,0,0,-1,1112,1520,0,0
-105,-496,0,0,0,0,0,0,0,0,0,-1,1119,1520,0,0
-98,-496,0,0,0,0,0,0,0,0,0,-1,1126,1520,0,0
-91,-496,0,0,0,0,0,0,0,0,0,-1,1133,1520,0,0
-84,-496,0,0,0,0,0,0,0,0,0,-1,1140,1520,0,0
-77,-496,0,0,0,0,0,0,0,0,0,-1,1147,1520,0,0
-70,-496,0,0,0,0,0,0,0,0,0,-1,1154,1520,0,0
-63,-496,0,0,0,0,0,0,0,0,0,-1,1161,1520,0,0
-56,-496,0,0,0,0,0,0,0,0,0,-1,1168,1520,0,0
-49,-496,0,0,0,0,0,0,0,0,0,-1,1175,1520,0,0
-42,-496,0,0,0,0,0,0,0,0,0,-1,1182,1520,0,0
-35,-496,0,0,0,0,0,0,0,0,0,-1,1189,1520,0,0
-28,-496,0,0,0,0,0,0,0,0,0,-1,1196,1520,0,0
-21,-496,0,0,0,0,0,0,0,0,0,-1,1203,1520,0,0
-14,-496,0,0,0,0,0,0,0,0,0,-1,1210,1520,0,0
-7,-496,0,0,0,0,0,0,0,0,0,-1,1217,1520,0,0
0,-496,0,0,0,0,0,0,0,0,0,-1,1224,1520,0,0
7,-496,0,0,0,0,0,0,0,0,0,-1,1231,1520,0,0
14,-496,0,0,0,0,0,0,0,0,0,-1,1238,1520,0,0
21,-496,0,0,0,0,0,0,0,0,0,-1,1245,1520,0,0
28,-496,0,0,0,0,0,0,0,0,0,-1,1252,1520,0,0
35,-496,0,0,0,0,0,0,0,0,0,-1,1259,1520,0,0
42,-496,0,0,0,0,0,0,0,0,0,-1,1266,1520,0,0
49,-496,0,0,0,0,0,0,0,0,0,-1,1273,1520,0,0
56,-496,0,0,0,0,0,0,0,0,0,-1,1280,1520,0,0
63,-496,0,0,0,0,0,0,0,0,0,-1,1287,1520,0,0
70,-496,0,0,0,0,0,0,0,0,0,-1,1294,1520,0,0
77,-496,0,0,0,0,0,0,0,0,0,-1,1301,1520,0,0
84,-496,0,0,0,0,0,0,0,0,0,-1,1308,1520,0,0
91,-496,0,0,0,0,0,0,0,0,0,-1,1315,1520,0,0
98,-496,0,0,0,0,0,0,0,0,0,-1,1322,1520,0,0
105,-496,0,0,0,0,0,0,0,0,0,-1,1329,1520,0,0
112,-496,0,0,0,0,0,0,0,0,0,-1,1336,1520,0,0
119,-496,0,0,0,0,0,0,0,0,0,-1,1343,1520,0,0
126,-496,0,0,0,0,0,0,0,0,0,-1,1350,1520,0,0
133,-496,0,0,0,0,0,0,0,0,0,-1,1357,1520,0,0
140,-496,0,0,0,0,0,0,0,0,0,-1,1364,1520,0,0
147,-496,0,0,0,0,0,0,0,0,0,-1,1371,1520,0,0
154,-496,0,0,0,0,0,0,0,0,0,-1,1378,1520,0,0
161,-496,0,0,0,0,0,0,0,0,0,-1,1385,1520,0,0
168,-496,0,0,0,0,0,0,0,0,0,-1,1392,1520,0,0
175,-496,0,0,0,0,0,0,0,0,0,-1,1399,1520,0,0
182,-496,0,0,0,0,0,0,0,0,0,-1,1406,1520,0,0
189,-496,0,0,0,0,0,0,0,0,0,-1,1413,1520,0,0
196,-496,0,0,0,0,0,0,0,0,0,-1,1420,1520,0,0
203,-496,0,0,0,0,0,0,0,0,0,-1,1427,1520,0,0
210,-496,0,0,0,0,0,0,0,0,0,-1,1434,1520,0,0
217,-496,0,0,0,0,0,0,0,0,0,-1,1441,1520,0,0
224,-496,0,0,0,0,0,0,0,0,0,-1,1448,1520,0,0
231,-496,0,0,0,0,0,0,0,0,0,-1,1455,1520,0,0
238,-496,0,0,0,0,0,0,0,0,0,-1,1462,1520,0,0
245,-496,0,0,0,0,0,0,0,0,0,-1,1469,1520,0,0
252,-496,0,0,0,0,0,0,0,0,0,-1,1476,1520,0,0
259,-496,0,0,0,0,0,0,0,0,0,-1,1483,1520,0,0
266,-496,0,0,0,0,0,0,0,0,0,-1,1490,1520,0,0
273,-496,0,0,0,0,0,0,0,0,0,-1,1497,1520,0,0
280,-496,0,0,0,0,0,0,0,0,0,-1,1504,1520,0,0
287,-496,0,0,0,0,0,0,0,0,0,-1,1511,1520,0,0
294,-496,0,0,0,0,0,0,0,0,0,-1,1518,1520,0,0
301,-496,0,0,0,0,0,0,0,0,0,-1,1525,1520,0,0
308,-496,0,0,0,0,0,0,0,0,0,-1,1532,1520,0,0
315,-496,0,0,0,0,0,0,0,0,0,-1,1539,1520,0,0
322,-496,0,0,0,0,0,0,0,0,0,-1,1546,1520,0,0
329,-496,0,0,0,0,0,0,0,0,0,-1,1553,1520,0,0
336,-496,0,0,0,0,0,0,0,0,0,-1,1560,1520,0,0
343,-496,0,0,0,0,0,0,0,0,0,-1,1567,1520,0,0
350,-496,0,0,0,0,0,0,0,0,0,-1,1574,1520,0,0
357,-496,0,0,0,0,0,0,0,0,0,-1,1581,1520,0,0
364,-496,0,0,0,0,0,0,0,0,0,-1,1588,1520,0,0
371,-496,0,0,0,0,0,0,0,0,0,-1,1595,1520,0,0
378,-496,0,0,0,0,0,0,0,0,0,-1,1602,1520,0,0
385,-496,0,0,0,0,0,0,0,0,0,-1,1609,1520,0,0
392,-496,0,0,0,0,0,0,0,0,0,-1,1616,1520,0,0
399,-496,0,0,0,0,0,0,0,0,0,-1,1623,1520,0,0
406,-496,0,0,0,0,0,0,0,0,0,-1,1630,1520,0,0
413,-496,0,0,0,0,0,0,0,0,0,-1,1637,1520,0,0
420,-496,0,0,0,0,0,0,0,0,0,-1,1644,1520,0,0
427,-496,0,0,0,0,0,0,0,0,0,-1,1651,1520,0,0
434,-496,11.0457,3.37732,0,0,0,0,0,0,0,-1,1658,1520,11.0456,-3.37736
441,-496,11.788,2.75488,0,0,0,0,0,0,0,-1,1665,1520,11.7879,-2.75485
448,-496,12.2146,2.18494,0,0,0,0,0,0,0,-1,1672,1520,12.2146,-2.18489
455,-496,12.3489,1.65173,0,0,0,0,0,0,0,-1,1679,1520,12.3489,-1.65178
462,-496,12.1912,1.32361,0,0,0,0,0,0,0,-1,1686,1520,12.1911,-1.32357
469,-496,14.8138,5.77954,0,0,0,0,0,0,0,-1,1693,1520,14.8138,-5.77958
476,-496,15.2449,6.27942,0,0,0,0,0,0,0,-1,1700,1520,15.2449,-6.27936
483,-496,9.19812,6.88367,0,0,0,0,0,0,0,-1,1707,1520,9.19812,-6.88361
490,-496,10.2123,7.97144,0,0,0,0,0,0,0,-1,1714,1520,10.2122,-7.97145
497,-496,13.9297,12.2981,0,0,0,0,0,0,0,-1,1721,1520,13.9297,-12.2982
504,-496,16.3271,16.6501,0,0,0,0,0,0,0,-1,1728,1520,16.3272,-16.6502
511,-496,17.6753,18.0685,0,0,0,0,0,0,0,-1,1735,1520,17.6753,-18.0685
518,-496,17.0537,17.3118,0,0,0,0,0,0,0,-1,1742,1520,17.0538,-17.3118
525,-496,18.2721,19.3259,0,0,0,0,0,0,0,-1,1749,1520,18.2721,-19.3259
532,-496,31.0188,37.1586,0,0,0,0,0,0,0,-1,1756,1520,31.0188,-37.1586
539,-496,30.5599,37.2991,0,0,0,0,0,0,0,-1,1763,1520,30.5599,-37.2991
546,-496,30.7307,36.1188,0.00989059,0.00752515,-0.00655702,0.0153707,0.00204504,-0.69617,0.00963805,0.0260357,1770,1520,30.7308,-36.1188
553,-496,30.8373,35.1096,0.00788363,0.00562997,-0.00494966,0.0118331,0.0016805,-0.673477,0.00739251,0.0169369,1777,1520,30.8372,-35.1096
560,-496,30.8206,34.264,0.00623009,0.0041373,-0.00371505,0.00904329,0.00132409,-0.648123,0.00563955,0.0158175,1784,1520,30.8205,-34.264
567,-496,30.7792,33.4008,0.0048992,0.00298823,-0.0028502,0.00694981,0.000937622,-0.623668,0.00435445,0.0124793,1791,1520,30.7791,-33.4007
574,-496,30.7145,32.5294,0.00385115,0.00213585,-0.00224836,0.00539988,0.000587118,-0.603189,0.00342105,0.0130288,1798,1520,30.7145,-32.5294
581,-496,30.6599,31.6935,0.00298277,0.00155723,-0.00182123,0.00422574,0.000314259,-0.598878,0.00271847,0.0144008,1805,1520,30.6599,-31.6935
588,-496,30.645,30.84,0.00235403,0.00110859,-0.00152725,0.00338063,8.19899e-05,-0.591818,0.00222693,0.0168835,1812,1520,30.645,-30.84
595,-496,30.5757,29.9954,0.0019475,0.000812668,-0.00126613,0.00276755,-7.37701e-06,-0.574741,0.0018475,0.0186757,1819,1520,30.5757,-29.9953
602,-496,30.5264,29.1576,0.00171038,0.000771937,-0.00114161,0.00247544,6.87526e-06,-0.590415,0.001648,0.0192374,1826,1520,30.5264,-29.1576
609,-496,30.5015,28.2288,0.00151834,0.000685362,-0.000934528,0.00212499,7.87165e-05,-0.575775,0.00139116,0.0186153,1833,1520,30.5015,-28.2288
616,-496,30.4963,27.0878,0,0,0,0,0,0,0,-1,1840,1520,30.4963,-27.0878
623,-496,28.9139,24.1847,0,0,0,0,0,0,0,-1,1847,1520,28.9139,-24.1846
630,-496,18.5656,13.8966,0,0,0,0,0,0,0,-1,1854,1520,18.5655,-13.8967
637,-496,14.6411,10.1016,0,0,0,0,0,0,0,-1,1861,1520,14.6411,-10.1016
644,-496,12.4537,10.087,0,0,0,0,0,0,0,-1,1868,1520,12.4537,-10.0871
651,-496,8.18506,5.47803,0,0,0,0,0,0,0,-1,1875,1520,8.18505,-5.47806
658,-496,7.79993,4.02563,0,0,0,0,0,0,0,-1,1882,1520,7.79997,-4.02568
665,-496,5.47583,7.90625,0,0,0,0,0,0,0,-1,1889,1520,5.47581,-7.90628
672,-496,0,0,0,0,0,0,0,0,0,-1,1896,1520,0,0
679,-496,0,0,0,0,0,0,0,0,0,-1,1903,1520,0,0
686,-496,0,0,0,0,0,0,0,0,0,-1,1910,1520,0,0
693,-496,0,0,0,0,0,0,0,0,0,-1,1917,1520,0,0
700,-496,0,0,0,0,0,0,0,0,0,-1,1924,1520,0,0
707,-496,0,0,0,0,0,0,0,0,0,-1,1931,1520,0,0
714,-496,0,0,0,0,0,0,0,0,0,-1,1938,1520,0,0
721,-496,0,0,0,0,0,0,0,0,0,-1,1945,1520,0,0
728,-496,0,0,0,0,0,0,0,0,0,-1,1952,1520,0,0
735,-496,0,0,0,0,0,0,0,0,0,-1,1959,1520,0,0
742,-496,0,0,0,0,0,0,0,0,0,-1,1966,1520,0,0
749,-496,0,0,0,0,0,0,0,0,0,-1,1973,1520,0,0
756,-496,0,0,0,0,0,0,0,0,0,-1,1980,1520,0,0
763,-496,0,0,0,0,0,0,0,0,0,-1,1987,1520,0,0
770,-496,0,0,0,0,0,0,0,0,0,-1,1994,1520,0,0
777,-496,0,0,0,0,0,0,0,0,0,-1,2001,1520,0,0
784,-496,0,0,0,0,0,0,0,0,0,-1,2008,1520,0,0
791,-496,0,0,0,0,0,0,0,0,0,-1,2015,1520,0,0
798,-496,0,0,0,0,0,0,0,0,0,-1,2022,1520,0,0
805,-496,0,0,0,0,0,0,0,0,0,-1,2029,1520,0,0
812,-496,0,0,0,0,0,0,0,0,0,-1,2036,1520,0,0
-700,-503,0,0,0,0,0,0,0,0,0,-1,524,1527,0,0
-693,-503,0,0,0,0,0,0,0,0,0,-1,531,1527,0,0
-686,-503,0,0,0,0,0,0,0,0,0,-1,538,1527,0,0
-679,-503,0,0,0,0,0,0,0,0,0,-1,545,1527,0,0
-672,-503,0,0,0,0,0,0,0,0,0,-1,552,1527,0,0
-665,-503,0,0,0,0,0,0,0,0,0,-1,559,1527,0,0
-658,-503,0,0,0,0,0,0,0,0,0,-1,566,1527,0,0
-651,-503,0,0,0,0,0,0,0,0,0,-1,573,1527,0,0
-644,-503,0,0,0,0,0,0,0,0,0,-1,580,1527,0,0
-637,-503,0,0,0,0,0,0,0,0,0,-1,587,1527,0,0
-630,-503,0,0,0,0,0,0,0,0,0,-1,594,1527,0,0
-623,-503,0,0,0,0,0,0,0,0,0,-1,601,1527,0,0
-616,-503,0,0,0,0,0,0,0,0,0,-1,608,1527,0,0
-609,-503,0,0,0,0,0,0,0,0,0,-1,615,1527,0,0
-602,-503,0,0,0,0,0,0,0,0,0,-1,622,1527,0,0
-595,-503,0,0,0,0,0,0,0,0,0,-1,629,1527,0,0
-588,-503,0,0,0,0,0,0,0,0,0,-1,636,1527,0,0
-581,-503,0,0,0,0,0,0,0,0,0,-1,643,1527,0,0
-574,-503,0,0,0,0,0,0,0,0,0,-1,650,1527,0,0
-567,-503,0,0,0,0,0,0,0,0,0,-1,657,1527,0,0
-560,-503,0,0,0,0,0,0,0,0,0,-1,664,1527,0,0
-553,-503,0,0,0,0,0,0,0,0,0,-1,671,1527,0,0
-546,-503,0,0,0,0,0,0,0,0,0,-1,678,1527,0,0
-539,-503,3.50177,4.26428,0,0,0,0,0,0,0,-1,685,1527,3.50177,-4.26424
-532,-503,-3.13196,1.05298,0,0,0,0,0,0,0,-1,692,1527,-3.13194,-1.05299
-525,-503,-2.94293,2.59314,0,0,0,0,0,0,0,-1,699,1527,-2.94296,-2.59314
-518,-503,-2.7395,4.05872,0,0,0,0,0,0,0,-1,706,1527,-2.73948,-4.05871
-511,-503,-1.60022,7.23877,0,0,0,0,0,0,0,-1,713,1527,-1.60023,-7.23872
-504,-503,-8.1402,10.1541,0,0,0,0,0,0,0,-1,720,1527,-8.14017,-10.1541
-497,-503,-4.51758,14.0781,0,0,0,0,0,0,0,-1,727,1527,-4.5176,-14.0782
-490,-503,-4.24194,16.1982,0,0,0,0,0,0,0,-1,734,1527,-4.24196,-16.1982
-483,-503,-9.55774,23.7681,0,0,0,0,0,0,0,-1,741,1527,-9.55776,-23.7681
-476,-503,-12.0394,28.77,0,0,0,0,0,0,0,-1,748,1527,-12.0394,-28.77
-469,-503,-12.0599,29.7833,0.00215551,0.00257569,0.00273668,0.00511033,-0.000379132,0.823707,0.00354004,0.0238778,755,1527,-12.0599,-29.7834
-462,-503,-12.1065,30.6992,0.00148557,0.0016936,0.00183269,0.00342523,-0.000246061,0.813745,0.00236977,0.0132176,762,1527,-12.1065,-30.6993
-455,-503,-12.1228,31.5823,0.00114025,0.00126906,0.00130475,0.00251099,-0.00010168,0.810059,0.00170889,0.0200293,769,1527,-12.1228,-31.5823
-448,-503,-12.1361,32.4613,0.00103258,0.00112559,0.00102799,0.00210813,5.00511e-05,0.808002,0.00138904,0.0182024,776,1527,-12.1361,-32.4613
-441,-503,-12.178,33.3414,0.00111176,0.00118816,0.000950652,0.00210138,0.000198542,0.805478,0.00133965,0.0141508,783,1527,-12.178,-33.3414
-434,-503,-12.2773,34.2079,0.00134849,0.00146996,0.00103033,0.00244135,0.000377105,0.814839,0.00151756,0.0130779,790,1527,-12.2773,-34.2079
-427,-503,-12.3787,35.0583,0.00170144,0.00179775,0.00119561,0.00294617,0.000553018,0.805525,0.00180819,0.0203289,797,1527,-12.3787,-35.0584
-420,-503,-12.3987,35.9413,0.00223017,0.00221368,0.00146414,0.00368609,0.000757756,0.782583,0.00224779,0.0195045,804,1527,-12.3988,-35.9413
-413,-503,-12.4448,36.8181,0.00297233,0.0026991,0.00185776,0.0046985,0.000972935,0.748695,0.00286365,0.0171718,811,1527,-12.4448,-36.8181
-406,-503,-12.463,37.7001,0.0038389,0.0033338,0.00236709,0.00596688,0.00120582,0.732254,0.00364312,0.0295595,818,1527,-12.463,-37.7001
-399,-503,-12.4696,38.5313,0,0,0,0,0,0,0,-1,825,1527,-12.4696,-38.5313
-392,-503,-10.7637,37.4486,0,0,0,0,0,0,0,-1,832,1527,-10.7637,-37.4486
-385,-503,-2.00403,14.1218,0,0,0,0,0,0,0,-1,839,1527,-2.00403,-14.1218
-378,-503,-2.07043,13.8632,0,0,0,0,0,0,0,-1,846,1527,-2.07043,-13.8631
-371,-503,-1.67285,13.8081,0,0,0,0,0,0,0,-1,853,1527,-1.67285,-13.8081
-364,-503,0.181396,12.3768,0,0,0,0,0,0,0,-1,860,1527,0.18138,-12.3768
-357,-503,0.558533,9.25452,0,0,0,0,0,0,0,-1,867,1527,0.558542,-9.25446
-350,-503,0.219971,6.84827,0,0,0,0,0,0,0,-1,874,1527,0.21996,-6.84831
-343,-503,-3.5802,4.43274,0,0,0,0,0,0,0,-1,881,1527,-3.58018,-4.43276
-336,-503,-3.2384,6.40637,0,0,0,0,0,0,0,-1,888,1527,-3.2384,-6.40643
-329,-503,-1.70691,11.886,0,0,0,0,0,0,0,-1,895,1527,-1.70689,-11.886
-322,-503,-3.31317,8.81519,0,0,0,0,0,0,0,-1,902,1527,-3.31315,-8.81524
-315,-503,-3.90265,7.73853,0,0,0,0,0,0,0,-1,909,1527,-3.90264,-7.73854
-308,-503,-1.70264,7.35413,0,0,0,0,0,0,0,-1,916,1527,-1.70262,-7.35416
-301,-503,0,0,0,0,0,0,0,0,0,-1,923,1527,0,0
-294,-503,0,0,0,0,0,0,0,0,0,-1,930,1527,0,0
-287,-503,0,0,0,0,0,0,0,0,0,-1,937,1527,0,0
-280,-503,0,0,0,0,0,0,0,0,0,-1,944,1527,0,0
-273,-503,0,0,0,0,0,0,0,0,0,-1,951,1527,0,0
-266,-503,0,0,0,0,0,0,0,0,0,-1,958,1527,0,0
-259,-503,0,0,0,0,0,0,0,0,0,-1,965,1527,0,0
-252,-503,0,0,0,0,0,0,0,0,0,-1,972,1527,0,0
-245,-503,0,0,0,0,0,0,0,0,0,-1,979,1527,0,0
-238,-503,0,0,0,0,0,0,0,0,0,-1,986,1527,0,0
-231,-503,0,0,0,0,0,0,0,0,0,-1,993,1527,0,0
-224,-503,0,0,0,0,0,0,0,0,0,-1,1000,1527,0,0
-217,-503,0,0,0,0,0,0,0,0,0,-1,1007,1527,0,0
-210,-503,0,0,0,0,0,0,0,0,0,-1,1014,1527,0,0
-203,-503,0,0,0,0,0,0,0,0,0,-1,1021,1527,0,0
-196,-503,0,0,0,0,0,0,0,0,0,-1,1028,1527,0,0
-189,-503,0,0,0,0,0,0,0,0,0,-1,1035,1527,0,0
-182,-503,0,0,0,0,0,0,0,0,0,-1,1042,1527,0,0
-175,-503,0,0,0,0,0,0,0,0,0,-1,1049,1527,0,0
-168,-503,0,0,0,0,0,0,0,0,0,-1,1056,1527,0,0
-161,-503,0,0,0,0,0,0,0,0,0,-1,1063,1527,0,0
-154,-503,0,0,0,0,0,0,0,0,0,-1,1070,1527,0,0
-147,-503,0,0,0,0,0,0,0,0,0,-1,1077,1527,0,0
-140,-503,0,0,0,0,0,0,0,0,0,-1,1084,1527,0,0
-133,-503,0,0,0,0,0,0,0,0,0,-1,1091,1527,0,0
-126,-503,0,0,0,0,0,0,0,0,0,-1,1098,1527,0,0
-119,-503,0,0,0,0,0,0,0,0,0,-1,1105,1527,0,0
-112,-503,0,0,0,0,0,0,0,0,0,-1,1112,1527,0,0
-105,-503,0,0,0,0,0,0,0,0,0,-1,1119,1527,0,0
-98,-503,0,0,0,0,0,0,0,0,0,-1,1126,1527,0,0
-91,-503,0,0,0,0,0,0,0,0,0,-1,1133,1527,0,0
-84,-503,0,0,0,0,0,0,0,0,0,-1,1140,1527,0,0
-77,-503,0,0,0,0,0,0,0,0,0,-1,1147,1527,0,0
-70,-503,0,0,0,0,0,0,0,0,0,-1,1154,1527,0,0
-63,-503,0,0,0,0,0,0,0,0,0,-1,1161,1527,0,0
-56,-503,0,0,0,0,0,0,0,0,0,-1,1168,1527,0,0
-49,-503,0,0,0,0,0,0,0,0,0,-1,1175,1527,0,0
-42,-503,0,0,0,0,0,0,0,0,0,-1,1182,1527,0,0
-35,-503,0,0,0,0,0,0,0,0,0,-1,1189,1527,0,0
-28,-503,0,0,0,0,0,0,0,0,0,-1,1196,1527,0,0
-21,-503,0,0,0,0,0,0,0,0,0,-1,1203,1527,0,0
-14,-503,0,0,0,0,0,0,0,0,0,-1,1210,1527,0,0
-7,-503,0,0,0,0,0,0,0,0,0,-1,1217,1527,0,0
0,-503,0,0,0,0,0,0,0,0,0,-1,1224,1527,0,0
7,-503,0,0,0,0,0,0,0,0,0,-1,1231,1527,0,0
14,-503,0,0,0,0,0,0,0,0,0,-1,1238,1527,0,0
21,-503,0,0,0,0,0,0,0,0,0,-1,1245,1527,0,0
28,-503,0,0,0,0,0,0,0,0,0,-1,1252,1527,0,0
35,-503,0,0,0,0,0,0,0,0,0,-1,1259,1527,0,0
42,-503,0,0,0,0,0,0,0,0,0,-1,1266,1527,0,0
49,-503,0,0,0,0,0,0,0,0,0,-1,1273,1527,0,0
56,-503,0,0,0,0,0,0,0,0,0,-1,1280,1527,0,0
63,-503,0,0,0,0,0,0,0,0,0,-1,1287,1527,0,0
70,-503,0,0,0,0,0,0,0,0,0,-1,1294,1527,0,0
77,-503,0,0,0,0,0,0,0,0,0,-1,1301,1527,0,0
84,-503,0,0,0,0,0,0,0,0,0,-1,1308,1527,0,0
91,-503,0,0,0,0,0,0,0,0,0,-1,1315,1527,0,0
98,-503,0,0,0,0,0,0,0,0,0,-1,1322,1527,0,0
105,-503,0,0,0,0,0,0,0,0,0,-1,1329,1527,0,0
112,-503,0,0,0,0,0,0,0,0,0,-1,1336,1527,0,0
119,-503,0,0,0,0,0,0,0,0,0,-1,1343,1527,0,0
126,-503,0,0,0,0,0,0,0,0,0,-1,1350,1527,0,0
133,-503,0,0,0,0,0,0,0,0,0,-1,1357,1527,0,0
140,-503,0,0,0,0,0,0,0,0,0,-1,1364,1527,0,0
147,-503,0,0,0,0,0,0,0,0,0,-1,1371,1527,0,0
154,-503,0,0,0,0,0,0,0,0,0,-1,1378,1527,0,0
161,-503,0,0,0,0,0,0,0,0,0,-1,1385,1527,0,0
168,-503,0,0,0,0,0,0,0,0,0,-1,1392,1527,0,0
175,-503,0,0,0,0,0,0,0,0,0,-1,1399,1527,0,0
182,-503,0,0,0,0,0,0,0,0,0,-1,1406,1527,0,0
189,-503,0,0,0,0,0,0,0,0,0,-1,1413,1527,0,0
196,-503,0,0,0,0,0,0,0,0,0,-1,1420,1527,0,0
203,-503,0,0,0,0,0,0,0,0,0,-1,1427,1527,0,0
210,-503,0,0,0,0,0,0,0,0,0,-1,1434,1527,0,0
217,-503,0,0,0,0,0,0,0,0,0,-1,1441,1527,0,0
224,-503,0,0,0,0,0,0,0,0,0,-1,1448,1527,0,0
231,-503,0,0,0,0,0,0,0,0,0,-1,1455,1527,0,0
238,-503,0,0,0,0,0,0,0,0,0,-1,1462,1527,0,0
245,-503,0,0,0,0,0,0,0,0,0,-1,1469,1527,0,0
252,-503,0,0,0,0,0,0,0,0,0,-1,1476,1527,0,0
259,-503,0,0,0,0,0,0,0,0,0,-1,1483,1527,0,0
266,-503,0,0,0,0,0,0,0,0,0,-1,1490,1527,0,0
273,-503,0,0,0,0,0,0,0,0,0,-1,1497,1527,0,0
280,-503,0,0,0,0,0,0,0,0,0,-1,1504,1527,0,0
287,-503,0,0,0,0,0,0,0,0,0,-1,1511,1527,0,0
294,-503,0,0,0,0,0,0,0,0,0,-1,1518,1527,0,0
301,-503,0,0,0,0,0,0,0,0,0,-1,1525,1527,0,0
308,-503,0,0,0,0,0,0,0,0,0,-1,1532,1527,0,0
315,-503,0,0,0,0,0,0,0,0,0,-1,1539,1527,0,0
322,-503,0,0,0,0,0,0,0,0,0,-1,1546,1527,0,0
329,-503,0,0,0,0,0,0,0,0,0,-1,1553,1527,0,0
336,-503,0,0,0,0,0,0,0,0,0,-1,1560,1527,0,0
343,-503,0,0,0,0,0,0,0,0,0,-1,1567,1527,0,0
350,-503,0,0,0,0,0,0,0,0,0,-1,1574,1527,0,0
357,-503,0,0,0,0,0,0,0,0,0,-1,1581,1527,0,0
364,-503,0,0,0,0,0,0,0,0,0,-1,1588,1527,0,0
371,-503,0,0,0,0,0,0,0,0,0,-1,1595,1527,0,0
378,-503,0,0,0,0,0,0,0,0,0,-1,1602,1527,0,0
385,-503,0,0,0,0,0,0,0,0,0,-1,1609,1527,0,0
392,-503,0,0,0,0,0,0,0,0,0,-1,1616,1527,0,0
399,-503,0,0,0,0,0,0,0,0,0,-1,1623,1527,0,0
406,-503,0,0,0,0,0,0,0,0,0,-1,1630,1527,0,0
413,-503,0,0,0,0,0,0,0,0,0,-1,1637,1527,0,0
420,-503,0,0,0,0,0,0,0,0,0,-1,1644,1527,0,0
427,-503,10.5968,4.9856,0,0,0,0,0,0,0,-1,1651,1527,10.5969,-4.98563
434,-503,11.4329,3.97217,0,0,0,0,0,0,0,-1,1658,1527,11.4328,-3.97222
441,-503,12.0957,2.96509,0,0,0,0,0,0,0,-1,1665,1527,12.0957,-2.96512
448,-503,12.3259,2.53894,0,0,0,0,0,0,0,-1,1672,1527,12.326,-2.53895
455,-503,12.1669,2.18762,0,0,0,0,0,0,0,-1,1679,1527,12.1668,-2.18767
462,-503,11.59,2.60791,0,0,0,0,0,0,0,-1,1686,1527,11.5899,-2.60794
469,-503,11.1625,1.61853,0,0,0,0,0,0,0,-1,1693,1527,11.1625,-1.61856
476,-503,9.07703,5.81042,0,0,0,0,0,0,0,-1,1700,1527,9.07699,-5.81047
483,-503,9.74414,6.92432,0,0,0,0,0,0,0,-1,1707,1527,9.74417,-6.9243
490,-503,10.5033,10.1071,0,0,0,0,0,0,0,-1,1714,1527,10.5032,-10.107
497,-503,15.0057,17.9476,0,0,0,0,0,0,0,-1,1721,1527,15.0058,-17.9476
504,-503,16.4764,18.4486,0,0,0,0,0,0,0,-1,1728,1527,16.4764,-18.4486
511,-503,16.8276,18.3271,0,0,0,0,0,0,0,-1,1735,1527,16.8276,-18.3272
518,-503,17.2533,18.2738,0,0,0,0,0,0,0,-1,1742,1527,17.2533,-18.2738
525,-503,21.2887,26.5785,0,0,0,0,0,0,0,-1,1749,1527,21.2887,-26.5785
532,-503,29.9971,37.9797,0,0,0,0,0,0,0,-1,1756,1527,29.997,-37.9797
539,-503,29.9899,37.0208,0.00990938,0.00820531,-0.00698774,0.0160968,0.00201786,-0.724731,0.0101258,0.0350231,1763,1527,29.9899,-37.0208
546,-503,30.0082,36.0098,0.00791248,0.00629282,-0.00537585,0.0125392,0.00166615,-0.710639,0.00786312,0.0145896,1770,1527,30.0082,-36.0098
553,-503,30.007,35.163,0.00626739,0.00468228,-0.00405005,0.00960171,0.00134797,-0.688774,0.00600248,0.0149841,1777,1527,30.007,-35.163
560,-503,29.9551,34.3197,0.00493277,0.00341875,-0.00304156,0.00731011,0.00104141,-0.663431,0.00456603,0.0147621,1784,1527,29.955,-34.3198
567,-503,29.9122,33.437,0.00388704,0.00246323,-0.00236906,0.00564885,0.000701421,-0.63944,0.00355523,0.0127723,1791,1527,29.9122,-33.437
574,-503,29.8635,32.5792,0.00309591,0.00177086,-0.00192725,0.00447133,0.000395439,-0.619842,0.00285821,0.0125902,1798,1527,29.8635,-32.5792
581,-503,29.7915,31.7443,0.00248933,0.00135683,-0.00167279,0.00368911,0.000157054,-0.622199,0.00240876,0.0138728,1805,1527,29.7915,-31.7442
588,-503,29.7469,30.9211,0.00210544,0.00108763,-0.0015629,0.0032402,-4.71317e-05,-0.628003,0.00217602,0.0179823,1812,1527,29.7469,-30.9212
595,-503,29.7162,30.0575,0.00191843,0.00101743,-0.00152304,0.0030562,-0.000120338,-0.641602,0.00207874,0.0144944,1819,1527,29.7162,-30.0575
602,-503,29.7325,29.1161,0.00193927,0.00128335,-0.00165654,0.0033,-7.73782e-05,-0.687672,0.00222624,0.0265536,1826,1527,29.7326,-29.1161
609,-503,29.7223,28.1835,0,0,0,0,0,0,0,-1,1833,1527,29.7223,-28.1835
616,-503,27.9205,24.2308,0,0,0,0,0,0,0,-1,1840,1527,27.9206,-24.2309
623,-503,18.7351,15.5999,0,0,0,0,0,0,0,-1,1847,1527,18.7351,-15.5999
630,-503,20.6721,13.9077,0,0,0,0,0,0,0,-1,1854,1527,20.6721,-13.9077
637,-503,14.5564,9.20496,0,0,0,0,0,0,0,-1,1861,1527,14.5564,-9.2049
644,-503,11.4802,7.57214,0,0,0,0,0,0,0,-1,1868,1527,11.4802,-7.57215
651,-503,11.5718,6.5448,0,0,0,0,0,0,0,-1,1875,1527,11.5718,-6.54476
658,-503,8.25635,3.10498,0,0,0,0,0,0,0,-1,1882,1527,8.2563,-3.10493
665,-503,0,0,0,0,0,0,0,0,0,-1,1889,1527,0,0
672,-503,0,0,0,0,0,0,0,0,0,-1,1896,1527,0,0
679,-503,0,0,0,0,0,0,0,0,0,-1,1903,1527,0,0
686,-503,0,0,0,0,0,0,0,0,0,-1,1910,1527,0,0
693,-503,0,0,0,0,0,0,0,0,0,-1,1917,1527,0,0
700,-503,0,0,0,0,0,0,0,0,0,-1,1924,1527,0,0
707,-503,0,0,0,0,0,0,0,0,0,-1,1931,1527,0,0
714,-503,0,0,0,0,0,0,0,0,0,-1,1938,1527,0,0
721,-503,0,0,0,0,0,0,0,0,0,-1,1945,1527,0,0
728,-503,0,0,0,0,0,0,0,0,0,-1,1952,1527,0,0
735,-503,0,0,0,0,0,0,0,0,0,-1,1959,1527,0,0
742,-503,0,0,0,0,0,0,0,0,0,-1,1966,1527,0,0
749,-503,0,0,0,0,0,0,0,0,0,-1,1973,1527,0,0
756,-503,0,0,0,0,0,0,0,0,0,-1,1980,1527,0,0
763,-503,0,0,0,0,0,0,0,0,0,-1,1987,1527,0,0
770,-503,0,0,0,0,0,0,0,0,0,-1,1994,1527,0,0
777,-503,0,0,0,0,0,0,0,0,0,-1,2001,1527,0,0
784,-503,0,0,0,0,0,0,0,0,0,-1,2008,1527,0,0
791,-503,0,0,0,0,0,0,0,0,0,-1,2015,1527,0,0
798,-503,0,0,0,0,0,0,0,0,0,-1,2022,1527,0,0
805,-503,0,0,0,0,0,0,0,0,0,-1,2029,1527,0,0
812,-503,0,0,0,0,0,0,0,0,0,-1,2036,1527,0,0
-700,-510,0,0,0,0,0,0,0,0,0,-1,524,1534,0,0
-693,-510,0,0,0,0,0,0,0,0,0,-1,531,1534,0,0
-686,-510,0,0,0,0,0,0,0,0,0,-1,538,1534,0,0
-679,-510,0,0,0,0,0,0,0,0,0,-1,545,1534,0,0
-672,-510,0,0,0,0,0,0,0,0,0,-1,552,1534,0,0
-665,-510,0,0,0,0,0,0,0,0,0,-1,559,1534,0,0
-658,-510,0,0,0,0,0,0,0,0,0,-1,566,1534,0,0
-651,-510,0,0,0,0,0,0,0,0,0,-1,573,1534,0,0
-644,-510,0,0,0,0,0,0,0,0,0,-1,580,1534,0,0
-637,-510,0,0,0,0,0,0,0,0,0,-1,587,1534,0,0
-630,-510,0,0,0,0,0,0,0,0,0,-1,594,1534,0,0
-623,-510,0,0,0,0,0,0,0,0,0,-1,601,1534,0,0
-616,-510,0,0,0,0,0,0,0,0,0,-1,608,1534,0,0
-609,-510,0,0,0,0,0,0,0,0,0,-1,615,1534,0,0
-602,-510,0,0,0,0,0,0,0,0,0,-1,622,1534,0,0
-595,-510,0,0,0,0,0,0,0,0,0,-1,629,1534,0,0
-588,-510,0,0,0,0,0,0,0,0,0,-1,636,1534,0,0
-581,-510,0,0,0,0,0,0,0,0,0,-1,643,1534,0,0
-574,-510,0,0,0,0,0,0,0,0,0,-1,650,1534,0,0
-567,-510,0,0,0,0,0,0,0,0,0,-1,657,1534,0,0
-560,-510,0,0,0,0,0,0,0,0,0,-1,664,1534,0,0
-553,-510,0,0,0,0,0,0,0,0,0,-1,671,1534,0,0
-546,-510,0,0,0,0,0,0,0,0,0,-1,678,1534,0,0
-539,-510,0,0,0,0,0,0,0,0,0,-1,685,1534,0,0
-532,-510,-3.95129,4.52014,0,0,0,0,0,0,0,-1,692,1534,-3.95131,-4.5202
-525,-510,-2.77411,0.316772,0,0,0,0,0,0,0,-1,699,1534,-2.77409,-0.3168
-518,-510,-2.86847,2.71423,0,0,0,0,0,0,0,-1,706,1534,-2.86849,-2.71424
-511,-510,-2.28571,4.48083,0,0,0,0,0,0,0,-1,713,1534,-2.28571,-4.48086
-504,-510,-4.86731,10.8224,0,0,0,0,0,0,0,-1,720,1534,-4.8673,-10.8224
-497,-510,-3.42352,15.5178,0,0,0,0,0,0,0,-1,727,1534,-3.42352,-15.5178
-490,-510,-5.9472,18.5184,0,0,0,0,0,0,0,-1,734,1534,-5.94718,-18.5185
-483,-510,-6.79639,20.8453,0,0,0,0,0,0,0,-1,741,1534,-6.79638,-20.8454
-476,-510,-11.3043,28.8693,0,0,0,0,0,0,0,-1,748,1534,-11.3043,-28.8692
-469,-510,-11.1667,29.8599,0.00203694,0.00261289,0.00278757,0.00512732,-0.000477495,0.836869,0.00358798,0.0337594,755,1534,-11.1668,-29.8599
-462,-510,-11.2029,30.7466,0.00117962,0.00158911,0.00172562,0.00312209,-0.000353356,0.844446,0.00220862,0.0137176,762,1534,-11.2029,-30.7466
-455,-510,-11.2657,31.655,0.000738721,0.00108867,0.00110909,0.00203651,-0.000209114,0.863636,0.00143247,0.0160413,769,1534,-11.2657,-31.655
-448,-510,-11.2726,32.533,0.000567439,0.000887005,0.000789675,0.0015329,-7.84557e-05,0.88522,0.00104906,0.0145113,776,1534,-11.2726,-32.533
-441,-510,-11.3261,33.3973,0.000604494,0.000866364,0.000660734,0.00140901,6.18469e-05,0.883214,0.000919419,0.0150252,783,1534,-11.3261,-33.3974
-434,-510,-11.4348,34.236,0.000810376,0.00105095,0.000690933,0.00163199,0.000229337,0.871581,0.00102018,0.0168461,790,1534,-11.4348,-34.236
-427,-510,-11.5391,35.0664,0.0011096,0.00124733,0.00078354,0.00196502,0.000391901,0.829231,0.00120089,0.0257065,797,1534,-11.5391,-35.0664
-420,-510,-11.5563,35.9929,0.00156892,0.00155502,0.00097003,0.00253203,0.000591919,0.781815,0.00152938,0.0228911,804,1534,-11.5563,-35.9929
-413,-510,-11.5746,36.8889,0.00223053,0.00194721,0.00128301,0.00337968,0.000798061,0.730414,0.00203982,0.0116653,811,1534,-11.5746,-36.8889
-406,-510,-11.6489,37.7422,0.00299655,0.00247512,0.00167727,0.00443325,0.00103843,0.708295,0.00267735,0.0113566,818,1534,-11.6489,-37.7421
-399,-510,-11.7007,38.5779,0.00383926,0.00297514,0.002049,0.00550126,0.00131314,0.681489,0.00331758,0.0176468,825,1534,-11.7008,-38.5779
-392,-510,-11.61,39.4424,0,0,0,0,0,0,0,-1,832,1534,-11.61,-39.4424
-385,-510,-7.23199,31.704,0,0,0,0,0,0,0,-1,839,1534,-7.23198,-31.704
-378,-510,-1.78308,13.8044,0,0,0,0,0,0,0,-1,846,1534,-1.78309,-13.8044
-371,-510,-1.74982,13.8027,0,0,0,0,0,0,0,-1,853,1534,-1.74981,-13.8028
-364,-510,-1.3479,13.7771,0,0,0,0,0,0,0,-1,860,1534,-1.34791,-13.7771
-357,-510,-0.254395,8.89575,0,0,0,0,0,0,0,-1,867,1534,-0.254397,-8.89569
-350,-510,0.471191,6.06458,0,0,0,0,0,0,0,-1,874,1534,0.47118,-6.06453
-343,-510,-6.96869,26.3074,0,0,0,0,0,0,0,-1,881,1534,-6.9687,-26.3074
-336,-510,-5.60437,29.5996,0,0,0,0,0,0,0,-1,888,1534,-5.60435,-29.5996
-329,-510,-4.87781,20.6893,0,0,0,0,0,0,0,-1,895,1534,-4.87782,-20.6894
-322,-510,-0.251526,11.973,0,0,0,0,0,0,0,-1,902,1534,-0.251497,-11.9731
-315,-510,-1.73047,10.9796,0,0,0,0,0,0,0,-1,909,1534,-1.73049,-10.9796
-308,-510,-2.05328,9.72034,0,0,0,0,0,0,0,-1,916,1534,-2.05327,-9.72036
-301,-510,-1.85437,11.5869,0,0,0,0,0,0,0,-1,923,1534,-1.85437,-11.5869
-294,-510,0,0,0,0,0,0,0,0,0,-1,930,1534,0,0
-287,-510,0,0,0,0,0,0,0,0,0,-1,937,1534,0,0
-280,-510,0,0,0,0,0,0,0,0,0,-1,944,1534,0,0
-273,-510,0,0,0,0,0,0,0,0,0,-1,951,1534,0,0
-266,-510,0,0,0,0,0,0,0,0,0,-1,958,1534,0,0
-259,-510,0,0,0,0,0,0,0,0,0,-1,965,1534,0,0
-252,-510,0,0,0,0,0,0,0,0,0,-1,972,1534,0,0
-245,-510,0,0,0,0,0,0,0,0,0,-1,979,1534,0,0
-238,-510,0,0,0,0,0,0,0,0,0,-1,986,1534,0,0
-231,-510,0,0,0,0,0,0,0,0,0,-1,993,1534,0,0
-224,-510,0,0,0,0,0,0,0,0,0,-1,1000,1534,0,0
-217,-510,0,0,0,0,0,0,0,0,0,-1,1007,1534,0,0
-210,-510,0,0,0,0,0,0,0,0,0,-1,1014,1534,0,0
-203,-510,0,0,0,0,0,0,0,0,0,-1,1021,1534,0,0
-196,-510,0,0,0,0,0,0,0,0,0,-1,1028,1534,0,0
-189,-510,0,0,0,0,0,0,0,0,0,-1,1035,1534,0,0
-182,-510,0,0,0,0,0,0,0,0,0,-1,1042,1534,0,0
-175,-510,0,0,0,0,0,0,0,0,0,-1,1049,1534,0,0
-168,-510,0,0,0,0,0,0,0,0,0,-1,1056,1534,0,0
-161,-510,0,0,0,0,0,0,0,0,0,-1,1063,1534,0,0
-154,-510,0,0,0,0,0,0,0,0,0,-1,1070,1534,0,0
-147,-510,0,0,0,0,0,0,0,0,0,-1,1077,1534,0,0
-140,-510,0,0,0,0,0,0,0,0,0,-1,1084,1534,0,0
-133,-510,0,0,0,0,0,0,0,0,0,-1,1091,1534,0,0
-126,-510,0,0,0,0,0,0,0,0,0,-1,1098,1534,0,0
-119,-510,0,0,0,0,0,0,0,0,0,-1,1105,1534,0,0
-112,-510,0,0,0,0,0,0,0,0,0,-1,1112,1534,0,0
-105,-510,0,0,0,0,0,0,0,0,0,-1,1119,1534,0,0
-98,-510,0,0,0,0,0,0,0,0,0,-1,1126,1534,0,0
-91,-510,0,0,0,0,0,0,0,0,0,-1,1133,1534,0,0
-84,-510,0,0,0,0,0,0,0,0,0,-1,1140,1534,0,0
-77,-510,0,0,0,0,0,0,0,0,0,-1,1147,1534,0,0
-70,-510,0,0,0,0,0,0,0,0,0,-1,1154,1534,0,0
-63,-510,0,0,0,0,0,0,0,0,0,-1,1161,1534,0,0
-56,-510,0,0,0,0,0,0,0,0,0,-1,1168,1534,0,0
-49,-510,0,0,0,0,0,0,0,0,0,-1,1175,1534,0,0
-42,-510,0,0,0,0,0,0,0,0,0,-1,1182,1534,0,0
-35,-510,0,0,0,0,0,0,0,0,0,-1,1189,1534,0,0
-28,-510,0,0,0,0,0,0,0,0,0,-1,1196,1534,0,0
-21,-510,0,0,0,0,0,0,0,0,0,-1,1203,1534,0,0
-14,-510,0,0,0,0,0,0,0,0,0,-1,1210,1534,0,0
-7,-510,0,0,0,0,0,0,0,0,0,-1,1217,1534,0,0
0,-510,0,0,0,0,0,0,0,0,0,-1,1224,1534,0,0
7,-510,0,0,0,0,0,0,0,0,0,-1,1231,1534,0,0
14,-510,0,0,0,0,0,0,0,0,0,-1,1238,1534,0,0
21,-510,0,0,0,0,0,0,0,0,0,-1,1245,1534,0,0
28,-510,0,0,0,0,0,0,0,0,0,-1,1252,1534,0,0
35,-510,0,0,0,0,0,0,0,0,0,-1,1259,1534,0,0
42,-510,0,0,0,0,0,0,0,0,0,-1,1266,1534,0,0
49,-510,0,0,0,0,0,0,0,0,0,-1,1273,1534,0,0
56,-510,0,0,0,0,0,0,0,0,0,-1,1280,1534,0,0
63,-510,0,0,0,0,0,0,0,0,0,-1,1287,1534,0,0
70,-510,0,0,0,0,0,0,0,0,0,-1,1294,1534,0,0
77,-510,0,0,0,0,0,0,0,0,0,-1,1301,1534,0,0
84,-510,0,0,0,0,0,0,0,0,0,-1,1308,1534,0,0
91,-510,0,0,0,0,0,0,0,0,0,-1,1315,1534,0,0
98,-510,0,0,0,0,0,0,0,0,0,-1,1322,1534,0,0
105,-510,0,0,0,0,0,0,0,0,0,-1,1329,1534,0,0
112,-510,0,0,0,0,0,0,0,0,0,-1,1336,1534,0,0
119,-510,0,0,0,0,0,0,0,0,0,-1,1343,1534,0,0
126,-510,0,0,0,0,0,0,0,0,0,-1,1350,1534,0,0
133,-510,0,0,0,0,0,0,0,0,0,-1,1357,1534,0,0
140,-510,0,0,0,0,0,0,0,0,0,-1,1364,1534,0,0
147,-510,0,0,0,0,0,0,0,0,0,-1,1371,1534,0,0
154,-510,0,0,0,0,0,0,0,0,0,-1,1378,1534,0,0
161,-510,0,0,0,0,0,0,0,0,0,-1,1385,1534,0,0
168,-510,0,0,0,0,0,0,0,0,0,-1,1392,1534,0,0
175,-510,0,0,0,0,0,0,0,0,0,-1,1399,1534,0,0
182,-510,0,0,0,0,0,0,0,0,0,-1,1406,1534,0,0
189,-510,0,0,0,0,0,0,0,0,0,-1,1413,1534,0,0
196,-510,0,0,0,0,0,0,0,0,0,-1,1420,1534,0,0
203,-510,0,0,0,0,0,0,0,0,0,-1,1427,1534,0,0
210,-510,0,0,0,0,0,0,0,0,0,-1,1434,1534,0,0
217,-510,0,0,0,0,0,0,0,0,0,-1,1441,1534,0,0
224,-510,0,0,0,0,0,0,0,0,0,-1,1448,1534,0,0
231,-510,0,0,0,0,0,0,0,0,0,-1,1455,1534,0,0
238,-510,0,0,0,0,0,0,0,0,0,-1,1462,1534,0,0
245,-510,0,0,0,0,0,0,0,0,0,-1,1469,1534,0,0
252,-510,0,0,0,0,0,0,0,0,0,-1,1476,1534,0,0
259,-510,0,0,0,0,0,0,0,0,0,-1,1483,1534,0,0
266,-510,0,0,0,0,0,0,0,0,0,-1,1490,1534,0,0
273,-510,0,0,0,0,0,0,0,0,0,-1,1497,1534,0,0
280,-510,0,0,0,0,0,0,0,0,0,-1,1504,1534,0,0
287,-510,0,0,0,0,0,0,0,0,0,-1,1511,1534,0,0
294,-510,0,0,0,0,0,0,0,0,0,-1,1518,1534,0,0
301,-510,0,0,0,0,0,0,0,0,0,-1,1525,1534,0,0
308,-510,0,0,0,0,0,0,0,0,0,-1,1532,1534,0,0
315,-510,0,0,0,0,0,0,0,0,0,-1,1539,1534,0,0
322,-510,0,0,0,0,0,0,0,0,0,-1,1546,1534,0,0
329,-510,0,0,0,0,0,0,0,0,0,-1,1553,1534,0,0
336,-510,0,0,0,0,0,0,0,0,0,-1,1560,1534,0,0
343,-510,0,0,0,0,0,0,0,0,0,-1,1567,1534,0,0
350,-510,0,0,0,0,0,0,0,0,0,-1,1574,1534,0,0
357,-510,0,0,0,0,0,0,0,0,0,-1,1581,1534,0,0
364,-510,0,0,0,0,0,0,0,0,0,-1,1588,1534,0,0
371,-510,0,0,0,0,0,0,0,0,0,-1,1595,1534,0,0
378,-510,0,0,0,0,0,0,0,0,0,-1,1602,1534,0,0
385,-510,0,0,0,0,0,0,0,0,0,-1,1609,1534,0,0
392,-510,0,0,0,0,0,0,0,0,0,-1,1616,1534,0,0
399,-510,0,0,0,0,0,0,0,0,0,-1,1623,1534,0,0
406,-510,0,0,0,0,0,0,0,0,0,-1,1630,1534,0,0
413,-510,0,0,0,0,0,0,0,0,0,-1,1637,1534,0,0
420,-510,14.1888,6.71936,0,0,0,0,0,0,0,-1,1644,1534,14.1889,-6.71939
427,-510,10.2134,5.59485,0,0,0,0,0,0,0,-1,1651,1534,10.2134,-5.59485
434,-510,11.8219,4.07898,0,0,0,0,0,0,0,-1,1658,1534,11.8219,-4.07895
441,-510,12.6812,3.02991,0,0,0,0,0,0,0,-1,1665,1534,12.6811,-3.0299
448,-510,13.2379,2.2804,0,0,0,0,0,0,0,-1,1672,1534,13.2379,-2.28037
455,-510,9.76892,2.20642,0,0,0,0,0,0,0,-1,1679,1534,9.76894,-2.20647
462,-510,9.84692,2.49182,0,0,0,0,0,0,0,-1,1686,1534,9.84695,-2.49185
469,-510,16.6072,7.26941,0,0,0,0,0,0,0,-1,1693,1534,16.6072,-7.26945
476,-510,15.9199,7.8645,0,0,0,0,0,0,0,-1,1700,1534,15.9199,-7.86455
483,-510,13.0833,8.10938,0,0,0,0,0,0,0,-1,1707,1534,13.0833,-8.10932
490,-510,13.0841,15.3286,0,0,0,0,0,0,0,-1,1714,1534,13.0841,-15.3286
497,-510,15.5652,18.823,0,0,0,0,0,0,0,-1,1721,1534,15.5652,-18.823
504,-510,15.998,18.7478,0,0,0,0,0,0,0,-1,1728,1534,15.998,-18.7478
511,-510,15.9443,18.0476,0,0,0,0,0,0,0,-1,1735,1534,15.9443,-18.0476
518,-510,21.5343,27.1368,0,0,0,0,0,0,0,-1,1742,1534,21.5342,-27.1368
525,-510,28.8916,38.9275,0,0,0,0,0,0,0,-1,1749,1534,28.8916,-38.9275
532,-510,29.2179,37.8605,0.00959971,0.00842605,-0.00705919,0.0160964,0.00192934,-0.743928,0.0101491,0.0327792,1756,1534,29.2179,-37.8605
539,-510,29.2665,36.8716,0.00772127,0.00664946,-0.00552251,0.0127338,0.00163691,-0.73703,0.0079996,0.0152726,1763,1534,29.2665,-36.8716
546,-510,29.1943,36.0591,0.00615897,0.0050829,-0.00427249,0.00992717,0.0013147,-0.722763,0.00622632,0.014332,1770,1534,29.1943,-36.059
553,-510,29.1433,35.2178,0.00485167,0.00374216,-0.00321913,0.00756349,0.00103034,-0.70007,0.00473639,0.0148386,1777,1534,29.1434,-35.2178
560,-510,29.0845,34.3523,0.00381467,0.00270075,-0.00243231,0.00575297,0.000762446,-0.672846,0.00360812,0.0149425,1784,1534,29.0844,-34.3523
567,-510,29.0465,33.479,0.00303901,0.00193517,-0.00194776,0.00451154,0.000462643,-0.647336,0.00286595,0.0139085,1791,1534,29.0466,-33.479
574,-510,28.9978,32.6418,0.00249452,0.00140664,-0.00166795,0.00370498,0.00019618,-0.627778,0.00240726,0.0144562,1798,1534,28.9978,-32.6419
581,-510,28.9319,31.8282,0.00217343,0.00116881,-0.00160772,0.00335548,-1.3244e-05,-0.633985,0.00224141,0.0121764,1805,1534,28.9319,-31.8283
588,-510,28.8822,30.9847,0.00207658,0.00111682,-0.00171071,0.00337345,-0.000180044,-0.648654,0.00231132,0.0133332,1812,1534,28.8822,-30.9848
595,-510,28.9742,29.9872,0.00213802,0.00133975,-0.00193259,0.00371226,-0.000234493,-0.683565,0.00255659,0.0227356,1819,1534,28.9743,-29.9872
602,-510,29.0032,29.0358,0,0,0,0,0,0,0,-1,1826,1534,29.0032,-29.0357
609,-510,21.259,19.222,0,0,0,0,0,0,0,-1,1833,1534,21.259,-19.222
616,-510,18.7024,16.2474,0,0,0,0,0,0,0,-1,1840,1534,18.7024,-16.2474
623,-510,19.6013,14.6211,0,0,0,0,0,0,0,-1,1847,1534,19.6013,-14.6211
630,-510,13.7461,9.30334,0,0,0,0,0,0,0,-1,1854,1534,13.7461,-9.30335
637,-510,11.0155,7.38464,0,0,0,0,0,0,0,-1,1861,1534,11.0155,-7.38463
644,-510,11.5809,7.17126,0,0,0,0,0,0,0,-1,1868,1534,11.5809,-7.17123
651,-510,8.70471,3.5061,0,0,0,0,0,0,0,-1,1875,1534,8.70475,-3.50611
658,-510,0,0,0,0,0,0,0,0,0,-1,1882,1534,0,0
665,-510,0,0,0,0,0,0,0,0,0,-1,1889,1534,0,0
672,-510,0,0,0,0,0,0,0,0,0,-1,1896,1534,0,0
679,-510,0,0,0,0,0,0,0,0,0,-1,1903,1534,0,0
686,-510,0,0,0,0,0,0,0,0,0,-1,1910,1534,0,0
693,-510,0,0,0,0,0,0,0,0,0,-1,1917,1534,0,0
700,-510,0,0,0,0,0,0,0,0,0,-1,1924,1534,0,0
707,-510,0,0,0,0,0,0,0,0,0,-1,1931,1534,0,0
714,-510,0,0,0,0,0,0,0,0,0,-1,1938,1534,0,0
721,-510,0,0,0,0,0,0,0,0,0,-1,1945,1534,0,0
728,-510,0,0,0,0,0,0,0,0,0,-1,1952,1534,0,0
735,-510,0,0,0,0,0,0,0,0,0,-1,1959,1534,0,0
742,-510,0,0,0,0,0,0,0,0,0,-1,1966,1534,0,0
749,-510,0,0,0,0,0,0,0,0,0,-1,1973,1534,0,0
756,-510,0,0,0,0,0,0,0,0,0,-1,1980,1534,0,0
763,-510,0,0,0,0,0,0,0,0,0,-1,1987,1534,0,0
770,-510,0,0,0,0,0,0,0,0,0,-1,1994,1534,0,0
777,-510,0,0,0,0,0,0,0,0,0,-1,2001,1534,0,0
784,-510,0,0,0,0,0,0,0,0,0,-1,2008,1534,0,0
791,-510,0,0,0,0,0,0,0,0,0,-1,2015,1534,0,0
798,-510,0,0,0,0,0,0,0,0,0,-1,2022,1534,0,0
805,-510,0,0,0,0,0,0,0,0,0,-1,2029,1534,0,0
812,-510,0,0,0,0,0,0,0,0,0,-1,2036,1534,0,0
-700,-517,0,0,0,0,0,0,0,0,0,-1,524,1541,0,0
-693,-517,0,0,0,0,0,0,0,0,0,-1,531,1541,0,0
-686,-517,0,0,0,0,0,0,0,0,0,-1,538,1541,0,0
-679,-517,0,0,0,0,0,0,0,0,0,-1,545,1541,0,0
-672,-517,0,0,0,0,0,0,0,0,0,-1,552,1541,0,0
-665,-517,0,0,0,0,0,0,0,0,0,-1,559,1541,0,0
-658,-517,0,0,0,0,0,0,0,0,0,-1,566,1541,0,0
-651,-517,0,0,0,0,0,0,0,0,0,-1,573,1541,0,0
-644,-517,0,0,0,0,0,0,0,0,0,-1,580,1541,0,0
-637,-517,0,0,0,0,0,0,0,0,0,-1,587,1541,0,0
-630,-517,0,0,0,0,0,0,0,0,0,-1,594,1541,0,0
-623,-517,0,0,0,0,0,0,0,0,0,-1,601,1541,0,0
-616,-517,0,0,0,0,0,0,0,0,0,-1,608,1541,0,0
-609,-517,0,0,0,0,0,0,0,0,0,-1,615,1541,0,0
-602,-517,0,0,0,0,0,0,0,0,0,-1,622,1541,0,0
-595,-517,0,0,0,0,0,0,0,0,0,-1,629,1541,0,0
-588,-517,0,0,0,0,0,0,0,0,0,-1,636,1541,0,0
-581,-517,0,0,0,0,0,0,0,0,0,-1,643,1541,0,0
-574,-517,0,0,0,0,0,0,0,0,0,-1,650,1541,0,0
-567,-517,0,0,0,0,0,0,0,0,0,-1,657,1541,0,0
-560,-517,0,0,0,0,0,0,0,0,0,-1,664,1541,0,0
-553,-517,0,0,0,0,0,0,0,0,0,-1,671,1541,0,0
-546,-517,0,0,0,0,0,0,0,0,0,-1,678,1541,0,0
-539,-517,0,0,0,0,0,0,0,0,0,-1,685,1541,0,0
-532,-517,0,0,0,0,0,0,0,0,0,-1,692,1541,0,0
-525,-517,-3.62903,4.3606,0,0,0,0,0,0,0,-1,699,1541,-3.62904,-4.36056
-518,-517,-1.664,2.27209,0,0,0,0,0,0,0,-1,706,1541,-1.66399,-2.27207
-511,-517,-0.999146,5.52063,0,0,0,0,0,0,0,-1,713,1541,-0.999126,-5.52059
-504,-517,-1.06946,8.67432,0,0,0,0,0,0,0,-1,720,1541,-1.06947,-8.6743
-497,-517,-5.43036,17.4033,0,0,0,0,0,0,0,-1,727,1541,-5.43033,-17.4034
-490,-517,-6.20526,19.4496,0,0,0,0,0,0,0,-1,734,1541,-6.20526,-19.4495
-483,-517,-6.2254,20.368,0,0,0,0,0,0,0,-1,741,1541,-6.22542,-20.368
-476,-517,-9.74664,28.5509,0,0,0,0,0,0,0,-1,748,1541,-9.74666,-28.5509
-469,-517,-10.2278,29.8601,0,0,0,0,0,0,0,-1,755,1541,-10.2279,-29.8601
-462,-517,-10.3542,30.7501,0.000658279,0.00140734,0.00139563,0.00247783,-0.000412203,0.91649,0.00180504,0.0395029,762,1541,-10.3542,-30.7502
-455,-517,-10.4088,31.7042,0.00020168,0.000875429,0.000758952,0.00136891,-0.000291803,0.99427,0.00102383,0.0216587,769,1541,-10.4088,-31.7042
-448,-517,-10.4285,32.6021,3.46359e-05,0.000648236,0.000460256,0.000894574,-0.000211702,1.07937,0.000678058,0.0136931,776,1541,-10.4285,-32.6021
-441,-517,-10.4897,33.457,7.61934e-05,0.00058037,0.000331645,0.00074486,-8.82958e-05,1.11037,0.000528469,0.0124148,783,1541,-10.4898,-33.457
-434,-517,-10.5479,34.3165,0.000294536,0.000693038,0.000360444,0.000905638,8.19367e-05,1.03789,0.000578384,0.0155816,790,1541,-10.5479,-34.3166
-427,-517,-10.6243,35.1783,0.000582465,0.000806065,0.00043298,0.00114145,0.000247084,0.911744,0.000693435,0.01588,797,1541,-10.6243,-35.1783
-420,-517,-10.692,36.0623,0.00100106,0.00102892,0.000576684,0.00159184,0.000438139,0.797472,0.000949498,0.031117,804,1541,-10.692,-36.0622
-413,-517,-10.7406,36.9163,0.00159524,0.00133688,0.000831656,0.00230769,0.000624434,0.70835,0.0013783,0.0167307,811,1541,-10.7406,-36.9162
-406,-517,-10.7818,37.8046,0.00226987,0.00177341,0.00113809,0.00318648,0.000856794,0.678025,0.0019041,0.012096,818,1541,-10.7818,-37.8046
-399,-517,-10.814,38.6587,0.00297797,0.00221709,0.0014255,0.00407293,0.00112214,0.654996,0.00242922,0.0106979,825,1541,-10.814,-38.6587
-392,-517,-10.8262,39.5253,0.00364727,0.0028562,0.00174403,0.00504006,0.00146341,0.673888,0.00299392,0.021918,832,1541,-10.8263,-39.5252
-385,-517,-10.7885,40.5035,0,0,0,0,0,0,0,-1,839,1541,-10.7885,-40.5036
-378,-517,-6.61444,32.6315,0,0,0,0,0,0,0,-1,846,1541,-6.61445,-32.6315
-371,-517,-1.37585,13.2646,0,0,0,0,0,0,0,-1,853,1541,-1.37586,-13.2647
-364,-517,-1.26245,12.6289,0,0,0,0,0,0,0,-1,860,1541,-1.26243,-12.6289
-357,-517,-1.23889,12.979,0,0,0,0,0,0,0,-1,867,1541,-1.23891,-12.979
-350,-517,-5.40198,23.8954,0,0,0,0,0,0,0,-1,874,1541,-5.40196,-23.8954
-343,-517,-5.45844,29.2598,0,0,0,0,0,0,0,-1,881,1541,-5.45842,-29.2598
-336,-517,-4.53223,29.6708,0,0,0,0,0,0,0,-1,888,1541,-4.53221,-29.6708
-329,-517,-3.60602,30.0817,0,0,0,0,0,0,0,-1,895,1541,-3.60601,-30.0817
-322,-517,-4.21246,19.5819,0,0,0,0,0,0,0,-1,902,1541,-4.21244,-19.5819
-315,-517,-0.987976,7.29749,0,0,0,0,0,0,0,-1,909,1541,-0.987993,-7.29743
-308,-517,3.27911,17.621,0,0,0,0,0,0,0,-1,916,1541,3.27913,-17.621
-301,-517,-1.69141,8.87488,0,0,0,0,0,0,0,-1,923,1541,-1.69141,-8.87485
-294,-517,-1.72583,9.92566,0,0,0,0,0,0,0,-1,930,1541,-1.72584,-9.92571
-287,-517,-3.09045,12.1472,0,0,0,0,0,0,0,-1,937,1541,-3.09043,-12.1472
-280,-517,0,0,0,0,0,0,0,0,0,-1,944,1541,0,0
-273,-517,0,0,0,0,0,0,0,0,0,-1,951,1541,0,0
-266,-517,0,0,0,0,0,0,0,0,0,-1,958,1541,0,0
-259,-517,0,0,0,0,0,0,0,0,0,-1,965,1541,0,0
-252,-517,0,0,0,0,0,0,0,0,0,-1,972,1541,0,0
-245,-517,0,0,0,0,0,0,0,0,0,-1,979,1541,0,0
-238,-517,0,0,0,0,0,0,0,0,0,-1,986,1541,0,0
-231,-517,0,0,0,0,0,0,0,0,0,-1,993,1541,0,0
-224,-517,0,0,0,0,0,0,0,0,0,-1,1000,1541,0,0
-217,-517,0,0,0,0,0,0,0,0,0,-1,1007,1541,0,0
-210,-517,0,0,0,0,0,0,0,0,0,-1,1014,1541,0,0
-203,-517,0,0,0,0,0,0,0,0,0,-1,1021,1541,0,0
-196,-517,0,0,0,0,0,0,0,0,0,-1,1028,1541,0,0
-189,-517,0,0,0,0,0,0,0,0,0,-1,1035,1541,0,0
-182,-517,0,0,0,0,0,0,0,0,0,-1,1042,1541,0,0
-175,-517,0,0,0,0,0,0,0,0,0,-1,1049,1541,0,0
-168,-517,0,0,0,0,0,0,0,0,0,-1,1056,1541,0,0
-161,-517,0,0,0,0,0,0,0,0,0,-1,1063,1541,0,0
-154,-517,0,0,0,0,0,0,0,0,0,-1,1070,1541,0,0
-147,-517,0,0,0,0,0,0,0,0,0,-1,1077,1541,0,0
-140,-517,0,0,0,0,0,0,0,0,0,-1,1084,1541,0,0
-133,-517,0,0,0,0,0,0,0,0,0,-1,1091,1541,0,0
-126,-517,0,0,0,0,0,0,0,0,0,-1,1098,1541,0,0
-119,-517,0,0,0,0,0,0,0,0,0,-1,1105,1541,0,0
-112,-517,0,0,0,0,0,0,0,0,0,-1,1112,1541,0,0
-105,-517,0,0,0,0,0,0,0,0,0,-1,1119,1541,0,0
-98,-517,0,0,0,0,0,0,0,0,0,-1,1126,1541,0,0
-91,-517,0,0,0,0,0,0,0,0,0,-1,1133,1541,0,0
-84,-517,0,0,0,0,0,0,0,0,0,-1,1140,1541,0,0
-77,-517,0,0,0,0,0,0,0,0,0,-1,1147,1541,0,0
-70,-517,0,0,0,0,0,0,0,0,0,-1,1154,1541,0,0
-63,-517,0,0,0,0,0,0,0,0,0,-1,1161,1541,0,0
-56,-517,0,0,0,0,0,0,0,0,0,-1,1168,1541,0,0
-49,-517,0,0,0,0,0,0,0,0,0,-1,1175,1541,0,0
-42,-517,0,0,0,0,0,0,0,0,0,-1,1182,1541,0,0
-35,-517,0,0,0,0,0,0,0,0,0,-1,1189,1541,0,0
-28,-517,0,0,0,0,0,0,0,0,0,-1,1196,1541,0,0
-21,-517,0,0,0,0,0,0,0,0,0,-1,1203,1541,0,0
-14,-517,0,0,0,0,0,0,0,0,0,-1,1210,1541,0,0
-7,-517,0,0,0,0,0,0,0,0,0,-1,1217,1541,0,0
0,-517,0,0,0,0,0,0,0,0,0,-1,1224,1541,0,0
7,-517,0,0,0,0,0,0,0,0,0,-1,1231,1541,0,0
14,-517,0,0,0,0,0,0,0,0,0,-1,1238,1541,0,0
21,-517,0,0,0,0,0,0,0,0,0,-1,1245,1541,0,0
28,-517,0,0,0,0,0,0,0,0,0,-1,1252,1541,0,0
35,-517,0,0,0,0,0,0,0,0,0,-1,1259,1541,0,0
42,-517,0,0,0,0,0,0,0,0,0,-1,1266,1541,0,0
49,-517,0,0,0,0,0,0,0,0,0,-1,1273,1541,0,0
56,-517,0,0,0,0,0,0,0,0,0,-1,1280,1541,0,0
63,-517,0,0,0,0,0,0,0,0,0,-1,1287,1541,0,0
70,-517,0,0,0,0,0,0,0,0,0,-1,1294,1541,0,0
77,-517,0,0,0,0,0,0,0,0,0,-1,1301,1541,0,0
84,-517,0,0,0,0,0,0,0,0,0,-1,1308,1541,0,0
91,-517,0,0,0,0,0,0,0,0,0,-1,1315,1541,0,0
98,-517,0,0,0,0,0,0,0,0,0,-1,1322,1541,0,0
105,-517,0,0,0,0,0,0,0,0,0,-1,1329,1541,0,0
112,-517,0,0,0,0,0,0,0,0,0,-1,1336,1541,0,0
119,-517,0,0,0,0,0,0,0,0,0,-1,1343,1541,0,0
126,-517,0,0,0,0,0,0,0,0,0,-1,1350,1541,0,0
133,-517,0,0,0,0,0,0,0,0,0,-1,1357,1541,0,0
140,-517,0,0,0,0,0,0,0,0,0,-1,1364,1541,0,0
147,-517,0,0,0,0,0,0,0,0,0,-1,1371,1541,0,0
154,-517,0,0,0,0,0,0,0,0,0,-1,1378,1541,0,0
161,-517,0,0,0,0,0,0,0,0,0,-1,1385,1541,0,0
168,-517,0,0,0,0,0,0,0,0,0,-1,1392,1541,0,0
175,-517,0,0,0,0,0,0,0,0,0,-1,1399,1541,0,0
182,-517,0,0,0,0,0,0,0,0,0,-1,1406,1541,0,0
189,-517,0,0,0,0,0,0,0,0,0,-1,1413,1541,0,0
196,-517,0,0,0,0,0,0,0,0,0,-1,1420,1541,0,0
203,-517,0,0,0,0,0,0,0,0,0,-1,1427,1541,0,0
210,-517,0,0,0,0,0,0,0,0,0,-1,1434,1541,0,0
217,-517,0,0,0,0,0,0,0,0,0,-1,1441,1541,0,0
224,-517,0,0,0,0,0,0,0,0,0,-1,1448,1541,0,0
231,-517,0,0,0,0,0,0,0,0,0,-1,1455,1541,0,0
238,-517,0,0,0,0,0,0,0,0,0,-1,1462,1541,0,0
245,-517,0,0,0,0,0,0,0,0,0,-1,1469,1541,0,0
252,-517,0,0,0,0,0,0,0,0,0,-1,1476,1541,0,0
259,-517,0,0,0,0,0,0,0,0,0,-1,1483,1541,0,0
266,-517,0,0,0,0,0,0,0,0,0,-1,1490,1541,0,0
273,-517,0,0,0,0,0,0,0,0,0,-1,1497,1541,0,0
280,-517,0,0,0,0,0,0,0,0,0,-1,1504,1541,0,0
287,-517,0,0,0,0,0,0,0,0,0,-1,1511,1541,0,0
294,-517,0,0,0,0,0,0,0,0,0,-1,1518,1541,0,0
301,-517,0,0,0,0,0,0,0,0,0,-1,1525,1541,0,0
308,-517,0,0,0,0,0,0,0,0,0,-1,1532,1541,0,0
315,-517,0,0,0,0,0,0,0,0,0,-1,1539,1541,0,0
322,-517,0,0,0,0,0,0,0,0,0,-1,1546,1541,0,0
329,-517,0,0,0,0,0,0,0,0,0,-1,1553,1541,0,0
336,-517,0,0,0,0,0,0,0,0,0,-1,1560,1541,0,0
343,-517,0,0,0,0,0,0,0,0,0,-1,1567,1541,0,0
350,-517,0,0,0,0,0,0,0,0,0,-1,1574,1541,0,0
357,-517,0,0,0,0,0,0,0,0,0,-1,1581,1541,0,0
364,-517,0,0,0,0,0,0,0,0,0,-1,1588,1541,0,0
371,-517,0,0,0,0,0,0,0,0,0,-1,1595,1541,0,0
378,-517,0,0,0,0,0,0,0,0,0,-1,1602,1541,0,0
385,-517,0,0,0,0,0,0,0,0,0,-1,1609,1541,0,0
392,-517,0,0,0,0,0,0,0,0,0,-1,1616,1541,0,0
399,-517,0,0,0,0,0,0,0,0,0,-1,1623,1541,0,0
406,-517,13.1395,7.01978,0,0,0,0,0,0,0,-1,1630,1541,13.1396,-7.01981
413,-517,12.8859,6.31592,0,0,0,0,0,0,0,-1,1637,1541,12.8858,-6.31588
420,-517,12.4789,6.20337,0,0,0,0,0,0,0,-1,1644,1541,12.4789,-6.20333
427,-517,11.647,4.66516,0,0,0,0,0,0,0,-1,1651,1541,11.647,-4.66519
434,-517,12.3719,3.92773,0,0,0,0,0,0,0,-1,1658,1541,12.3719,-3.92776
441,-517,13.146,3.14124,0,0,0,0,0,0,0,-1,1665,1541,13.146,-3.14121
448,-517,13.8861,2.36682,0,0,0,0,0,0,0,-1,1672,1541,13.8861,-2.36684
455,-517,13.6012,4.06335,0,0,0,0,0,0,0,-1,1679,1541,13.6012,-4.06335
462,-517,14.8956,7.0752,0,0,0,0,0,0,0,-1,1686,1541,14.8956,-7.07525
469,-517,13.6292,6.87744,0,0,0,0,0,0,0,-1,1693,1541,13.6292,-6.87739
476,-517,17.1632,14.1487,0,0,0,0,0,0,0,-1,1700,1541,17.1632,-14.1487
483,-517,16.5157,15.0776,0,0,0,0,0,0,0,-1,1707,1541,16.5157,-15.0777
490,-517,15.5439,18.0258,0,0,0,0,0,0,0,-1,1714,1541,15.5439,-18.0258
497,-517,16.0292,18.7786,0,0,0,0,0,0,0,-1,1721,1541,16.0291,-18.7786
504,-517,28.1973,41.4608,0,0,0,0,0,0,0,-1,1728,1541,28.1973,-41.4608
511,-517,28.4058,40.6876,0,0,0,0,0,0,0,-1,1735,1541,28.4057,-40.6877
518,-517,28.5475,39.453,0,0,0,0,0,0,0,-1,1742,1541,28.5475,-39.453
525,-517,28.298,38.7026,0.00933022,0.0084891,-0.00703517,0.0159574,0.00186193,-0.755544,0.0100751,0.0274592,1749,1541,28.2979,-38.7027
532,-517,28.4468,37.7443,0.0074842,0.00679181,-0.00562084,0.0127695,0.00150651,-0.754642,0.00805791,0.013962,1756,1541,28.4467,-37.7443
539,-517,28.4253,36.9023,0.00598539,0.00537562,-0.00441514,0.0101062,0.00125485,-0.750926,0.00636055,0.0152339,1763,1541,28.4253,-36.9023
546,-517,28.3729,36.0988,0.00472596,0.00410121,-0.00341652,0.00784436,0.000982814,-0.73981,0.0049347,0.0155576,1770,1541,28.3729,-36.0987
553,-517,28.3153,35.2623,0.00366429,0.00298248,-0.00254788,0.00589397,0.000752803,-0.718894,0.00370397,0.0198843,1777,1541,28.3153,-35.2624
560,-517,28.2758,34.4004,0.00285262,0.0021115,-0.0019057,0.00442345,0.000540674,-0.689372,0.00278629,0.0180423,1784,1541,28.2758,-34.4004
567,-517,28.2311,33.5551,0.0022821,0.00146979,-0.00152888,0.00345786,0.000294033,-0.65557,0.00221375,0.0135414,1791,1541,28.2311,-33.5551
574,-517,28.1721,32.6932,0.00192889,0.00103133,-0.00133835,0.0028917,6.85184e-05,-0.62363,0.00190537,0.0154484,1798,1541,28.1722,-32.6933
581,-517,28.0986,31.8589,0.00187301,0.000894772,-0.00142226,0.0028879,-0.00012012,-0.619781,0.00196653,0.0166175,1805,1541,28.0986,-31.8589
588,-517,28.048,31.026,0.00207164,0.000998708,-0.00169115,0.00330938,-0.000239023,-0.631808,0.00229009,0.0177403,1812,1541,28.048,-31.026
595,-517,28.2616,29.9152,0,0,0,0,0,0,0,-1,1819,1541,28.2616,-29.9151
602,-517,28.1732,28.2633,0,0,0,0,0,0,0,-1,1826,1541,28.1733,-28.2633
609,-517,12.6417,10.8751,0,0,0,0,0,0,0,-1,1833,1541,12.6417,-10.8751
616,-517,14.205,10.3193,0,0,0,0,0,0,0,-1,1840,1541,14.205,-10.3194
623,-517,12.578,10.0779,0,0,0,0,0,0,0,-1,1847,1541,12.578,-10.0779
630,-517,11.7035,7.47815,0,0,0,0,0,0,0,-1,1854,1541,11.7035,-7.47812
637,-517,11.5172,5.79822,0,0,0,0,0,0,0,-1,1861,1541,11.5173,-5.79825
644,-517,11.4232,3.30579,0,0,0,0,0,0,0,-1,1868,1541,11.4232,-3.30574
651,-517,0,0,0,0,0,0,0,0,0,-1,1875,1541,0,0
658,-517,0,0,0,0,0,0,0,0,0,-1,1882,1541,0,0
665,-517,0,0,0,0,0,0,0,0,0,-1,1889,1541,0,0
672,-517,0,0,0,0,0,0,0,0,0,-1,1896,1541,0,0
679,-517,0,0,0,0,0,0,0,0,0,-1,1903,1541,0,0
686,-517,0,0,0,0,0,0,0,0,0,-1,1910,1541,0,0
693,-517,0,0,0,0,0,0,0,0,0,-1,1917,1541,0,0
700,-517,0,0,0,0,0,0,0,0,0,-1,1924,1541,0,0
707,-517,0,0,0,0,0,0,0,0,0,-1,1931,1541,0,0
714,-517,0,0,0,0,0,0,0,0,0,-1,1938,1541,0,0
721,-517,0,0,0,0,0,0,0,0,0,-1,1945,1541,0,0
728,-517,0,0,0,0,0,0,0,0,0,-1,1952,1541,0,0
735,-517,0,0,0,0,0,0,0,0,0,-1,1959,1541,0,0
742,-517,0,0,0,0,0,0,0,0,0,-1,1966,1541,0,0
749,-517,0,0,0,0,0,0,0,0,0,-1,1973,1541,0,0
756,-517,0,0,0,0,0,0,0,0,0,-1,1980,1541,0,0
763,-517,0,0,0,0,0,0,0,0,0,-1,1987,1541,0,0
770,-517,0,0,0,0,0,0,0,0,0,-1,1994,1541,0,0
777,-517,0,0,0,0,0,0,0,0,0,-1,2001,1541,0,0
784,-517,0,0,0,0,0,0,0,0,0,-1,2008,1541,0,0
791,-517,0,0,0,0,0,0,0,0,0,-1,2015,1541,0,0
798,-517,0,0,0,0,0,0,0,0,0,-1,2022,1541,0,0
805,-517,0,0,0,0,0,0,0,0,0,-1,2029,1541,0,0
812,-517,0,0,0,0,0,0,0,0,0,-1,2036,1541,0,0
-700,-524,0,0,0,0,0,0,0,0,0,-1,524,1548,0,0
-693,-524,0,0,0,0,0,0,0,0,0,-1,531,1548,0,0
-686,-524,0,0,0,0,0,0,0,0,0,-1,538,1548,0,0
-679,-524,0,0,0,0,0,0,0,0,0,-1,545,1548,0,0
-672,-524,0,0,0,0,0,0,0,0,0,-1,552,1548,0,0
-665,-524,0,0,0,0,0,0,0,0,0,-1,559,1548,0,0
-658,-524,0,0,0,0,0,0,0,0,0,-1,566,1548,0,0
-651,-524,0,0,0,0,0,0,0,0,0,-1,573,1548,0,0
-644,-524,0,0,0,0,0,0,0,0,0,-1,580,1548,0,0
-637,-524,0,0,0,0,0,0,0,0,0,-1,587,1548,0,0
-630,-524,0,0,0,0,0,0,0,0,0,-1,594,1548,0,0
-623,-524,0,0,0,0,0,0,0,0,0,-1,601,1548,0,0
-616,-524,0,0,0,0,0,0,0,0,0,-1,608,1548,0,0
-609,-524,0,0,0,0,0,0,0,0,0,-1,615,1548,0,0
-602,-524,0,0,0,0,0,0,0,0,0,-1,622,1548,0,0
-595,-524,0,0,0,0,0,0,0,0,0,-1,629,1548,0,0
-588,-524,0,0,0,0,0,0,0,0,0,-1,636,1548,0,0
-581,-524,0,0,0,0,0,0,0,0,0,-1,643,1548,0,0
-574,-524,0,0,0,0,0,0,0,0,0,-1,650,1548,0,0
-567,-524,0,0,0,0,0,0,0,0,0,-1,657,1548,0,0
-560,-524,0,0,0,0,0,0,0,0,0,-1,664,1548,0,0
-553,-524,0,0,0,0,0,0,0,0,0,-1,671,1548,0,0
-546,-524,0,0,0,0,0,0,0,0,0,-1,678,1548,0,0
-539,-524,0,0,0,0,0,0,0,0,0,-1,685,1548,0,0
-532,-524,0,0,0,0,0,0,0,0,0,-1,692,1548,0,0
-525,-524,-0.215515,3.97131,0,0,0,0,0,0,0,-1,699,1548,-0.215501,-3.97136
-518,-524,-0.806274,4.35632,0,0,0,0,0,0,0,-1,706,1548,-0.806259,-4.35633
-511,-524,-1.08301,4.29004,0,0,0,0,0,0,0,-1,713,1548,-1.08301,-4.29006
-504,-524,-1.28821,3.98145,0,0,0,0,0,0,0,-1,720,1548,-1.28822,-3.98151
-497,-524,-0.328491,8.63416,0,0,0,0,0,0,0,-1,727,1548,-0.328487,-8.63411
-490,-524,-6.65582,19.3033,0,0,0,0,0,0,0,-1,734,1548,-6.65583,-19.3034
-483,-524,-7.57153,22.1989,0,0,0,0,0,0,0,-1,741,1548,-7.57151,-22.1988
-476,-524,-8.51898,26.7598,0,0,0,0,0,0,0,-1,748,1548,-8.51897,-26.7597
-469,-524,-9.26392,29.5757,0,0,0,0,0,0,0,-1,755,1548,-9.26389,-29.5756
-462,-524,-9.53265,30.6747,0,0,0,0,0,0,0,-1,762,1548,-9.53268,-30.6747
-455,-524,-9.61316,31.6904,0,0,0,0,0,0,0,-1,769,1548,-9.61316,-31.6905
-448,-524,-9.6059,32.6383,-0.000635201,0.000475822,-1.63275e-05,0.000476062,-0.000635441,-1.5561,0.000643922,0.0185675,776,1548,-9.60588,-32.6383
-441,-524,-9.63055,33.5112,-0.00055914,0.000364588,-8.88727e-05,0.000373061,-0.000567613,-1.47575,0.000546956,0.010968,783,1548,-9.63052,-33.5112
-434,-524,-9.64252,34.3875,-0.000302649,0.000404905,-2.38022e-05,0.000405705,-0.000303449,-1.53721,0.000410846,0.0133815,790,1548,-9.64251,-34.3874
-427,-524,-9.70496,35.2739,1.18522e-05,0.000453764,6.92683e-05,0.000464367,1.24905e-06,1.4189,0.000309163,0.0164934,797,1548,-9.70497,-35.2739
-420,-524,-9.78998,36.1233,0.000426632,0.000607482,0.000208307,0.000744144,0.00028997,0.990173,0.000433104,0.0415806,804,1548,-9.78996,-36.1233
-413,-524,-9.89209,36.9778,0.000986465,0.000845042,0.000433265,0.00135475,0.000476756,0.704509,0.000793518,0.0385908,811,1548,-9.89209,-36.9778
-406,-524,-9.89398,37.8646,0.00161603,0.00120639,0.000691695,0.00213259,0.000689829,0.641457,0.00125657,0.0141457,818,1548,-9.89399,-37.8646
-399,-524,-9.94128,38.7162,0.0022507,0.00160954,0.000940964,0.0029242,0.000936046,0.621218,0.00172433,0.0101266,825,1548,-9.94131,-38.7162
-392,-524,-10.0017,39.5397,0.00284318,0.00219201,0.00123185,0.00379175,0.00124344,0.656199,0.00223196,0.0106835,832,1548,-10.0017,-39.5396
-385,-524,-10.0444,40.4336,0.00358127,0.00284177,0.00155011,0.00480512,0.00161793,0.66832,0.00282312,0.0197857,839,1548,-10.0444,-40.4335
-378,-524,-10.0316,41.4008,0,0,0,0,0,0,0,-1,846,1548,-10.0315,-41.4007
-371,-524,-4.20789,29.1592,0,0,0,0,0,0,0,-1,853,1548,-4.2079,-29.1592
-364,-524,-0.712097,14.9871,0,0,0,0,0,0,0,-1,860,1548,-0.712116,-14.9871
-357,-524,-1.34052,14.7448,0,0,0,0,0,0,0,-1,867,1548,-1.34054,-14.7447
-350,-524,-4.31909,25.032,0,0,0,0,0,0,0,-1,874,1548,-4.31906,-25.0319
-343,-524,-3.69696,28.6923,0,0,0,0,0,0,0,-1,881,1548,-3.69694,-28.6922
-336,-524,-3.4873,29.655,0,0,0,0,0,0,0,-1,888,1548,-3.48728,-29.6551
-329,-524,-3.21936,30.5509,0,0,0,0,0,0,0,-1,895,1548,-3.21933,-30.5509
-322,-524,-4.31378,25.6389,0,0,0,0,0,0,0,-1,902,1548,-4.31379,-25.639
-315,-524,-1.90839,19.4824,0,0,0,0,0,0,0,-1,909,1548,-1.90838,-19.4824
-308,-524,-2.36938,19.3059,0,0,0,0,0,0,0,-1,916,1548,-2.3694,-19.3058
-301,-524,2.72394,17.7618,0,0,0,0,0,0,0,-1,923,1548,2.72396,-17.7619
-294,-524,-1.52515,9.05408,0,0,0,0,0,0,0,-1,930,1548,-1.52512,-9.05411
-287,-524,-0.962219,10.3199,0,0,0,0,0,0,0,-1,937,1548,-0.962241,-10.32
-280,-524,-1.36255,10.3859,0,0,0,0,0,0,0,-1,944,1548,-1.36253,-10.3859
-273,-524,0,0,0,0,0,0,0,0,0,-1,951,1548,0,0
-266,-524,0,0,0,0,0,0,0,0,0,-1,958,1548,0,0
-259,-524,0,0,0,0,0,0,0,0,0,-1,965,1548,0,0
-252,-524,0,0,0,0,0,0,0,0,0,-1,972,1548,0,0
-245,-524,0,0,0,0,0,0,0,0,0,-1,979,1548,0,0
-238,-524,0,0,0,0,0,0,0,0,0,-1,986,1548,0,0
-231,-524,0,0,0,0,0,0,0,0,0,-1,993,1548,0,0
-224,-524,0,0,0,0,0,0,0,0,0,-1,1000,1548,0,0
-217,-524,0,0,0,0,0,0,0,0,0,-1,1007,1548,0,0
-210,-524,0,0,0,0,0,0,0,0,0,-1,1014,1548,0,0
-203,-524,0,0,0,0,0,0,0,0,0,-1,1021,1548,0,0
-196,-524,0,0,0,0,0,0,0,0,0,-1,1028,1548,0,0
-189,-524,0,0,0,0,0,0,0,0,0,-1,1035,1548,0,0
-182,-524,0,0,0,0,0,0,0,0,0,-1,1042,1548,0,0
-175,-524,0,0,0,0,0,0,0,0,0,-1,1049,1548,0,0
-168,-524,0,0,0,0,0,0,0,0,0,-1,1056,1548,0,0
-161,-524,0,0,0,0,0,0,0,0,0,-1,1063,1548,0,0
-154,-524,0,0,0,0,0,0,0,0,0,-1,1070,1548,0,0
-147,-524,0,0,0,0,0,0,0,0,0,-1,1077,1548,0,0
-140,-524,0,0,0,0,0,0,0,0,0,-1,1084,1548,0,0
-133,-524,0,0,0,0,0,0,0,0,0,-1,1091,1548,0,0
-126,-524,0,0,0,0,0,0,0,0,0,-1,1098,1548,0,0
-119,-524,0,0,0,0,0,0,0,0,0,-1,1105,1548,0,0
-112,-524,0,0,0,0,0,0,0,0,0,-1,1112,1548,0,0
-105,-524,0,0,0,0,0,0,0,0,0,-1,1119,1548,0,0
-98,-524,0,0,0,0,0,0,0,0,0,-1,1126,1548,0,0
-91,-524,0,0,0,0,0,0,0,0,0,-1,1133,1548,0,0
-84,-524,0,0,0,0,0,0,0,0,0,-1,1140,1548,0,0
-77,-524,0,0,0,0,0,0,0,0,0,-1,1147,1548,0,0
-70,-524,0,0,0,0,0,0,0,0,0,-1,1154,1548,0,0
-63,-524,0,0,0,0,0,0,0,0,0,-1,1161,1548,0,0
-56,-524,0,0,0,0,0,0,0,0,0,-1,1168,1548,0,0
-49,-524,0,0,0,0,0,0,0,0,0,-1,1175,1548,0,0
-42,-524,0,0,0,0,0,0,0,0,0,-1,1182,1548,0,0
-35,-524,0,0,0,0,0,0,0,0,0,-1,1189,1548,0,0
-28,-524,0,0,0,0,0,0,0,0,0,-1,1196,1548,0,0
-21,-524,0,0,0,0,0,0,0,0,0,-1,1203,1548,0,0
-14,-524,0,0,0,0,0,0,0,0,0,-1,1210,1548,0,0
-7,-524,0,0,0,0,0,0,0,0,0,-1,1217,1548,0,0
0,-524,0,0,0,0,0,0,0,0,0,-1,1224,1548,0,0
7,-524,0,0,0,0,0,0,0,0,0,-1,1231,1548,0,0
14,-524,0,0,0,0,0,0,0,0,0,-1,1238,1548,0,0
21,-524,0,0,0,0,0,0,0,0,0,-1,1245,1548,0,0
28,-524,0,0,0,0,0,0,0,0,0,-1,1252,1548,0,0
35,-524,0,0,0,0,0,0,0,0,0,-1,1259,1548,0,0
42,-524,0,0,0,0,0,0,0,0,0,-1,1266,1548,0,0
49,-524,0,0,0,0,0,0,0,0,0,-1,1273,1548,0,0
56,-524,0,0,0,0,0,0,0,0,0,-1,1280,1548,0,0
63,-524,0,0,0,0,0,0,0,0,0,-1,1287,1548,0,0
70,-524,0,0,0,0,0,0,0,0,0,-1,1294,1548,0,0
77,-524,0,0,0,0,0,0,0,0,0,-1,1301,1548,0,0
84,-524,0,0,0,0,0,0,0,0,0,-1,1308,1548,0,0
91,-524,0,0,0,0,0,0,0,0,0,-1,1315,1548,0,0
98,-524,0,0,0,0,0,0,0,0,0,-1,1322,1548,0,0
105,-524,0,0,0,0,0,0,0,0,0,-1,1329,1548,0,0
112,-524,0,0,0,0,0,0,0,0,0,-1,1336,1548,0,0
119,-524,0,0,0,0,0,0,0,0,0,-1,1343,1548,0,0
126,-524,0,0,0,0,0,0,0,0,0,-1,1350,1548,0,0
133,-524,0,0,0,0,0,0,0,0,0,-1,1357,1548,0,0
140,-524,0,0,0,0,0,0,0,0,0,-1,1364,1548,0,0
147,-524,0,0,0,0,0,0,0,0,0,-1,1371,1548,0,0
154,-524,0,0,0,0,0,0,0,0,0,-1,1378,1548,0,0
161,-524,0,0,0,0,0,0,0,0,0,-1,1385,1548,0,0
168,-524,0,0,0,0,0,0,0,0,0,-1,1392,1548,0,0
175,-524,0,0,0,0,0,0,0,0,0,-1,1399,1548,0,0
182,-524,0,0,0,0,0,0,0,0,0,-1,1406,1548,0,0
189,-524,0,0,0,0,0,0,0,0,0,-1,1413,1548,0,0
196,-524,0,0,0,0,0,0,0,0,0,-1,1420,1548,0,0
203,-524,0,0,0,0,0,0,0,0,0,-1,1427,1548,0,0
210,-524,0,0,0,0,0,0,0,0,0,-1,1434,1548,0,0
217,-524,0,0,0,0,0,0,0,0,0,-1,1441,1548,0,0
224,-524,0,0,0,0,0,0,0,0,0,-1,1448,1548,0,0
231,-524,0,0,0,0,0,0,0,0,0,-1,1455,1548,0,0
238,-524,0,0,0,0,0,0,0,0,0,-1,1462,1548,0,0
245,-524,0,0,0,0,0,0,0,0,0,-1,1469,1548,0,0
252,-524,0,0,0,0,0,0,0,0,0,-1,1476,1548,0,0
259,-524,0,0,0,0,0,0,0,0,0,-1,1483,1548,0,0
266,-524,0,0,0,0,0,0,0,0,0,-1,1490,1548,0,0
273,-524,0,0,0,0,0,0,0,0,0,-1,1497,1548,0,0
280,-524,0,0,0,0,0,0,0,0,0,-1,1504,1548,0,0
287,-524,0,0,0,0,0,0,0,0,0,-1,1511,1548,0,0
294,-524,0,0,0,0,0,0,0,0,0,-1,1518,1548,0,0
301,-524,0,0,0,0,0,0,0,0,0,-1,1525,1548,0,0
308,-524,0,0,0,0,0,0,0,0,0,-1,1532,1548,0,0
315,-524,0,0,0,0,0,0,0,0,0,-1,1539,1548,0,0
322,-524,0,0,0,0,0,0,0,0,0,-1,1546,1548,0,0
329,-524,0,0,0,0,0,0,0,0,0,-1,1553,1548,0,0
336,-524,0,0,0,0,0,0,0,0,0,-1,1560,1548,0,0
343,-524,0,0,0,0,0,0,0,0,0,-1,1567,1548,0,0
350,-524,0,0,0,0,0,0,0,0,0,-1,1574,1548,0,0
357,-524,0,0,0,0,0,0,0,0,0,-1,1581,1548,0,0
364,-524,0,0,0,0,0,0,0,0,0,-1,1588,1548,0,0
371,-524,0,0,0,0,0,0,0,0,0,-1,1595,1548,0,0
378,-524,0,0,0,0,0,0,0,0,0,-1,1602,1548,0,0
385,-524,0,0,0,0,0,0,0,0,0,-1,1609,1548,0,0
392,-524,0,0,0,0,0,0,0,0,0,-1,1616,1548,0,0
399,-524,8.81848,5.05774,0,0,0,0,0,0,0,-1,1623,1548,8.81843,-5.05769
406,-524,8.64294,6.06799,0,0,0,0,0,0,0,-1,1630,1548,8.6429,-6.06805
413,-524,11.677,6.41858,0,0,0,0,0,0,0,-1,1637,1548,11.677,-6.41864
420,-524,11.4913,6.36401,0,0,0,0,0,0,0,-1,1644,1548,11.4913,-6.36402
427,-524,7.68335,6.17249,0,0,0,0,0,0,0,-1,1651,1548,7.68341,-6.17245
434,-524,10.432,11.6801,0,0,0,0,0,0,0,-1,1658,1548,10.432,-11.68
441,-524,8.78552,4.12305,0,0,0,0,0,0,0,-1,1665,1548,8.78553,-4.12301
448,-524,14.1854,4.78674,0,0,0,0,0,0,0,-1,1672,1548,14.1854,-4.78674
455,-524,12.4784,3.65576,0,0,0,0,0,0,0,-1,1679,1548,12.4784,-3.65572
462,-524,14.7551,9.29395,0,0,0,0,0,0,0,-1,1686,1548,14.7552,-9.29397
469,-524,16.3314,14.3779,0,0,0,0,0,0,0,-1,1693,1548,16.3314,-14.3779
476,-524,15.9106,15.1875,0,0,0,0,0,0,0,-1,1700,1548,15.9107,-15.1876
483,-524,15.2776,16.2268,0,0,0,0,0,0,0,-1,1707,1548,15.2776,-16.2269
490,-524,15.2563,18.5848,0,0,0,0,0,0,0,-1,1714,1548,15.2564,-18.5848
497,-524,27.7587,42.1725,0,0,0,0,0,0,0,-1,1721,1548,27.7587,-42.1725
504,-524,27.5413,41.2411,0,0,0,0,0,0,0,-1,1728,1548,27.5412,-41.2411
511,-524,27.689,40.441,0,0,0,0,0,0,0,-1,1735,1548,27.689,-40.4411
518,-524,27.7096,39.4921,0.00896762,0.00825622,-0.00663786,0.0152593,0.00196453,-0.758631,0.00958537,0.0256168,1742,1548,27.7096,-39.492
525,-524,27.639,38.663,0.0072245,0.00671868,-0.00540814,0.0123856,0.00155754,-0.762033,0.00778999,0.0145746,1749,1548,27.639,-38.6629
532,-524,27.6061,37.8065,0.00567794,0.00532274,-0.00427494,0.00977896,0.00122172,-0.764638,0.00615264,0.0113174,1756,1548,27.6061,-37.8065
539,-524,27.5638,36.9551,0.0044451,0.0041616,-0.00332364,0.00763001,0.000976689,-0.764087,0.00479438,0.0128542,1763,1548,27.5638,-36.9551
546,-524,27.5,36.1549,0.0034182,0.00311433,-0.00253592,0.00580673,0.000725802,-0.755478,0.00365333,0.0163677,1770,1548,27.5,-36.1549
553,-524,27.4821,35.3402,0.0025738,0.00219462,-0.00185345,0.00424733,0.000521094,-0.73443,0.00267483,0.0270803,1777,1548,27.482,-35.3402
560,-524,27.5217,34.4816,0.00197992,0.00149364,-0.00137561,0.00313371,0.000339849,-0.697927,0.00198558,0.0340439,1784,1548,27.5217,-34.4816
567,-524,27.3689,33.6093,0.00161694,0.00098982,-0.00112338,0.0024697,0.000137067,-0.6493,0.00160273,0.0182828,1791,1548,27.3689,-33.6093
574,-524,27.3248,32.7494,0.0014619,0.000655495,-0.00104021,0.00217432,-5.69246e-05,-0.600506,0.00146889,0.0141758,1798,1548,27.3248,-32.7494
581,-524,27.2905,31.8892,0.00169144,0.00063914,-0.00130657,0.00257382,-0.000243238,-0.593984,0.00180244,0.016285,1805,1548,27.2905,-31.8892
588,-524,27.3198,31.0234,0.00228208,0.00096938,-0.00181036,0.0035514,-0.000299942,-0.611492,0.00247365,0.0349228,1812,1548,27.3199,-31.0234
595,-524,27.3539,29.8961,0,0,0,0,0,0,0,-1,1819,1548,27.3539,-29.8961
602,-524,13.837,12.0682,0,0,0,0,0,0,0,-1,1826,1548,13.837,-12.0683
609,-524,13.0056,10.5138,0,0,0,0,0,0,0,-1,1833,1548,13.0056,-10.5138
616,-524,11.6941,8.65515,0,0,0,0,0,0,0,-1,1840,1548,11.6941,-8.65514
623,-524,9.38452,5.15356,0,0,0,0,0,0,0,-1,1847,1548,9.38456,-5.15359
630,-524,11.0541,3.57434,0,0,0,0,0,0,0,-1,1854,1548,11.0541,-3.57438
637,-524,11.6067,3.20728,0,0,0,0,0,0,0,-1,1861,1548,11.6067,-3.20724
644,-524,12.2134,0.727173,0,0,0,0,0,0,0,-1,1868,1548,12.2134,-0.727222
651,-524,0,0,0,0,0,0,0,0,0,-1,1875,1548,0,0
658,-524,0,0,0,0,0,0,0,0,0,-1,1882,1548,0,0
665,-524,0,0,0,0,0,0,0,0,0,-1,1889,1548,0,0
672,-524,0,0,0,0,0,0,0,0,0,-1,1896,1548,0,0
679,-524,0,0,0,0,0,0,0,0,0,-1,1903,1548,0,0
686,-524,0,0,0,0,0,0,0,0,0,-1,1910,1548,0,0
693,-524,0,0,0,0,0,0,0,0,0,-1,1917,1548,0,0
700,-524,0,0,0,0,0,0,0,0,0,-1,1924,1548,0,0
707,-524,0,0,0,0,0,0,0,0,0,-1,1931,1548,0,0
714,-524,0,0,0,0,0,0,0,0,0,-1,1938,1548,0,0
721,-524,0,0,0,0,0,0,0,0,0,-1,1945,1548,0,0
728,-524,0,0,0,0,0,0,0,0,0,-1,1952,1548,0,0
735,-524,0,0,0,0,0,0,0,0,0,-1,1959,1548,0,0
742,-524,0,0,0,0,0,0,0,0,0,-1,1966,1548,0,0
749,-524,0,0,0,0,0,0,0,0,0,-1,1973,1548,0,0
756,-524,0,0,0,0,0,0,0,0,0,-1,1980,1548,0,0
763,-524,0,0,0,0,0,0,0,0,0,-1,1987,1548,0,0
770,-524,0,0,0,0,0,0,0,0,0,-1,1994,1548,0,0
777,-524,0,0,0,0,0,0,0,0,0,-1,2001,1548,0,0
784,-524,0,0,0,0,0,0,0,0,0,-1,2008,1548,0,0
791,-524,0,0,0,0,0,0,0,0,0,-1,2015,1548,0,0
798,-524,0,0,0,0,0,0,0,0,0,-1,2022,1548,0,0
805,-524,0,0,0,0,0,0,0,0,0,-1,2029,1548,0,0
812,-524,0,0,0,0,0,0,0,0,0,-1,2036,1548,0,0
-700,-531,0,0,0,0,0,0,0,0,0,-1,524,1555,0,0
-693,-531,0,0,0,0,0,0,0,0,0,-1,531,1555,0,0
-686,-531,0,0,0,0,0,0,0,0,0,-1,538,1555,0,0
-679,-531,0,0,0,0,0,0,0,0,0,-1,545,1555,0,0
-672,-531,0,0,0,0,0,0,0,0,0,-1,552,1555,0,0
-665,-531,0,0,0,0,0,0,0,0,0,-1,559,1555,0,0
-658,-531,0,0,0,0,0,0,0,0,0,-1,566,1555,0,0
-651,-531,0,0,0,0,0,0,0,0,0,-1,573,1555,0,0
-644,-531,0,0,0,0,0,0,0,0,0,-1,580,1555,0,0
-637,-531,0,0,0,0,0,0,0,0,0,-1,587,1555,0,0
-630,-531,0,0,0,0,0,0,0,0,0,-1,594,1555,0,0
-623,-531,0,0,0,0,0,0,0,0,0,-1,601,1555,0,0
-616,-531,0,0,0,0,0,0,0,0,0,-1,608,1555,0,0
-609,-531,0,0,0,0,0,0,0,0,0,-1,615,1555,0,0
-602,-531,0,0,0,0,0,0,0,0,0,-1,622,1555,0,0
-595,-531,0,0,0,0,0,0,0,0,0,-1,629,1555,0,0
-588,-531,0,0,0,0,0,0,0,0,0,-1,636,1555,0,0
-581,-531,0,0,0,0,0,0,0,0,0,-1,643,1555,0,0
-574,-531,0,0,0,0,0,0,0,0,0,-1,650,1555,0,0
-567,-531,0,0,0,0,0,0,0,0,0,-1,657,1555,0,0
-560,-531,0,0,0,0,0,0,0,0,0,-1,664,1555,0,0
-553,-531,0,0,0,0,0,0,0,0,0,-1,671,1555,0,0
-546,-531,0,0,0,0,0,0,0,0,0,-1,678,1555,0,0
-539,-531,0,0,0,0,0,0,0,0,0,-1,685,1555,0,0
-532,-531,0,0,0,0,0,0,0,0,0,-1,692,1555,0,0
-525,-531,0,0,0,0,0,0,0,0,0,-1,699,1555,0,0
-518,-531,-1.63983,4.03821,0,0,0,0,0,0,0,-1,706,1555,-1.63982,-4.03821
-511,-531,-2.9682,8.07483,0,0,0,0,0,0,0,-1,713,1555,-2.9682,-8.07479
-504,-531,-2.95978,0.557861,0,0,0,0,0,0,0,-1,720,1555,-2.95978,-0.557917
-497,-531,-2.46039,8.07422,0,0,0,0,0,0,0,-1,727,1555,-2.46039,-8.07423
-490,-531,-0.423462,7.92065,0,0,0,0,0,0,0,-1,734,1555,-0.42344,-7.92066
-483,-531,-7.50745,20.1915,0,0,0,0,0,0,0,-1,741,1555,-7.50744,-20.1915
-476,-531,-7.69647,23.6229,0,0,0,0,0,0,0,-1,748,1555,-7.6965,-23.6229
-469,-531,-8.2475,27.6931,0,0,0,0,0,0,0,-1,755,1555,-8.2475,-27.6931
-462,-531,-7.27551,28.5044,0,0,0,0,0,0,0,-1,762,1555,-7.27551,-28.5044
-455,-531,-8.80908,31.7183,0,0,0,0,0,0,0,-1,769,1555,-8.80909,-31.7182
-448,-531,-8.62396,32.6594,-0.00161709,0.000262848,-0.000790982,0.000551371,-0.00190562,-1.22103,0.00148864,0.0375482,776,1555,-8.62393,-32.6594
-441,-531,-8.79163,33.5249,-0.00137799,0.000145449,-0.000708498,0.000424012,-0.00165655,-1.19619,0.00126953,0.0153867,783,1555,-8.79164,-33.5249
-434,-531,-8.81879,34.4493,-0.000962913,0.000186794,-0.000493243,0.0003694,-0.00114552,-1.21623,0.000912098,0.0123834,790,1555,-8.81881,-34.4494
-427,-531,-8.87061,35.3422,-0.000525564,0.000237226,-0.000282099,0.000330217,-0.000618555,-1.25237,0.000556142,0.0156183,797,1555,-8.87059,-35.3422
-420,-531,-8.99377,36.1565,-5.61343e-05,0.000367175,-7.31563e-05,0.000379461,-6.84206e-05,-1.4044,0.000278596,0.0366531,804,1555,-8.99376,-36.1565
-413,-531,-9.02527,37.0663,0.00049926,0.000549956,0.000168134,0.000694643,0.000354574,0.860215,0.000401081,0.0342576,811,1555,-9.02527,-37.0662
-406,-531,-9.04956,37.9253,0.00110756,0.000840857,0.000420735,0.00141557,0.000532845,0.631934,0.000825558,0.0140519,818,1555,-9.04958,-37.9252
-399,-531,-9.10059,38.7798,0.00169816,0.00120131,0.000660154,0.00215509,0.000744389,0.605438,0.00126391,0.0153743,825,1555,-9.10061,-38.7797
-392,-531,-9.13464,39.6212,0.00224155,0.00172015,0.000923516,0.00294046,0.00102124,0.647832,0.00172386,0.0191951,832,1555,-9.13461,-39.6212
-385,-531,-9.17542,40.4595,0.0029078,0.00231323,0.00114768,0.00379607,0.00142496,0.658667,0.00221424,0.0152872,839,1555,-9.17541,-40.4594
-378,-531,-9.23956,41.267,0.00366415,0.00283464,0.00128469,0.00459938,0.00189942,0.629257,0.00266882,0.0219083,846,1555,-9.23955,-41.267
-371,-531,-9.21594,42.2194,0,0,0,0,0,0,0,-1,853,1555,-9.21597,-42.2193
-364,-531,-8.97827,43.3435,0,0,0,0,0,0,0,-1,860,1555,-8.97828,-43.3435
-357,-531,-4.29193,31.5354,0,0,0,0,0,0,0,-1,867,1555,-4.29191,-31.5354
-350,-531,-3.16101,27.5791,0,0,0,0,0,0,0,-1,874,1555,-3.16099,-27.5791
-343,-531,-2.90552,28.561,0,0,0,0,0,0,0,-1,881,1555,-2.90549,-28.5611
-336,-531,-2.6698,29.5398,0,0,0,0,0,0,0,-1,888,1555,-2.66983,-29.5398
-329,-531,-2.45148,30.4781,0,0,0,0,0,0,0,-1,895,1555,-2.45148,-30.4781
-322,-531,-3.25092,28.4921,0,0,0,0,0,0,0,-1,902,1555,-3.25092,-28.4921
-315,-531,-5.51929,31.7814,0,0,0,0,0,0,0,-1,909,1555,-5.51928,-31.7813
-308,-531,-1.66455,19.0624,0,0,0,0,0,0,0,-1,916,1555,-1.66455,-19.0623
-301,-531,-2.02405,18.8912,0,0,0,0,0,0,0,-1,923,1555,-2.02407,-18.8913
-294,-531,-1.3244,8.1825,0,0,0,0,0,0,0,-1,930,1555,-1.3244,-8.18251
-287,-531,-1.78192,10.1661,0,0,0,0,0,0,0,-1,937,1555,-1.78192,-10.1661
-280,-531,-2.14508,10.3945,0,0,0,0,0,0,0,-1,944,1555,-2.14506,-10.3945
-273,-531,-2.50818,10.6229,0,0,0,0,0,0,0,-1,951,1555,-2.5082,-10.6229
-266,-531,-4.97742,17.9215,0,0,0,0,0,0,0,-1,958,1555,-4.97744,-17.9215
-259,-531,0,0,0,0,0,0,0,0,0,-1,965,1555,0,0
-252,-531,0,0,0,0,0,0,0,0,0,-1,972,1555,0,0
-245,-531,0,0,0,0,0,0,0,0,0,-1,979,1555,0,0
-238,-531,0,0,0,0,0,0,0,0,0,-1,986,1555,0,0
-231,-531,0,0,0,0,0,0,0,0,0,-1,993,1555,0,0
-224,-531,0,0,0,0,0,0,0,0,0,-1,1000,1555,0,0
-217,-531,0,0,0,0,0,0,0,0,0,-1,1007,1555,0,0
-210,-531,0,0,0,0,0,0,0,0,0,-1,1014,1555,0,0
-203,-531,0,0,0,0,0,0,0,0,0,-1,1021,1555,0,0
-196,-531,0,0,0,0,0,0,0,0,0,-1,1028,1555,0,0
-189,-531,0,0,0,0,0,0,0,0,0,-1,1035,1555,0,0
-182,-531,0,0,0,0,0,0,0,0,0,-1,1042,1555,0,0
-175,-531,0,0,0,0,0,0,0,0,0,-1,1049,1555,0,0
-168,-531,0,0,0,0,0,0,0,0,0,-1,1056,1555,0,0
-161,-531,0,0,0,0,0,0,0,0,0,-1,1063,1555,0,0
-154,-531,0,0,0,0,0,0,0,0,0,-1,1070,1555,0,0
-147,-531,0,0,0,0,0,0,0,0,0,-1,1077,1555,0,0
-140,-531,0,0,0,0,0,0,0,0,0,-1,1084,1555,0,0
-133,-531,0,0,0,0,0,0,0,0,0,-1,1091,1555,0,0
-126,-531,0,0,0,0,0,0,0,0,0,-1,1098,1555,0,0
-119,-531,0,0,0,0,0,0,0,0,0,-1,1105,1555,0,0
-112,-531,0,0,0,0,0,0,0,0,0,-1,1112,1555,0,0
-105,-531,0,0,0,0,0,0,0,0,0,-1,1119,1555,0,0
-98,-531,0,0,0,0,0,0,0,0,0,-1,1126,1555,0,0
-91,-531,0,0,0,0,0,0,0,0,0,-1,1133,1555,0,0
-84,-531,0,0,0,0,0,0,0,0,0,-1,1140,1555,0,0
-77,-531,0,0,0,0,0,0,0,0,0,-1,1147,1555,0,0
-70,-531,0,0,0,0,0,0,0,0,0,-1,1154,1555,0,0
-63,-531,0,0,0,0,0,0,0,0,0,-1,1161,1555,0,0
-56,-531,0,0,0,0,0,0,0,0,0,-1,1168,1555,0,0
-49,-531,0,0,0,0,0,0,0,0,0,-1,1175,1555,0,0
-42,-531,0,0,0,0,0,0,0,0,0,-1,1182,1555,0,0
-35,-531,0,0,0,0,0,0,0,0,0,-1,1189,1555,0,0
-28,-531,0,0,0,0,0,0,0,0,0,-1,1196,1555,0,0
-21,-531,0,0,0,0,0,0,0,0,0,-1,1203,1555,0,0
-14,-531,0,0,0,0,0,0,0,0,0,-1,1210,1555,0,0
-7,-531,0,0,0,0,0,0,0,0,0,-1,1217,1555,0,0
0,-531,0,0,0,0,0,0,0,0,0,-1,1224,1555,0,0
7,-531,0,0,0,0,0,0,0,0,0,-1,1231,1555,0,0
14,-531,0,0,0,0,0,0,0,0,0,-1,1238,1555,0,0
21,-531,0,0,0,0,0,0,0,0,0,-1,1245,1555,0,0
28,-531,0,0,0,0,0,0,0,0,0,-1,1252,1555,0,0
35,-531,0,0,0,0,0,0,0,0,0,-1,1259,1555,0,0
42,-531,0,0,0,0,0,0,0,0,0,-1,1266,1555,0,0
49,-531,0,0,0,0,0,0,0,0,0,-1,1273,1555,0,0
56,-531,0,0,0,0,0,0,0,0,0,-1,1280,1555,0,0
63,-531,0,0,0,0,0,0,0,0,0,-1,1287,1555,0,0
70,-531,0,0,0,0,0,0,0,0,0,-1,1294,1555,0,0
77,-531,0,0,0,0,0,0,0,0,0,-1,1301,1555,0,0
84,-531,0,0,0,0,0,0,0,0,0,-1,1308,1555,0,0
91,-531,0,0,0,0,0,0,0,0,0,-1,1315,1555,0,0
98,-531,0,0,0,0,0,0,0,0,0,-1,1322,1555,0,0
105,-531,0,0,0,0,0,0,0,0,0,-1,1329,1555,0,0
112,-531,0,0,0,0,0,0,0,0,0,-1,1336,1555,0,0
119,-531,0,0,0,0,0,0,0,0,0,-1,1343,1555,0,0
126,-531,0,0,0,0,0,0,0,0,0,-1,1350,1555,0,0
133,-531,0,0,0,0,0,0,0,0,0,-1,1357,1555,0,0
140,-531,0,0,0,0,0,0,0,0,0,-1,1364,1555,0,0
147,-531,0,0,0,0,0,0,0,0,0,-1,1371,1555,0,0
154,-531,0,0,0,0,0,0,0,0,0,-1,1378,1555,0,0
161,-531,0,0,0,0,0,0,0,0,0,-1,1385,1555,0,0
168,-531,0,0,0,0,0,0,0,0,0,-1,1392,1555,0,0
175,-531,0,0,0,0,0,0,0,0,0,-1,1399,1555,0,0
182,-531,0,0,0,0,0,0,0,0,0,-1,1406,1555,0,0
189,-531,0,0,0,0,0,0,0,0,0,-1,1413,1555,0,0
196,-531,0,0,0,0,0,0,0,0,0,-1,1420,1555,0,0
203,-531,0,0,0,0,0,0,0,0,0,-1,1427,1555,0,0
210,-531,0,0,0,0,0,0,0,0,0,-1,1434,1555,0,0
217,-531,0,0,0,0,0,0,0,0,0,-1,1441,1555,0,0
224,-531,0,0,0,0,0,0,0,0,0,-1,1448,1555,0,0
231,-531,0,0,0,0,0,0,0,0,0,-1,1455,1555,0,0
238,-531,0,0,0,0,0,0,0,0,0,-1,1462,1555,0,0
245,-531,0,0,0,0,0,0,0,0,0,-1,1469,1555,0,0
252,-531,0,0,0,0,0,0,0,0,0,-1,1476,1555,0,0
259,-531,0,0,0,0,0,0,0,0,0,-1,1483,1555,0,0
266,-531,0,0,0,0,0,0,0,0,0,-1,1490,1555,0,0
273,-531,0,0,0,0,0,0,0,0,0,-1,1497,1555,0,0
280,-531,0,0,0,0,0,0,0,0,0,-1,1504,1555,0,0
287,-531,0,0,0,0,0,0,0,0,0,-1,1511,1555,0,0
294,-531,0,0,0,0,0,0,0,0,0,-1,1518,1555,0,0
301,-531,0,0,0,0,0,0,0,0,0,-1,1525,1555,0,0
308,-531,0,0,0,0,0,0,0,0,0,-1,1532,1555,0,0
315,-531,0,0,0,0,0,0,0,0,0,-1,1539,1555,0,0
322,-531,0,0,0,0,0,0,0,0,0,-1,1546,1555,0,0
329,-531,0,0,0,0,0,0,0,0,0,-1,1553,1555,0,0
336,-531,0,0,0,0,0,0,0,0,0,-1,1560,1555,0,0
343,-531,0,0,0,0,0,0,0,0,0,-1,1567,1555,0,0
350,-531,0,0,0,0,0,0,0,0,0,-1,1574,1555,0,0
357,-531,0,0,0,0,0,0,0,0,0,-1,1581,1555,0,0
364,-531,0,0,0,0,0,0,0,0,0,-1,1588,1555,0,0
371,-531,0,0,0,0,0,0,0,0,0,-1,1595,1555,0,0
378,-531,0,0,0,0,0,0,0,0,0,-1,1602,1555,0,0
385,-531,3.48169,1.78625,0,0,0,0,0,0,0,-1,1609,1555,3.48165,-1.78624
392,-531,10.8781,9.09204,0,0,0,0,0,0,0,-1,1616,1555,10.8781,-9.09205
399,-531,8.26306,5.29602,0,0,0,0,0,0,0,-1,1623,1555,8.26302,-5.29607
406,-531,8.26147,5.42712,0,0,0,0,0,0,0,-1,1630,1555,8.26145,-5.42716
413,-531,8.20618,5.75012,0,0,0,0,0,0,0,-1,1637,1555,8.20619,-5.75017
420,-531,7.64868,7.09558,0,0,0,0,0,0,0,-1,1644,1555,7.64867,-7.09564
427,-531,9.93054,11.8412,0,0,0,0,0,0,0,-1,1651,1555,9.93059,-11.8412
434,-531,10.244,11.7072,0,0,0,0,0,0,0,-1,1658,1555,10.244,-11.7071
441,-531,11.4528,12.9397,0,0,0,0,0,0,0,-1,1665,1555,11.4528,-12.9397
448,-531,11.928,18.8029,0,0,0,0,0,0,0,-1,1672,1555,11.928,-18.8028
455,-531,14.4877,9.67065,0,0,0,0,0,0,0,-1,1679,1555,14.4876,-9.67066
462,-531,13.5253,12.2002,0,0,0,0,0,0,0,-1,1686,1555,13.5252,-12.2002
469,-531,15.5087,15.7894,0,0,0,0,0,0,0,-1,1693,1555,15.5086,-15.7895
476,-531,14.6582,16.2264,0,0,0,0,0,0,0,-1,1700,1555,14.6582,-16.2264
483,-531,14.755,18.5994,0,0,0,0,0,0,0,-1,1707,1555,14.7551,-18.5994
490,-531,16.9362,25.4943,0,0,0,0,0,0,0,-1,1714,1555,16.9362,-25.4942
497,-531,26.5918,42.882,0,0,0,0,0,0,0,-1,1721,1555,26.5918,-42.882
504,-531,26.7866,41.3195,0.0102327,0.00994016,-0.00751471,0.0176026,0.00257032,-0.775666,0.010979,0.0340585,1728,1555,26.7866,-41.3195
511,-531,26.8624,40.4027,0.00838499,0.00798525,-0.00612888,0.0143173,0.00205298,-0.769098,0.00893944,0.0164168,1735,1555,26.8624,-40.4027
518,-531,26.8586,39.5509,0.00681321,0.00653913,-0.00499136,0.0116694,0.00168293,-0.771674,0.00728373,0.015512,1742,1555,26.8586,-39.5509
525,-531,26.8265,38.7222,0.00532114,0.00518241,-0.00398544,0.00923782,0.00126573,-0.776697,0.005783,0.0148244,1749,1555,26.8265,-38.7222
532,-531,26.7947,37.8672,0.00402346,0.00397175,-0.00307855,0.00707627,0.000918949,-0.781199,0.00444299,0.0118087,1756,1555,26.7947,-37.8671
539,-531,26.7288,37.0278,0.00301874,0.00298385,-0.00234003,0.00534139,0.000661198,-0.781671,0.00336227,0.0138642,1763,1555,26.7288,-37.0278
546,-531,26.6327,36.2096,0.00221606,0.0021139,-0.00173692,0.00390265,0.000427302,-0.770698,0.00247168,0.017217,1770,1555,26.6327,-36.2097
553,-531,26.6893,35.4249,0.00161566,0.00138487,-0.00124139,0.00274701,0.00025352,-0.739055,0.00175296,0.0337083,1777,1555,26.6893,-35.4249
560,-531,26.7056,34.5985,0.00128692,0.000868242,-0.000946946,0.00204739,0.000107772,-0.676614,0.00133046,0.037705,1784,1555,26.7056,-34.5985
567,-531,26.4709,33.6609,0.00119461,0.000534776,-0.000839566,0.00176676,-3.73684e-05,-0.598185,0.00119049,0.0207689,1791,1555,26.471,-33.6608
574,-531,26.4111,32.7825,0.00132647,0.000362905,-0.000890327,0.00185701,-0.000167635,-0.537394,0.0012975,0.0157962,1798,1555,26.4111,-32.7824
581,-531,26.4624,31.9003,0.00200969,0.000564525,-0.00142776,0.00288731,-0.00031309,-0.551143,0.00203727,0.029084,1805,1555,26.4624,-31.9002
588,-531,26.6871,30.7407,0,0,0,0,0,0,0,-1,1812,1555,26.6871,-30.7407
595,-531,25.4437,28.0334,0,0,0,0,0,0,0,-1,1819,1555,25.4438,-28.0335
602,-531,13.701,11.8346,0,0,0,0,0,0,0,-1,1826,1555,13.701,-11.8347
609,-531,10.9072,8.50903,0,0,0,0,0,0,0,-1,1833,1555,10.9073,-8.50902
616,-531,10.5723,7.17859,0,0,0,0,0,0,0,-1,1840,1555,10.5723,-7.17855
623,-531,10.0674,5.08984,0,0,0,0,0,0,0,-1,1847,1555,10.0674,-5.08981
630,-531,11.672,3.18909,0,0,0,0,0,0,0,-1,1854,1555,11.672,-3.18904
637,-531,13.2546,1.38965,0,0,0,0,0,0,0,-1,1861,1555,13.2547,-1.3896
644,-531,0,0,0,0,0,0,0,0,0,-1,1868,1555,0,0
651,-531,0,0,0,0,0,0,0,0,0,-1,1875,1555,0,0
658,-531,0,0,0,0,0,0,0,0,0,-1,1882,1555,0,0
665,-531,0,0,0,0,0,0,0,0,0,-1,1889,1555,0,0
672,-531,0,0,0,0,0,0,0,0,0,-1,1896,1555,0,0
679,-531,0,0,0,0,0,0,0,0,0,-1,1903,1555,0,0
686,-531,0,0,0,0,0,0,0,0,0,-1,1910,1555,0,0
693,-531,0,0,0,0,0,0,0,0,0,-1,1917,1555,0,0
700,-531,0,0,0,0,0,0,0,0,0,-1,1924,1555,0,0
707,-531,0,0,0,0,0,0,0,0,0,-1,1931,1555,0,0
714,-531,0,0,0,0,0,0,0,0,0,-1,1938,1555,0,0
721,-531,0,0,0,0,0,0,0,0,0,-1,1945,1555,0,0
728,-531,0,0,0,0,0,0,0,0,0,-1,1952,1555,0,0
735,-531,0,0,0,0,0,0,0,0,0,-1,1959,1555,0,0
742,-531,0,0,0,0,0,0,0,0,0,-1,1966,1555,0,0
749,-531,0,0,0,0,0,0,0,0,0,-1,1973,1555,0,0
756,-531,0,0,0,0,0,0,0,0,0,-1,1980,1555,0,0
763,-531,0,0,0,0,0,0,0,0,0,-1,1987,1555,0,0
770,-531,0,0,0,0,0,0,0,0,0,-1,1994,1555,0,0
777,-531,0,0,0,0,0,0,0,0,0,-1,2001,1555,0,0
784,-531,0,0,0,0,0,0,0,0,0,-1,2008,1555,0,0
791,-531,0,0,0,0,0,0,0,0,0,-1,2015,1555,0,0
798,-531,0,0,0,0,0,0,0,0,0,-1,2022,1555,0,0
805,-531,0,0,0,0,0,0,0,0,0,-1,2029,1555,0,0
812,-531,0,0,0,0,0,0,0,0,0,-1,2036,1555,0,0
-700,-538,0,0,0,0,0,0,0,0,0,-1,524,1562,0,0
-693,-538,0,0,0,0,0,0,0,0,0,-1,531,1562,0,0
-686,-538,0,0,0,0,0,0,0,0,0,-1,538,1562,0,0
-679,-538,0,0,0,0,0,0,0,0,0,-1,545,1562,0,0
-672,-538,0,0,0,0,0,0,0,0,0,-1,552,1562,0,0
-665,-538,0,0,0,0,0,0,0,0,0,-1,559,1562,0,0
-658,-538,0,0,0,0,0,0,0,0,0,-1,566,1562,0,0
-651,-538,0,0,0,0,0,0,0,0,0,-1,573,1562,0,0
-644,-538,0,0,0,0,0,0,0,0,0,-1,580,1562,0,0
-637,-538,0,0,0,0,0,0,0,0,0,-1,587,1562,0,0
-630,-538,0,0,0,0,0,0,0,0,0,-1,594,1562,0,0
-623,-538,0,0,0,0,0,0,0,0,0,-1,601,1562,0,0
-616,-538,0,0,0,0,0,0,0,0,0,-1,608,1562,0,0
-609,-538,0,0,0,0,0,0,0,0,0,-1,615,1562,0,0
-602,-538,0,0,0,0,0,0,0,0,0,-1,622,1562,0,0
-595,-538,0,0,0,0,0,0,0,0,0,-1,629,1562,0,0
-588,-538,0,0,0,0,0,0,0,0,0,-1,636,1562,0,0
-581,-538,0,0,0,0,0,0,0,0,0,-1,643,1562,0,0
-574,-538,0,0,0,0,0,0,0,0,0,-1,650,1562,0,0
-567,-538,0,0,0,0,0,0,0,0,0,-1,657,1562,0,0
-560,-538,0,0,0,0,0,0,0,0,0,-1,664,1562,0,0
-553,-538,0,0,0,0,0,0,0,0,0,-1,671,1562,0,0
-546,-538,0,0,0,0,0,0,0,0,0,-1,678,1562,0,0
-539,-538,0,0,0,0,0,0,0,0,0,-1,685,1562,0,0
-532,-538,0,0,0,0,0,0,0,0,0,-1,692,1562,0,0
-525,-538,0,0,0,0,0,0,0,0,0,-1,699,1562,0,0
-518,-538,0,0,0,0,0,0,0,0,0,-1,706,1562,0,0
-511,-538,-2.6582,-1.54321,0,0,0,0,0,0,0,-1,713,1562,-2.65821,1.54327
-504,-538,-2.66455,-0.71167,0,0,0,0,0,0,0,-1,720,1562,-2.66456,0.711667
-497,-538,-0.763855,6.77747,0,0,0,0,0,0,0,-1,727,1562,-0.76385,-6.77743
-490,-538,-2.70453,8.01465,0,0,0,0,0,0,0,-1,734,1562,-2.70451,-8.0147
-483,-538,-0.933533,7.84644,0,0,0,0,0,0,0,-1,741,1562,-0.933548,-7.84638
-476,-538,-3.29962,15.8307,0,0,0,0,0,0,0,-1,748,1562,-3.29962,-15.8306
-469,-538,-6.44983,24.5707,0,0,0,0,0,0,0,-1,755,1562,-6.4498,-24.5707
-462,-538,-5.75458,25.4069,0,0,0,0,0,0,0,-1,762,1562,-5.7546,-25.4068
-455,-538,-6.5755,28.8893,0,0,0,0,0,0,0,-1,769,1562,-6.57549,-28.8893
-448,-538,-7.91345,32.7252,0,0,0,0,0,0,0,-1,776,1562,-7.91347,-32.7253
-441,-538,-7.96954,33.5374,0,0,0,0,0,0,0,-1,783,1562,-7.96955,-33.5373
-434,-538,-7.98987,34.4838,-0.00169451,-3.67662e-05,-0.00104039,0.000464564,-0.00219584,-1.12176,0.00164082,0.0160317,790,1562,-7.98989,-34.4838
-427,-538,-8.05078,35.4108,-0.00105762,0.000110032,-0.000616196,0.000375059,-0.00132265,-1.16461,0.00102981,0.0139005,797,1562,-8.05081,-35.4108
-420,-538,-8.09271,36.2417,-0.000488317,0.000266976,-0.000272776,0.000355187,-0.000576528,-1.25803,0.000542962,0.018734,804,1562,-8.09269,-36.2417
-413,-538,-8.15106,37.09,8.17711e-05,0.000411859,1.28527e-05,0.000412358,8.12714e-05,1.53194,0.000252218,0.0197133,811,1562,-8.15109,-37.09
-406,-538,-8.20166,37.9692,0.000679654,0.000629976,0.000273226,0.000929168,0.000380462,0.740067,0.000539379,0.0163108,818,1562,-8.20168,-37.9693
-399,-538,-8.22491,38.8267,0.00124106,0.000932165,0.000507129,0.00161674,0.000556485,0.637585,0.000948409,0.0155195,825,1562,-8.22493,-38.8267
-392,-538,-8.23688,39.6768,0.0017401,0.0013552,0.000731896,0.00230443,0.000790877,0.656835,0.00135209,0.0167073,832,1562,-8.23685,-39.6768
-385,-538,-8.29883,40.5339,0.00230721,0.001841,0.00085403,0.00295937,0.00118883,0.652171,0.00171956,0.0135342,839,1562,-8.29884,-40.5339
-378,-538,-8.36536,41.3669,0.00296713,0.00231419,0.000948636,0.0036439,0.00163742,0.619673,0.0021074,0.0108694,846,1562,-8.36535,-41.3669
-371,-538,-8.44629,42.1521,0.00382568,0.00330214,0.00139929,0.00498747,0.00214035,0.692929,0.00288914,0.0170462,853,1562,-8.44632,-42.1521
-364,-538,-8.36029,43.1248,0.00488294,0.00426411,0.00194261,0.00654062,0.00260643,0.706422,0.00380208,0.0305223,860,1562,-8.3603,-43.1247
-357,-538,-8.19189,44.1902,0,0,0,0,0,0,0,-1,867,1562,-8.19189,-44.1902
-350,-538,-6.37695,40.0256,0,0,0,0,0,0,0,-1,874,1562,-6.37696,-40.0257
-343,-538,-2.47339,28.3082,0,0,0,0,0,0,0,-1,881,1562,-2.47341,-28.3083
-336,-538,-2.40161,28.5409,0,0,0,0,0,0,0,-1,888,1562,-2.40163,-28.541
-329,-538,-2.57159,28.4905,0,0,0,0,0,0,0,-1,895,1562,-2.57161,-28.4905
-322,-538,-2.83783,28.2308,0,0,0,0,0,0,0,-1,902,1562,-2.83783,-28.2308
-315,-538,-2.91827,27.7609,0,0,0,0,0,0,0,-1,909,1562,-2.91829,-27.7608
-308,-538,-4.37433,31.7996,0,0,0,0,0,0,0,-1,916,1562,-4.3743,-31.7995
-301,-538,-0.452393,18.5101,0,0,0,0,0,0,0,-1,923,1562,-0.452367,-18.5102
-294,-538,1.23138,14.0757,0,0,0,0,0,0,0,-1,930,1562,1.23137,-14.0757
-287,-538,-2.60419,10.2361,0,0,0,0,0,0,0,-1,937,1562,-2.6042,-10.2361
-280,-538,-2.93475,10.5106,0,0,0,0,0,0,0,-1,944,1562,-2.93475,-10.5106
-273,-538,-3.26532,10.785,0,0,0,0,0,0,0,-1,951,1562,-3.26531,-10.785
-266,-538,-5.03412,15.9951,0,0,0,0,0,0,0,-1,958,1562,-5.03409,-15.9951
-259,-538,-5.89642,16.5184,0,0,0,0,0,0,0,-1,965,1562,-5.89644,-16.5184
-252,-538,0,0,0,0,0,0,0,0,0,-1,972,1562,0,0
-245,-538,0,0,0,0,0,0,0,0,0,-1,979,1562,0,0
-238,-538,0,0,0,0,0,0,0,0,0,-1,986,1562,0,0
-231,-538,0,0,0,0,0,0,0,0,0,-1,993,1562,0,0
-224,-538,0,0,0,0,0,0,0,0,0,-1,1000,1562,0,0
-217,-538,0,0,0,0,0,0,0,0,0,-1,1007,1562,0,0
-210,-538,0,0,0,0,0,0,0,0,0,-1,1014,1562,0,0
-203,-538,0,0,0,0,0,0,0,0,0,-1,1021,1562,0,0
-196,-538,0,0,0,0,0,0,0,0,0,-1,1028,1562,0,0
-189,-538,0,0,0,0,0,0,0,0,0,-1,1035,1562,0,0
-182,-538,0,0,0,0,0,0,0,0,0,-1,1042,1562,0,0
-175,-538,0,0,0,0,0,0,0,0,0,-1,1049,1562,0,0
-168,-538,0,0,0,0,0,0,0,0,0,-1,1056,1562,0,0
-161,-538,0,0,0,0,0,0,0,0,0,-1,1063,1562,0,0
-154,-538,0,0,0,0,0,0,0,0,0,-1,1070,1562,0,0
-147,-538,0,0,0,0,0,0,0,0,0,-1,1077,1562,0,0
-140,-538,0,0,0,0,0,0,0,0,0,-1,1084,1562,0,0
-133,-538,0,0,0,0,0,0,0,0,0,-1,1091,1562,0,0
-126,-538,0,0,0,0,0,0,0,0,0,-1,1098,1562,0,0
-119,-538,0,0,0,0,0,0,0,0,0,-1,1105,1562,0,0
-112,-538,0,0,0,0,0,0,0,0,0,-1,1112,1562,0,0
-105,-538,0,0,0,0,0,0,0,0,0,-1,1119,1562,0,0
-98,-538,0,0,0,0,0,0,0,0,0,-1,1126,1562,0,0
-91,-538,0,0,0,0,0,0,0,0,0,-1,1133,1562,0,0
-84,-538,0,0,0,0,0,0,0,0,0,-1,1140,1562,0,0
-77,-538,0,0,0,0,0,0,0,0,0,-1,1147,1562,0,0
-70,-538,0,0,0,0,0,0,0,0,0,-1,1154,1562,0,0
-63,-538,0,0,0,0,0,0,0,0,0,-1,1161,1562,0,0
-56,-538,0,0,0,0,0,0,0,0,0,-1,1168,1562,0,0
-49,-538,0,0,0,0,0,0,0,0,0,-1,1175,1562,0,0
-42,-538,0,0,0,0,0,0,0,0,0,-1,1182,1562,0,0
-35,-538,0,0,0,0,0,0,0,0,0,-1,1189,1562,0,0
-28,-538,0,0,0,0,0,0,0,0,0,-1,1196,1562,0,0
-21,-538,0,0,0,0,0,0,0,0,0,-1,1203,1562,0,0
-14,-538,0,0,0,0,0,0,0,0,0,-1,1210,1562,0,0
-7,-538,0,0,0,0,0,0,0,0,0,-1,1217,1562,0,0
0,-538,0,0,0,0,0,0,0,0,0,-1,1224,1562,0,0
7,-538,0,0,0,0,0,0,0,0,0,-1,1231,1562,0,0
14,-538,0,0,0,0,0,0,0,0,0,-1,1238,1562,0,0
21,-538,0,0,0,0,0,0,0,0,0,-1,1245,1562,0,0
28,-538,0,0,0,0,0,0,0,0,0,-1,1252,1562,0,0
35,-538,0,0,0,0,0,0,0,0,0,-1,1259,1562,0,0
42,-538,0,0,0,0,0,0,0,0,0,-1,1266,1562,0,0
49,-538,0,0,0,0,0,0,0,0,0,-1,1273,1562,0,0
56,-538,0,0,0,0,0,0,0,0,0,-1,1280,1562,0,0
63,-538,0,0,0,0,0,0,0,0,0,-1,1287,1562,0,0
70,-538,0,0,0,0,0,0,0,0,0,-1,1294,1562,0,0
77,-538,0,0,0,0,0,0,0,0,0,-1,1301,1562,0,0
84,-538,0,0,0,0,0,0,0,0,0,-1,1308,1562,0,0
91,-538,0,0,0,0,0,0,0,0,0,-1,1315,1562,0,0
98,-538,0,0,0,0,0,0,0,0,0,-1,1322,1562,0,0
105,-538,0,0,0,0,0,0,0,0,0,-1,1329,1562,0,0
112,-538,0,0,0,0,0,0,0,0,0,-1,1336,1562,0,0
119,-538,0,0,0,0,0,0,0,0,0,-1,1343,1562,0,0
126,-538,0,0,0,0,0,0,0,0,0,-1,1350,1562,0,0
133,-538,0,0,0,0,0,0,0,0,0,-1,1357,1562,0,0
140,-538,0,0,0,0,0,0,0,0,0,-1,1364,1562,0,0
147,-538,0,0,0,0,0,0,0,0,0,-1,1371,1562,0,0
154,-538,0,0,0,0,0,0,0,0,0,-1,1378,1562,0,0
161,-538,0,0,0,0,0,0,0,0,0,-1,1385,1562,0,0
168,-538,0,0,0,0,0,0,0,0,0,-1,1392,1562,0,0
175,-538,0,0,0,0,0,0,0,0,0,-1,1399,1562,0,0
182,-538,0,0,0,0,0,0,0,0,0,-1,1406,1562,0,0
189,-538,0,0,0,0,0,0,0,0,0,-1,1413,1562,0,0
196,-538,0,0,0,0,0,0,0,0,0,-1,1420,1562,0,0
203,-538,0,0,0,0,0,0,0,0,0,-1,1427,1562,0,0
210,-538,0,0,0,0,0,0,0,0,0,-1,1434,1562,0,0
217,-538,0,0,0,0,0,0,0,0,0,-1,1441,1562,0,0
224,-538,0,0,0,0,0,0,0,0,0,-1,1448,1562,0,0
231,-538,0,0,0,0,0,0,0,0,0,-1,1455,1562,0,0
238,-538,0,0,0,0,0,0,0,0,0,-1,1462,1562,0,0
245,-538,0,0,0,0,0,0,0,0,0,-1,1469,1562,0,0
252,-538,0,0,0,0,0,0,0,0,0,-1,1476,1562,0,0
259,-538,0,0,0,0,0,0,0,0,0,-1,1483,1562,0,0
266,-538,0,0,0,0,0,0,0,0,0,-1,1490,1562,0,0
273,-538,0,0,0,0,0,0,0,0,0,-1,1497,1562,0,0
280,-538,0,0,0,0,0,0,0,0,0,-1,1504,1562,0,0
287,-538,0,0,0,0,0,0,0,0,0,-1,1511,1562,0,0
294,-538,0,0,0,0,0,0,0,0,0,-1,1518,1562,0,0
301,-538,0,0,0,0,0,0,0,0,0,-1,1525,1562,0,0
308,-538,0,0,0,0,0,0,0,0,0,-1,1532,1562,0,0
315,-538,0,0,0,0,0,0,0,0,0,-1,1539,1562,0,0
322,-538,0,0,0,0,0,0,0,0,0,-1,1546,1562,0,0
329,-538,0,0,0,0,0,0,0,0,0,-1,1553,1562,0,0
336,-538,0,0,0,0,0,0,0,0,0,-1,1560,1562,0,0
343,-538,0,0,0,0,0,0,0,0,0,-1,1567,1562,0,0
350,-538,0,0,0,0,0,0,0,0,0,-1,1574,1562,0,0
357,-538,0,0,0,0,0,0,0,0,0,-1,1581,1562,0,0
364,-538,0,0,0,0,0,0,0,0,0,-1,1588,1562,0,0
371,-538,0,0,0,0,0,0,0,0,0,-1,1595,1562,0,0
378,-538,9.65479,5.82434,0,0,0,0,0,0,0,-1,1602,1562,9.6548,-5.82439
385,-538,10.5449,7.9502,0,0,0,0,0,0,0,-1,1609,1562,10.5449,-7.95014
392,-538,8.20361,7.07214,0,0,0,0,0,0,0,-1,1616,1562,8.20362,-7.07211
399,-538,7.85425,4.70508,0,0,0,0,0,0,0,-1,1623,1562,7.85425,-4.70512
406,-538,7.77734,4.96094,0,0,0,0,0,0,0,-1,1630,1562,7.77729,-4.96097
413,-538,13.0446,13.1765,0,0,0,0,0,0,0,-1,1637,1562,13.0446,-13.1765
420,-538,9.96216,12.7653,0,0,0,0,0,0,0,-1,1644,1562,9.96221,-12.7653
427,-538,10.1732,14.5863,0,0,0,0,0,0,0,-1,1651,1562,10.1732,-14.5863
434,-538,9.64331,14.7745,0,0,0,0,0,0,0,-1,1658,1562,9.64326,-14.7746
441,-538,11.5039,20.5195,0,0,0,0,0,0,0,-1,1665,1562,11.5039,-20.5195
448,-538,12.8766,22.4932,0,0,0,0,0,0,0,-1,1672,1562,12.8766,-22.4932
455,-538,12.5693,17.4128,0,0,0,0,0,0,0,-1,1679,1562,12.5694,-17.4128
462,-538,12.1389,17.017,0,0,0,0,0,0,0,-1,1686,1562,12.1389,-17.017
469,-538,14.3802,16.6945,0,0,0,0,0,0,0,-1,1693,1562,14.3803,-16.6945
476,-538,13.724,19.0608,0,0,0,0,0,0,0,-1,1700,1562,13.724,-19.0608
483,-538,17.088,25.2936,0,0,0,0,0,0,0,-1,1707,1562,17.088,-25.2936
490,-538,25.795,43.4993,0,0,0,0,0,0,0,-1,1714,1562,25.7951,-43.4993
497,-538,26.0043,42.2527,0.00993127,0.00973264,-0.00708439,0.016917,0.00274687,-0.778389,0.0104831,0.039796,1721,1562,26.0043,-42.2527
504,-538,26.0945,41.223,0.00797873,0.0080214,-0.0057686,0.0137687,0.00223143,-0.787247,0.00853314,0.0159652,1728,1562,26.0945,-41.2231
511,-538,26.0428,40.4098,0.00642065,0.00634398,-0.00463119,0.0110137,0.00175097,-0.78126,0.00683397,0.0106837,1735,1562,26.0428,-40.4098
518,-538,26.0203,39.5975,0.00507933,0.00507285,-0.0037195,0.00879559,0.00135659,-0.784963,0.00546792,0.0119804,1742,1562,26.0202,-39.5976
525,-538,25.9722,38.7532,0.00385177,0.00388558,-0.00289718,0.00676591,0.000971443,-0.788316,0.00422419,0.0131356,1749,1562,25.9722,-38.7532
532,-538,25.9254,37.9136,0.00280458,0.0028336,-0.00216801,0.00498715,0.000651032,-0.788744,0.0031304,0.0147762,1756,1562,25.9255,-37.9135
539,-538,25.8832,37.0924,0.00200768,0.00197917,-0.00159006,0.00358355,0.000403295,-0.780916,0.00226659,0.0176883,1763,1562,25.8832,-37.0924
546,-538,25.798,36.2489,0.00139605,0.0012452,-0.00112375,0.0024469,0.000194344,-0.751888,0.0015705,0.0182698,1770,1562,25.798,-36.2489
553,-538,25.7947,35.392,0.000997492,0.000673838,-0.000777461,0.00162979,4.15408e-05,-0.682789,0.00107295,0.0292065,1777,1562,25.7946,-35.3919
560,-538,25.7257,34.6202,0.00086713,0.000296096,-0.000625094,0.00126883,-0.0001056,-0.571168,0.000883191,0.0335749,1784,1562,25.7257,-34.6203
567,-538,25.5979,33.7783,0.000956764,6.61616e-05,-0.000605454,0.00126304,-0.000240114,-0.468325,0.000932428,0.0269141,1791,1562,25.5979,-33.7784
574,-538,25.6412,32.7933,0,0,0,0,0,0,0,-1,1798,1562,25.6413,-32.7933
581,-538,25.7123,31.8456,0,0,0,0,0,0,0,-1,1805,1562,25.7123,-31.8456
588,-538,25.8256,30.7411,0,0,0,0,0,0,0,-1,1812,1562,25.8255,-30.7411
595,-538,15.9808,16.0894,0,0,0,0,0,0,0,-1,1819,1562,15.9808,-16.0893
602,-538,10.314,8.94238,0,0,0,0,0,0,0,-1,1826,1562,10.314,-8.94238
609,-538,10.1046,7.05713,0,0,0,0,0,0,0,-1,1833,1562,10.1046,-7.05719
616,-538,9.92249,5.43506,0,0,0,0,0,0,0,-1,1840,1562,9.92254,-5.43507
623,-538,11.1711,4.31604,0,0,0,0,0,0,0,-1,1847,1562,11.1711,-4.316
630,-538,12.6112,2.61633,0,0,0,0,0,0,0,-1,1854,1562,12.6112,-2.61637
637,-538,0,0,0,0,0,0,0,0,0,-1,1861,1562,0,0
644,-538,0,0,0,0,0,0,0,0,0,-1,1868,1562,0,0
651,-538,0,0,0,0,0,0,0,0,0,-1,1875,1562,0,0
658,-538,0,0,0,0,0,0,0,0,0,-1,1882,1562,0,0
665,-538,0,0,0,0,0,0,0,0,0,-1,1889,1562,0,0
672,-538,0,0,0,0,0,0,0,0,0,-1,1896,1562,0,0
679,-538,0,0,0,0,0,0,0,0,0,-1,1903,1562,0,0
686,-538,0,0,0,0,0,0,0,0,0,-1,1910,1562,0,0
693,-538,0,0,0,0,0,0,0,0,0,-1,1917,1562,0,0
700,-538,0,0,0,0,0,0,0,0,0,-1,1924,1562,0,0
707,-538,0,0,0,0,0,0,0,0,0,-1,1931,1562,0,0
714,-538,0,0,0,0,0,0,0,0,0,-1,1938,1562,0,0
721,-538,0,0,0,0,0,0,0,0,0,-1,1945,1562,0,0
728,-538,0,0,0,0,0,0,0,0,0,-1,1952,1562,0,0
735,-538,0,0,0,0,0,0,0,0,0,-1,1959,1562,0,0
742,-538,0,0,0,0,0,0,0,0,0,-1,1966,1562,0,0
749,-538,0,0,0,0,0,0,0,0,0,-1,1973,1562,0,0
756,-538,0,0,0,0,0,0,0,0,0,-1,1980,1562,0,0
763,-538,0,0,0,0,0,0,0,0,0,-1,1987,1562,0,0
770,-538,0,0,0,0,0,0,0,0,0,-1,1994,1562,0,0
777,-538,0,0,0,0,0,0,0,0,0,-1,2001,1562,0,0
784,-538,0,0,0,0,0,0,0,0,0,-1,2008,1562,0,0
791,-538,0,0,0,0,0,0,0,0,0,-1,2015,1562,0,0
798,-538,0,0,0,0,0,0,0,0,0,-1,2022,1562,0,0
805,-538,0,0,0,0,0,0,0,0,0,-1,2029,1562,0,0
812,-538,0,0,0,0,0,0,0,0,0,-1,2036,1562,0,0
-700,-545,0,0,0,0,0,0,0,0,0,-1,524,1569,0,0
-693,-545,0,0,0,0,0,0,0,0,0,-1,531,1569,0,0
-686,-545,0,0,0,0,0,0,0,0,0,-1,538,1569,0,0
-679,-545,0,0,0,0,0,0,0,0,0,-1,545,1569,0,0
-672,-545,0,0,0,0,0,0,0,0,0,-1,552,1569,0,0
-665,-545,0,0,0,0,0,0,0,0,0,-1,559,1569,0,0
-658,-545,0,0,0,0,0,0,0,0,0,-1,566,1569,0,0
-651,-545,0,0,0,0,0,0,0,0,0,-1,573,1569,0,0
-644,-545,0,0,0,0,0,0,0,0,0,-1,580,1569,0,0
-637,-545,0,0,0,0,0,0,0,0,0,-1,587,1569,0,0
-630,-545,0,0,0,0,0,0,0,0,0,-1,594,1569,0,0
-623,-545,0,0,0,0,0,0,0,0,0,-1,601,1569,0,0
-616,-545,0,0,0,0,0,0,0,0,0,-1,608,1569,0,0
-609,-545,0,0,0,0,0,0,0,0,0,-1,615,1569,0,0
-602,-545,0,0,0,0,0,0,0,0,0,-1,622,1569,0,0
-595,-545,0,0,0,0,0,0,0,0,0,-1,629,1569,0,0
-588,-545,0,0,0,0,0,0,0,0,0,-1,636,1569,0,0
-581,-545,0,0,0,0,0,0,0,0,0,-1,643,1569,0,0
-574,-545,0,0,0,0,0,0,0,0,0,-1,650,1569,0,0
-567,-545,0,0,0,0,0,0,0,0,0,-1,657,1569,0,0
-560,-545,0,0,0,0,0,0,0,0,0,-1,664,1569,0,0
-553,-545,0,0,0,0,0,0,0,0,0,-1,671,1569,0,0
-546,-545,0,0,0,0,0,0,0,0,0,-1,678,1569,0,0
-539,-545,0,0,0,0,0,0,0,0,0,-1,685,1569,0,0
-532,-545,0,0,0,0,0,0,0,0,0,-1,692,1569,0,0
-525,-545,0,0,0,0,0,0,0,0,0,-1,699,1569,0,0
-518,-545,0,0,0,0,0,0,0,0,0,-1,706,1569,0,0
-511,-545,0,0,0,0,0,0,0,0,0,-1,713,1569,0,0
-504,-545,-3.55237,-2.5354,0,0,0,0,0,0,0,-1,720,1569,-3.55236,2.53545
-497,-545,2.26575,5.69214,0,0,0,0,0,0,0,-1,727,1569,2.26573,-5.6922
-490,-545,-2.17334,7.81396,0,0,0,0,0,0,0,-1,734,1569,-2.17334,-7.81399
-483,-545,-1.88336,5.8446,0,0,0,0,0,0,0,-1,741,1569,-1.88334,-5.84466
-476,-545,-1.13147,6.5741,0,0,0,0,0,0,0,-1,748,1569,-1.13149,-6.57405
-469,-545,-1.03412,15.8353,0,0,0,0,0,0,0,-1,755,1569,-1.03414,-15.8353
-462,-545,-4.09772,21.0458,0,0,0,0,0,0,0,-1,762,1569,-4.0977,-21.0458
-455,-545,-6.78021,30.8901,0,0,0,0,0,0,0,-1,769,1569,-6.7802,-30.8901
-448,-545,-6.65686,32.2256,0,0,0,0,0,0,0,-1,776,1569,-6.65684,-32.2255
-441,-545,-6.92438,33.6649,0,0,0,0,0,0,0,-1,783,1569,-6.92438,-33.6649
-434,-545,-7.23944,34.6006,-0.00261265,-0.000167035,-0.00171802,0.000718913,-0.0034986,-1.09468,0.00260531,0.0346272,790,1569,-7.23944,-34.6006
-427,-545,-7.21667,35.4507,-0.00162345,0.000101377,-0.000940533,0.000515034,-0.00203711,-1.15645,0.00155838,0.0222535,797,1569,-7.21666,-35.4506
-420,-545,-7.19324,36.257,-0.000872837,0.000288218,-0.000401299,0.000413419,-0.000998038,-1.26838,0.000837882,0.0239887,804,1569,-7.19323,-36.257
-413,-545,-7.24567,37.1143,-0.000253562,0.000376076,-5.08389e-05,0.000380154,-0.00025764,-1.49074,0.000370489,0.0238903,811,1569,-7.24569,-37.1143
-406,-545,-7.33588,38.0204,0.000355236,0.000493768,0.000232457,0.000667059,0.000181945,0.930196,0.000398164,0.0185536,818,1569,-7.33587,-38.0204
-399,-545,-7.34357,38.856,0.00090823,0.000718821,0.000475352,0.00129822,0.000328831,0.687071,0.000779348,0.0130317,825,1569,-7.3436,-38.856
-392,-545,-7.40332,39.6947,0.00137991,0.00103334,0.000677094,0.00190554,0.000507708,0.660123,0.00113947,0.0132034,832,1569,-7.40331,-39.6947
-385,-545,-7.448,40.5632,0.0018603,0.00140841,0.000738542,0.00240669,0.000862022,0.636951,0.00140801,0.0111764,839,1569,-7.44799,-40.5632
-378,-545,-7.52661,41.402,0.00243966,0.00181758,0.00082728,0.00301244,0.0012448,0.605583,0.00174794,0.0126317,846,1569,-7.52662,-41.4019
-371,-545,-7.57642,42.2715,0.00312582,0.00254309,0.00112972,0.00400114,0.00166777,0.659195,0.00232069,0.0169638,853,1569,-7.57641,-42.2715
-364,-545,-7.61304,43.0748,0.00393807,0.00334498,0.00150488,0.00517535,0.0021077,0.688117,0.00300507,0.0134298,860,1569,-7.61302,-43.0748
-357,-545,-7.5495,44.0765,0.00497783,0.00461389,0.00213516,0.00693876,0.00265296,0.742889,0.0040429,0.0317445,867,1569,-7.54948,-44.0765
-350,-545,-7.48285,44.9812,0,0,0,0,0,0,0,-1,874,1569,-7.48287,-44.9813
-343,-545,-7.2652,46.0497,0,0,0,0,0,0,0,-1,881,1569,-7.2652,-46.0497
-336,-545,-4.2146,36.9165,0,0,0,0,0,0,0,-1,888,1569,-4.21457,-36.9165
-329,-545,-2.03595,27.8694,0,0,0,0,0,0,0,-1,895,1569,-2.03592,-27.8694
-322,-545,-2.42474,27.9695,0,0,0,0,0,0,0,-1,902,1569,-2.42474,-27.9695
-315,-545,-2.52954,30.1711,0,0,0,0,0,0,0,-1,909,1569,-2.52951,-30.1712
-308,-545,-1.54358,21.4457,0,0,0,0,0,0,0,-1,916,1569,-1.54357,-21.4457
-301,-545,1.52191,17.5009,0,0,0,0,0,0,0,-1,923,1569,1.52192,-17.5008
-294,-545,-2.69287,8.42102,0,0,0,0,0,0,0,-1,930,1569,-2.69287,-8.42097
-287,-545,-3.47784,9.96021,0,0,0,0,0,0,0,-1,937,1569,-3.47785,-9.96021
-280,-545,-3.7879,10.5448,0,0,0,0,0,0,0,-1,944,1569,-3.78793,-10.5448
-273,-545,-5.10333,12.864,0,0,0,0,0,0,0,-1,951,1569,-5.10331,-12.864
-266,-545,-5.78955,13.3704,0,0,0,0,0,0,0,-1,958,1569,-5.78952,-13.3703
-259,-545,-6.32184,13.8101,0,0,0,0,0,0,0,-1,965,1569,-6.32182,-13.81
-252,-545,0.369263,7.54053,0,0,0,0,0,0,0,-1,972,1569,0.369276,-7.54056
-245,-545,-0.236633,6.65564,0,0,0,0,0,0,0,-1,979,1569,-0.236605,-6.65566
-238,-545,0,0,0,0,0,0,0,0,0,-1,986,1569,0,0
-231,-545,0,0,0,0,0,0,0,0,0,-1,993,1569,0,0
-224,-545,0,0,0,0,0,0,0,0,0,-1,1000,1569,0,0
-217,-545,0,0,0,0,0,0,0,0,0,-1,1007,1569,0,0
-210,-545,0,0,0,0,0,0,0,0,0,-1,1014,1569,0,0
-203,-545,0,0,0,0,0,0,0,0,0,-1,1021,1569,0,0
-196,-545,0,0,0,0,0,0,0,0,0,-1,1028,1569,0,0
-189,-545,0,0,0,0,0,0,0,0,0,-1,1035,1569,0,0
-182,-545,0,0,0,0,0,0,0,0,0,-1,1042,1569,0,0
-175,-545,0,0,0,0,0,0,0,0,0,-1,1049,1569,0,0
-168,-545,0,0,0,0,0,0,0,0,0,-1,1056,1569,0,0
-161,-545,0,0,0,0,0,0,0,0,0,-1,1063,1569,0,0
-154,-545,0,0,0,0,0,0,0,0,0,-1,1070,1569,0,0
-147,-545,0,0,0,0,0,0,0,0,0,-1,1077,1569,0,0
-140,-545,0,0,0,0,0,0,0,0,0,-1,1084,1569,0,0
-133,-545,0,0,0,0,0,0,0,0,0,-1,1091,1569,0,0
-126,-545,0,0,0,0,0,0,0,0,0,-1,1098,1569,0,0
-119,-545,0,0,0,0,0,0,0,0,0,-1,1105,1569,0,0
-112,-545,0,0,0,0,0,0,0,0,0,-1,1112,1569,0,0
-105,-545,0,0,0,0,0,0,0,0,0,-1,1119,1569,0,0
-98,-545,0,0,0,0,0,0,0,0,0,-1,1126,1569,0,0
-91,-545,0,0,0,0,0,0,0,0,0,-1,1133,1569,0,0
-84,-545,0,0,0,0,0,0,0,0,0,-1,1140,1569,0,0
-77,-545,0,0,0,0,0,0,0,0,0,-1,1147,1569,0,0
-70,-545,0,0,0,0,0,0,0,0,0,-1,1154,1569,0,0
-63,-545,0,0,0,0,0,0,0,0,0,-1,1161,1569,0,0
-56,-545,0,0,0,0,0,0,0,0,0,-1,1168,1569,0,0
-49,-545,0,0,0,0,0,0,0,0,0,-1,1175,1569,0,0
-42,-545,0,0,0,0,0,0,0,0,0,-1,1182,1569,0,0
-35,-545,0,0,0,0,0,0,0,0,0,-1,1189,1569,0,0
-28,-545,0,0,0,0,0,0,0,0,0,-1,1196,1569,0,0
-21,-545,0,0,0,0,0,0,0,0,0,-1,1203,1569,0,0
-14,-545,0,0,0,0,0,0,0,0,0,-1,1210,1569,0,0
-7,-545,0,0,0,0,0,0,0,0,0,-1,1217,1569,0,0
0,-545,0,0,0,0,0,0,0,0,0,-1,1224,1569,0,0
7,-545,0,0,0,0,0,0,0,0,0,-1,1231,1569,0,0
14,-545,0,0,0,0,0,0,0,0,0,-1,1238,1569,0,0
21,-545,0,0,0,0,0,0,0,0,0,-1,1245,1569,0,0
28,-545,0,0,0,0,0,0,0,0,0,-1,1252,1569,0,0
35,-545,0,0,0,0,0,0,0,0,0,-1,1259,1569,0,0
42,-545,0,0,0,0,0,0,0,0,0,-1,1266,1569,0,0
49,-545,0,0,0,0,0,0,0,0,0,-1,1273,1569,0,0
56,-545,0,0,0,0,0,0,0,0,0,-1,1280,1569,0,0
63,-545,0,0,0,0,0,0,0,0,0,-1,1287,1569,0,0
70,-545,0,0,0,0,0,0,0,0,0,-1,1294,1569,0,0
77,-545,0,0,0,0,0,0,0,0,0,-1,1301,1569,0,0
84,-545,0,0,0,0,0,0,0,0,0,-1,1308,1569,0,0
91,-545,0,0,0,0,0,0,0,0,0,-1,1315,1569,0,0
98,-545,0,0,0,0,0,0,0,0,0,-1,1322,1569,0,0
105,-545,0,0,0,0,0,0,0,0,0,-1,1329,1569,0,0
112,-545,0,0,0,0,0,0,0,0,0,-1,1336,1569,0,0
119,-545,0,0,0,0,0,0,0,0,0,-1,1343,1569,0,0
126,-545,0,0,0,0,0,0,0,0,0,-1,1350,1569,0,0
133,-545,0,0,0,0,0,0,0,0,0,-1,1357,1569,0,0
140,-545,0,0,0,0,0,0,0,0,0,-1,1364,1569,0,0
147,-545,0,0,0,0,0,0,0,0,0,-1,1371,1569,0,0
154,-545,0,0,0,0,0,0,0,0,0,-1,1378,1569,0,0
161,-545,0,0,0,0,0,0,0,0,0,-1,1385,1569,0,0
168,-545,0,0,0,0,0,0,0,0,0,-1,1392,1569,0,0
175,-545,0,0,0,0,0,0,0,0,0,-1,1399,1569,0,0
182,-545,0,0,0,0,0,0,0,0,0,-1,1406,1569,0,0
189,-545,0,0,0,0,0,0,0,0,0,-1,1413,1569,0,0
196,-545,0,0,0,0,0,0,0,0,0,-1,1420,1569,0,0
203,-545,0,0,0,0,0,0,0,0,0,-1,1427,1569,0,0
210,-545,0,0,0,0,0,0,0,0,0,-1,1434,1569,0,0
217,-545,0,0,0,0,0,0,0,0,0,-1,1441,1569,0,0
224,-545,0,0,0,0,0,0,0,0,0,-1,1448,1569,0,0
231,-545,0,0,0,0,0,0,0,0,0,-1,1455,1569,0,0
238,-545,0,0,0,0,0,0,0,0,0,-1,1462,1569,0,0
245,-545,0,0,0,0,0,0,0,0,0,-1,1469,1569,0,0
252,-545,0,0,0,0,0,0,0,0,0,-1,1476,1569,0,0
259,-545,0,0,0,0,0,0,0,0,0,-1,1483,1569,0,0
266,-545,0,0,0,0,0,0,0,0,0,-1,1490,1569,0,0
273,-545,0,0,0,0,0,0,0,0,0,-1,1497,1569,0,0
280,-545,0,0,0,0,0,0,0,0,0,-1,1504,1569,0,0
287,-545,0,0,0,0,0,0,0,0,0,-1,1511,1569,0,0
294,-545,0,0,0,0,0,0,0,0,0,-1,1518,1569,0,0
301,-545,0,0,0,0,0,0,0,0,0,-1,1525,1569,0,0
308,-545,0,0,0,0,0,0,0,0,0,-1,1532,1569,0,0
315,-545,0,0,0,0,0,0,0,0,0,-1,1539,1569,0,0
322,-545,0,0,0,0,0,0,0,0,0,-1,1546,1569,0,0
329,-545,0,0,0,0,0,0,0,0,0,-1,1553,1569,0,0
336,-545,0,0,0,0,0,0,0,0,0,-1,1560,1569,0,0
343,-545,0,0,0,0,0,0,0,0,0,-1,1567,1569,0,0
350,-545,0,0,0,0,0,0,0,0,0,-1,1574,1569,0,0
357,-545,0,0,0,0,0,0,0,0,0,-1,1581,1569,0,0
364,-545,7.19495,4.88098,0,0,0,0,0,0,0,-1,1588,1569,7.19497,-4.88095
371,-545,7.82324,3.84302,0,0,0,0,0,0,0,-1,1595,1569,7.82324,-3.84307
378,-545,7.65674,5.52673,0,0,0,0,0,0,0,-1,1602,1569,7.6567,-5.52667
385,-545,8.58447,1.16125,0,0,0,0,0,0,0,-1,1609,1569,8.5845,-1.1612
392,-545,12.5654,3.89526,0,0,0,0,0,0,0,-1,1616,1569,12.5655,-3.89532
399,-545,11.5869,5.6333,0,0,0,0,0,0,0,-1,1623,1569,11.5869,-5.63326
406,-545,11.234,6.36414,0,0,0,0,0,0,0,-1,1630,1569,11.234,-6.3641
413,-545,12.1521,13.4817,0,0,0,0,0,0,0,-1,1637,1569,12.1521,-13.4817
420,-545,11.1954,13.6047,0,0,0,0,0,0,0,-1,1644,1569,11.1954,-13.6047
427,-545,9.61072,14.9135,0,0,0,0,0,0,0,-1,1651,1569,9.61076,-14.9134
434,-545,13.1598,23.9921,0,0,0,0,0,0,0,-1,1658,1569,13.1598,-23.992
441,-545,12.2833,22.2238,0,0,0,0,0,0,0,-1,1665,1569,12.2833,-22.2237
448,-545,13.0082,21.941,0,0,0,0,0,0,0,-1,1672,1569,13.0082,-21.941
455,-545,13.733,21.6583,0,0,0,0,0,0,0,-1,1679,1569,13.733,-21.6583
462,-545,12.449,20.7413,0,0,0,0,0,0,0,-1,1686,1569,12.4489,-20.7413
469,-545,12.7837,17.7919,0,0,0,0,0,0,0,-1,1693,1569,12.7837,-17.7919
476,-545,15.7562,24.8708,0,0,0,0,0,0,0,-1,1700,1569,15.7563,-24.8709
483,-545,25.2329,43.9147,0,0,0,0,0,0,0,-1,1707,1569,25.2329,-43.9146
490,-545,25.2627,42.9812,0.00967556,0.00947601,-0.00677181,0.0163483,0.00280324,-0.778032,0.0100951,0.0307592,1714,1569,25.2627,-42.9812
497,-545,25.2799,42.1366,0.00783977,0.00757116,-0.00540368,0.0131108,0.00230011,-0.772974,0.00808366,0.0237244,1721,1569,25.2799,-42.1366
504,-545,25.3265,41.2902,0.00626653,0.00619338,-0.00436818,0.0105983,0.00186163,-0.781212,0.00653399,0.0168012,1728,1569,25.3265,-41.2901
511,-545,25.2457,40.4546,0.00490423,0.00480975,-0.00342953,0.00828684,0.00142713,-0.778511,0.00511564,0.0121315,1735,1569,25.2457,-40.4546
518,-545,25.1963,39.6337,0.00370987,0.00374063,-0.00268816,0.00641346,0.00103704,-0.788259,0.00397531,0.0136918,1742,1569,25.1963,-39.6337
525,-545,25.1238,38.7892,0.00264625,0.00274305,-0.00200472,0.00469995,0.000689347,-0.797467,0.00293067,0.0153347,1749,1569,25.1237,-38.7892
532,-545,25.0463,37.9576,0.00176224,0.00187233,-0.00140981,0.00322816,0.000406405,-0.804911,0.00203025,0.015545,1756,1569,25.0463,-37.9577
539,-545,25.0128,37.1379,0.00110376,0.00117056,-0.000951739,0.00208948,0.000184832,-0.802937,0.00133565,0.0181654,1763,1569,25.0128,-37.1379
546,-545,24.9575,36.2799,0.000634267,0.000598526,-0.000595419,0.00121208,2.07092e-05,-0.770396,0.000801242,0.0196582,1770,1569,24.9575,-36.28
553,-545,24.9467,35.424,0.000404626,0.000222866,-0.000388739,0.000712966,-8.54745e-05,-0.670569,0.000506214,0.0276309,1777,1569,24.9466,-35.424
560,-545,24.901,34.5917,0.000435245,9.56371e-06,-0.000374332,0.000653015,-0.000208206,-0.526897,0.000518862,0.032129,1784,1569,24.901,-34.5917
567,-545,24.8312,33.6047,0,0,0,0,0,0,0,-1,1791,1569,24.8312,-33.6047
574,-545,24.7748,32.3716,0,0,0,0,0,0,0,-1,1798,1569,24.7748,-32.3715
581,-545,24.7096,31.5568,0,0,0,0,0,0,0,-1,1805,1569,24.7096,-31.5568
588,-545,15.4786,16.7035,0,0,0,0,0,0,0,-1,1812,1569,15.4786,-16.7035
595,-545,10.2859,9.11218,0,0,0,0,0,0,0,-1,1819,1569,10.2858,-9.11215
602,-545,8.82117,6.32214,0,0,0,0,0,0,0,-1,1826,1569,8.82121,-6.32217
609,-545,10.2406,5.22351,0,0,0,0,0,0,0,-1,1833,1569,10.2406,-5.22353
616,-545,11.701,3.93188,0,0,0,0,0,0,0,-1,1840,1569,11.701,-3.93191
623,-545,13.2139,2.32043,0,0,0,0,0,0,0,-1,1847,1569,13.2139,-2.32042
630,-545,0,0,0,0,0,0,0,0,0,-1,1854,1569,0,0
637,-545,0,0,0,0,0,0,0,0,0,-1,1861,1569,0,0
644,-545,0,0,0,0,0,0,0,0,0,-1,1868,1569,0,0
651,-545,0,0,0,0,0,0,0,0,0,-1,1875,1569,0,0
658,-545,0,0,0,0,0,0,0,0,0,-1,1882,1569,0,0
665,-545,0,0,0,0,0,0,0,0,0,-1,1889,1569,0,0
672,-545,0,0,0,0,0,0,0,0,0,-1,1896,1569,0,0
679,-545,0,0,0,0,0,0,0,0,0,-1,1903,1569,0,0
686,-545,0,0,0,0,0,0,0,0,0,-1,1910,1569,0,0
693,-545,0,0,0,0,0,0,0,0,0,-1,1917,1569,0,0
700,-545,0,0,0,0,0,0,0,0,0,-1,1924,1569,0,0
707,-545,0,0,0,0,0,0,0,0,0,-1,1931,1569,0,0
714,-545,0,0,0,0,0,0,0,0,0,-1,1938,1569,0,0
721,-545,0,0,0,0,0,0,0,0,0,-1,1945,1569,0,0
728,-545,0,0,0,0,0,0,0,0,0,-1,1952,1569,0,0
735,-545,0,0,0,0,0,0,0,0,0,-1,1959,1569,0,0
742,-545,0,0,0,0,0,0,0,0,0,-1,1966,1569,0,0
749,-545,0,0,0,0,0,0,0,0,0,-1,1973,1569,0,0
756,-545,0,0,0,0,0,0,0,0,0,-1,1980,1569,0,0
763,-545,0,0,0,0,0,0,0,0,0,-1,1987,1569,0,0
770,-545,0,0,0,0,0,0,0,0,0,-1,1994,1569,0,0
777,-545,0,0,0,0,0,0,0,0,0,-1,2001,1569,0,0
784,-545,0,0,0,0,0,0,0,0,0,-1,2008,1569,0,0
791,-545,0,0,0,0,0,0,0,0,0,-1,2015,1569,0,0
798,-545,0,0,0,0,0,0,0,0,0,-1,2022,1569,0,0
805,-545,0,0,0,0,0,0,0,0,0,-1,2029,1569,0,0
812,-545,0,0,0,0,0,0,0,0,0,-1,2036,1569,0,0
-700,-552,0,0,0,0,0,0,0,0,0,-1,524,1576,0,0
-693,-552,0,0,0,0,0,0,0,0,0,-1,531,1576,0,0
-686,-552,0,0,0,0,0,0,0,0,0,-1,538,1576,0,0
-679,-552,0,0,0,0,0,0,0,0,0,-1,545,1576,0,0
-672,-552,0,0,0,0,0,0,0,0,0,-1,552,1576,0,0
-665,-552,0,0,0,0,0,0,0,0,0,-1,559,1576,0,0
-658,-552,0,0,0,0,0,0,0,0,0,-1,566,1576,0,0
-651,-552,0,0,0,0,0,0,0,0,0,-1,573,1576,0,0
-644,-552,0,0,0,0,0,0,0,0,0,-1,580,1576,0,0
-637,-552,0,0,0,0,0,0,0,0,0,-1,587,1576,0,0
-630,-552,0,0,0,0,0,0,0,0,0,-1,594,1576,0,0
-623,-552,0,0,0,0,0,0,0,0,0,-1,601,1576,0,0
-616,-552,0,0,0,0,0,0,0,0,0,-1,608,1576,0,0
-609,-552,0,0,0,0,0,0,0,0,0,-1,615,1576,0,0
-602,-552,0,0,0,0,0,0,0,0,0,-1,622,1576,0,0
-595,-552,0,0,0,0,0,0,0,0,0,-1,629,1576,0,0
-588,-552,0,0,0,0,0,0,0,0,0,-1,636,1576,0,0
-581,-552,0,0,0,0,0,0,0,0,0,-1,643,1576,0,0
-574,-552,0,0,0,0,0,0,0,0,0,-1,650,1576,0,0
-567,-552,0,0,0,0,0,0,0,0,0,-1,657,1576,0,0
-560,-552,0,0,0,0,0,0,0,0,0,-1,664,1576,0,0
-553,-552,0,0,0,0,0,0,0,0,0,-1,671,1576,0,0
-546,-552,0,0,0,0,0,0,0,0,0,-1,678,1576,0,0
-539,-552,0,0,0,0,0,0,0,0,0,-1,685,1576,0,0
-532,-552,0,0,0,0,0,0,0,0,0,-1,692,1576,0,0
-525,-552,0,0,0,0,0,0,0,0,0,-1,699,1576,0,0
-518,-552,0,0,0,0,0,0,0,0,0,-1,706,1576,0,0
-511,-552,0,0,0,0,0,0,0,0,0,-1,713,1576,0,0
-504,-552,0,0,0,0,0,0,0,0,0,-1,720,1576,0,0
-497,-552,1.51282,3.96924,0,0,0,0,0,0,0,-1,727,1576,1.5128,-3.96924
-490,-552,-3.82312,6.32104,0,0,0,0,0,0,0,-1,734,1576,-3.82314,-6.3211
-483,-552,-3.50586,6.47986,0,0,0,0,0,0,0,-1,741,1576,-3.50587,-6.47983
-476,-552,-1.95129,4.43054,0,0,0,0,0,0,0,-1,748,1576,-1.95128,-4.43054
-469,-552,-1.40491,7.9895,0,0,0,0,0,0,0,-1,755,1576,-1.40491,-7.98947
-462,-552,0.0459595,16.3469,0,0,0,0,0,0,0,-1,762,1576,0.0459611,-16.3469
-455,-552,-3.21484,22.3766,0,0,0,0,0,0,0,-1,769,1576,-3.21487,-22.3766
-448,-552,-5.87732,31.7809,0,0,0,0,0,0,0,-1,776,1576,-5.87731,-31.7809
-441,-552,-5.40381,34.2731,0,0,0,0,0,0,0,-1,783,1576,-5.40381,-34.2731
-434,-552,-6.08362,34.8429,-0.00344828,-4.57019e-05,-0.00250737,0.00128307,-0.00477705,-1.08348,0.00368756,0.0459992,790,1576,-6.08364,-34.8429
-427,-552,-6.42261,35.3511,-0.00210188,0.000247456,-0.0012853,0.000814006,-0.00266843,-1.15563,0.00210346,0.0378563,797,1576,-6.42259,-35.351
-420,-552,-6.36871,36.3135,-0.00115602,0.00049358,-0.000447168,0.000606999,-0.00126944,-1.3224,0.00110563,0.0234917,804,1576,-6.36869,-36.3135
-413,-552,-6.38934,37.1758,-0.000505457,0.000527815,1.78486e-05,0.000528124,-0.000505765,1.55353,0.000596962,0.0178984,811,1576,-6.38937,-37.1757
-406,-552,-6.47565,38.0453,9.79625e-05,0.000532403,0.000347651,0.000725117,-9.47512e-05,1.06463,0.000517892,0.0143434,818,1576,-6.47563,-38.0453
-399,-552,-6.52881,38.8838,0.000639535,0.000678207,0.000612904,0.00127208,4.56623e-05,0.801167,0.000833249,0.0163534,825,1576,-6.52882,-38.8838
-392,-552,-6.60126,39.735,0.00108561,0.00088002,0.000795028,0.00178446,0.000181167,0.721107,0.00113408,0.0175686,832,1576,-6.60128,-39.735
-385,-552,-6.62909,40.6028,0.00149348,0.0011384,0.000809224,0.00214441,0.000487466,0.677412,0.001298,0.0154235,839,1576,-6.62906,-40.6028
-378,-552,-6.68683,41.4248,0.00202075,0.00145722,0.00089037,0.00267287,0.000805093,0.632156,0.00158332,0.0169611,846,1576,-6.68681,-41.4249
-371,-552,-6.74097,42.2947,0.00257875,0.00190605,0.00104049,0.00333591,0.00114889,0.629069,0.00195683,0.0211245,853,1576,-6.74099,-42.2947
-364,-552,-6.76917,43.1158,0.00322353,0.00245619,0.00124298,0.00414071,0.00153902,0.635702,0.00241674,0.0159723,860,1576,-6.76918,-43.1159
-357,-552,-6.77771,43.932,0.00409489,0.00338182,0.00166403,0.00544015,0.00203656,0.679863,0.00317375,0.0111437,867,1576,-6.77772,-43.932
-350,-552,-6.78357,44.8428,0.00521749,0.00444947,0.00222819,0.00709452,0.00257244,0.700066,0.00414726,0.0189666,874,1576,-6.78356,-44.8428
-343,-552,-6.80902,45.6714,0.00648978,0.005866,0.00315715,0.00935041,0.00300537,0.736164,0.00551204,0.0376903,881,1576,-6.80905,-45.6714
-336,-552,-6.86359,46.3972,0,0,0,0,0,0,0,-1,888,1576,-6.86358,-46.3972
-329,-552,-3.68982,37.6417,0,0,0,0,0,0,0,-1,895,1576,-3.68984,-37.6417
-322,-552,-1.23962,28.5371,0,0,0,0,0,0,0,-1,902,1576,-1.23964,-28.5371
-315,-552,-0.605347,28.994,0,0,0,0,0,0,0,-1,909,1576,-0.605331,-28.9941
-308,-552,-1.01624,30.3169,0,0,0,0,0,0,0,-1,916,1576,-1.01624,-30.3169
-301,-552,1.39453,18.4995,0,0,0,0,0,0,0,-1,923,1576,1.3945,-18.4995
-294,-552,0.842163,13.7863,0,0,0,0,0,0,0,-1,930,1576,0.842149,-13.7863
-287,-552,-0.663757,13.3474,0,0,0,0,0,0,0,-1,937,1576,-0.663744,-13.3474
-280,-552,-5.47241,8.96765,0,0,0,0,0,0,0,-1,944,1576,-5.47239,-8.96766
-273,-552,1.64587,10.6685,0,0,0,0,0,0,0,-1,951,1576,1.6459,-10.6685
-266,-552,-1.32678,8.05688,0,0,0,0,0,0,0,-1,958,1576,-1.32677,-8.05683
-259,-552,-5.54321,8.31213,0,0,0,0,0,0,0,-1,965,1576,-5.54324,-8.31214
-252,-552,-1.93445,7.81543,0,0,0,0,0,0,0,-1,972,1576,-1.93445,-7.81546
-245,-552,-2.53613,6.92212,0,0,0,0,0,0,0,-1,979,1576,-2.53614,-6.92216
-238,-552,-6.5365,2.81885,0,0,0,0,0,0,0,-1,986,1576,-6.53649,-2.8188
-231,-552,-4.32239,4.34583,0,0,0,0,0,0,0,-1,993,1576,-4.32239,-4.34587
-224,-552,0,0,0,0,0,0,0,0,0,-1,1000,1576,0,0
-217,-552,0,0,0,0,0,0,0,0,0,-1,1007,1576,0,0
-210,-552,0,0,0,0,0,0,0,0,0,-1,1014,1576,0,0
-203,-552,0,0,0,0,0,0,0,0,0,-1,1021,1576,0,0
-196,-552,0,0,0,0,0,0,0,0,0,-1,1028,1576,0,0
-189,-552,0,0,0,0,0,0,0,0,0,-1,1035,1576,0,0
-182,-552,0,0,0,0,0,0,0,0,0,-1,1042,1576,0,0
-175,-552,0,0,0,0,0,0,0,0,0,-1,1049,1576,0,0
-168,-552,0,0,0,0,0,0,0,0,0,-1,1056,1576,0,0
-161,-552,0,0,0,0,0,0,0,0,0,-1,1063,1576,0,0
-154,-552,0,0,0,0,0,0,0,0,0,-1,1070,1576,0,0
-147,-552,0,0,0,0,0,0,0,0,0,-1,1077,1576,0,0
-140,-552,0,0,0,0,0,0,0,0,0,-1,1084,1576,0,0
-133,-552,0,0,0,0,0,0,0,0,0,-1,1091,1576,0,0
-126,-552,0,0,0,0,0,0,0,0,0,-1,1098,1576,0,0
-119,-552,0,0,0,0,0,0,0,0,0,-1,1105,1576,0,0
-112,-552,0,0,0,0,0,0,0,0,0,-1,1112,1576,0,0
-105,-552,0,0,0,0,0,0,0,0,0,-1,1119,1576,0,0
-98,-552,0,0,0,0,0,0,0,0,0,-1,1126,1576,0,0
-91,-552,0,0,0,0,0,0,0,0,0,-1,1133,1576,0,0
-84,-552,0,0,0,0,0,0,0,0,0,-1,1140,1576,0,0
-77,-552,0,0,0,0,0,0,0,0,0,-1,1147,1576,0,0
-70,-552,0,0,0,0,0,0,0,0,0,-1,1154,1576,0,0
-63,-552,0,0,0,0,0,0,0,0,0,-1,1161,1576,0,0
-56,-552,0,0,0,0,0,0,0,0,0,-1,1168,1576,0,0
-49,-552,0,0,0,0,0,0,0,0,0,-1,1175,1576,0,0
-42,-552,0,0,0,0,0,0,0,0,0,-1,1182,1576,0,0
-35,-552,0,0,0,0,0,0,0,0,0,-1,1189,1576,0,0
-28,-552,0,0,0,0,0,0,0,0,0,-1,1196,1576,0,0
-21,-552,0,0,0,0,0,0,0,0,0,-1,1203,1576,0,0
-14,-552,0,0,0,0,0,0,0,0,0,-1,1210,1576,0,0
-7,-552,0,0,0,0,0,0,0,0,0,-1,1217,1576,0,0
0,-552,0,0,0,0,0,0,0,0,0,-1,1224,1576,0,0
7,-552,0,0,0,0,0,0,0,0,0,-1,1231,1576,0,0
14,-552,0,0,0,0,0,0,0,0,0,-1,1238,1576,0,0
21,-552,0,0,0,0,0,0,0,0,0,-1,1245,1576,0,0
28,-552,0,0,0,0,0,0,0,0,0,-1,1252,1576,0,0
35,-552,0,0,0,0,0,0,0,0,0,-1,1259,1576,0,0
42,-552,0,0,0,0,0,0,0,0,0,-1,1266,1576,0,0
49,-552,0,0,0,0,0,0,0,0,0,-1,1273,1576,0,0
56,-552,0,0,0,0,0,0,0,0,0,-1,1280,1576,0,0
63,-552,0,0,0,0,0,0,0,0,0,-1,1287,1576,0,0
70,-552,0,0,0,0,0,0,0,0,0,-1,1294,1576,0,0
77,-552,0,0,0,0,0,0,0,0,0,-1,1301,1576,0,0
84,-552,0,0,0,0,0,0,0,0,0,-1,1308,1576,0,0
91,-552,0,0,0,0,0,0,0,0,0,-1,1315,1576,0,0
98,-552,0,0,0,0,0,0,0,0,0,-1,1322,1576,0,0
105,-552,0,0,0,0,0,0,0,0,0,-1,1329,1576,0,0
112,-552,0,0,0,0,0,0,0,0,0,-1,1336,1576,0,0
119,-552,0,0,0,0,0,0,0,0,0,-1,1343,1576,0,0
126,-552,0,0,0,0,0,0,0,0,0,-1,1350,1576,0,0
133,-552,0,0,0,0,0,0,0,0,0,-1,1357,1576,0,0
140,-552,0,0,0,0,0,0,0,0,0,-1,1364,1576,0,0
147,-552,0,0,0,0,0,0,0,0,0,-1,1371,1576,0,0
154,-552,0,0,0,0,0,0,0,0,0,-1,1378,1576,0,0
161,-552,0,0,0,0,0,0,0,0,0,-1,1385,1576,0,0
168,-552,0,0,0,0,0,0,0,0,0,-1,1392,1576,0,0
175,-552,0,0,0,0,0,0,0,0,0,-1,1399,1576,0,0
182,-552,0,0,0,0,0,0,0,0,0,-1,1406,1576,0,0
189,-552,0,0,0,0,0,0,0,0,0,-1,1413,1576,0,0
196,-552,0,0,0,0,0,0,0,0,0,-1,1420,1576,0,0
203,-552,0,0,0,0,0,0,0,0,0,-1,1427,1576,0,0
210,-552,0,0,0,0,0,0,0,0,0,-1,1434,1576,0,0
217,-552,0,0,0,0,0,0,0,0,0,-1,1441,1576,0,0
224,-552,0,0,0,0,0,0,0,0,0,-1,1448,1576,0,0
231,-552,0,0,0,0,0,0,0,0,0,-1,1455,1576,0,0
238,-552,0,0,0,0,0,0,0,0,0,-1,1462,1576,0,0
245,-552,0,0,0,0,0,0,0,0,0,-1,1469,1576,0,0
252,-552,0,0,0,0,0,0,0,0,0,-1,1476,1576,0,0
259,-552,0,0,0,0,0,0,0,0,0,-1,1483,1576,0,0
266,-552,0,0,0,0,0,0,0,0,0,-1,1490,1576,0,0
273,-552,0,0,0,0,0,0,0,0,0,-1,1497,1576,0,0
280,-552,0,0,0,0,0,0,0,0,0,-1,1504,1576,0,0
287,-552,0,0,0,0,0,0,0,0,0,-1,1511,1576,0,0
294,-552,0,0,0,0,0,0,0,0,0,-1,1518,1576,0,0
301,-552,0,0,0,0,0,0,0,0,0,-1,1525,1576,0,0
308,-552,0,0,0,0,0,0,0,0,0,-1,1532,1576,0,0
315,-552,0,0,0,0,0,0,0,0,0,-1,1539,1576,0,0
322,-552,0,0,0,0,0,0,0,0,0,-1,1546,1576,0,0
329,-552,0,0,0,0,0,0,0,0,0,-1,1553,1576,0,0
336,-552,0,0,0,0,0,0,0,0,0,-1,1560,1576,0,0
343,-552,0,0,0,0,0,0,0,0,0,-1,1567,1576,0,0
350,-552,4.97876,4.09888,0,0,0,0,0,0,0,-1,1574,1576,4.97875,-4.09883
357,-552,5.18469,4.10706,0,0,0,0,0,0,0,-1,1581,1576,5.1847,-4.10702
364,-552,5.80872,5.07031,0,0,0,0,0,0,0,-1,1588,1576,5.80874,-5.07037
371,-552,7.10657,5.64783,0,0,0,0,0,0,0,-1,1595,1576,7.10651,-5.64786
378,-552,6.44446,4.91492,0,0,0,0,0,0,0,-1,1602,1576,6.44448,-4.91496
385,-552,12.8276,3.16504,0,0,0,0,0,0,0,-1,1609,1576,12.8276,-3.16503
392,-552,12.1301,4.3363,0,0,0,0,0,0,0,-1,1616,1576,12.1302,-4.33631
399,-552,11.3486,5.6012,0,0,0,0,0,0,0,-1,1623,1576,11.3486,-5.60115
406,-552,10.7863,6.42542,0,0,0,0,0,0,0,-1,1630,1576,10.7863,-6.42536
413,-552,8.39307,10.365,0,0,0,0,0,0,0,-1,1637,1576,8.3931,-10.365
420,-552,10.2306,12.7225,0,0,0,0,0,0,0,-1,1644,1576,10.2305,-12.7226
427,-552,9.73267,14.783,0,0,0,0,0,0,0,-1,1651,1576,9.73269,-14.783
434,-552,12.0377,20.1364,0,0,0,0,0,0,0,-1,1658,1576,12.0377,-20.1364
441,-552,12.4963,21.5277,0,0,0,0,0,0,0,-1,1665,1576,12.4964,-21.5277
448,-552,12.9141,21.5482,0,0,0,0,0,0,0,-1,1672,1576,12.9141,-21.5482
455,-552,13.3318,21.5687,0,0,0,0,0,0,0,-1,1679,1576,13.3317,-21.5687
462,-552,12.745,20.5947,0,0,0,0,0,0,0,-1,1686,1576,12.745,-20.5947
469,-552,17.7067,29.6902,0,0,0,0,0,0,0,-1,1693,1576,17.7067,-29.6902
476,-552,24.3744,44.9122,0,0,0,0,0,0,0,-1,1700,1576,24.3744,-44.9122
483,-552,24.6074,43.7704,0,0,0,0,0,0,0,-1,1707,1576,24.6075,-43.7704
490,-552,24.5228,42.9022,0.00759964,0.00753401,-0.00509055,0.0126575,0.00247616,-0.782175,0.007746,0.0152228,1714,1576,24.5228,-42.9022
497,-552,24.6088,42.0841,0.00602308,0.00592924,-0.00403445,0.0100109,0.00194144,-0.779584,0.00613012,0.0241967,1721,1576,24.6088,-42.0841
504,-552,24.5104,41.3109,0.00469152,0.00475231,-0.0032207,0.00794276,0.00150107,-0.790117,0.00487251,0.0259812,1728,1576,24.5103,-41.3109
511,-552,24.4299,40.4724,0.00348604,0.00355535,-0.00244894,0.00596988,0.00107151,-0.792474,0.00367519,0.018123,1735,1576,24.43,-40.4724
518,-552,24.3959,39.6255,0.00241908,0.00260695,-0.00184903,0.00436443,0.000661603,-0.810777,0.00271608,0.0165572,1742,1576,24.3958,-39.6255
525,-552,24.3142,38.8049,0.00149777,0.00172739,-0.0012903,0.00290798,0.000317179,-0.829771,0.00184205,0.0176351,1749,1576,24.3143,-38.805
532,-552,24.2509,37.9952,0.000770634,0.000978639,-0.000819059,0.00170027,4.9001e-05,-0.848549,0.00111754,0.0165385,1756,1576,24.2509,-37.9952
539,-552,24.1997,37.1877,0.000257342,0.000373032,-0.000463877,0.000782657,-0.000152282,-0.847428,0.000579243,0.0193312,1763,1576,24.1998,-37.1877
546,-552,24.1257,36.3293,-3.38092e-05,-8.43325e-05,-0.000198638,0.000141167,-0.000259309,-0.722151,0.000234545,0.0232736,1770,1576,24.1258,-36.3294
553,-552,24.1313,35.4219,-3.90341e-05,-0.000313284,-9.99351e-05,-6.48202e-06,-0.000345836,-0.314894,0.000228427,0.027147,1777,1576,24.1313,-35.4219
560,-552,24.1956,34.3827,0,0,0,0,0,0,0,-1,1784,1576,24.1955,-34.3827
567,-552,20.6783,26.0908,0,0,0,0,0,0,0,-1,1791,1576,20.6784,-26.0908
574,-552,12.8835,14.8463,0,0,0,0,0,0,0,-1,1798,1576,12.8836,-14.8463
581,-552,9.74841,9.98645,0,0,0,0,0,0,0,-1,1805,1576,9.74847,-9.9864
588,-552,10.5619,9.34924,0,0,0,0,0,0,0,-1,1812,1576,10.5619,-9.34921
595,-552,5.36194,6.62744,0,0,0,0,0,0,0,-1,1819,1576,5.36193,-6.62742
602,-552,10.6863,4.31616,0,0,0,0,0,0,0,-1,1826,1576,10.6862,-4.31619
609,-552,12.146,3.18286,0,0,0,0,0,0,0,-1,1833,1576,12.1459,-3.18281
616,-552,13.8762,2.08167,0,0,0,0,0,0,0,-1,1840,1576,13.8763,-2.08167
623,-552,0,0,0,0,0,0,0,0,0,-1,1847,1576,0,0
630,-552,0,0,0,0,0,0,0,0,0,-1,1854,1576,0,0
637,-552,0,0,0,0,0,0,0,0,0,-1,1861,1576,0,0
644,-552,0,0,0,0,0,0,0,0,0,-1,1868,1576,0,0
651,-552,0,0,0,0,0,0,0,0,0,-1,1875,1576,0,0
658,-552,0,0,0,0,0,0,0,0,0,-1,1882,1576,0,0
665,-552,0,0,0,0,0,0,0,0,0,-1,1889,1576,0,0
672,-552,0,0,0,0,0,0,0,0,0,-1,1896,1576,0,0
679,-552,0,0,0,0,0,0,0,0,0,-1,1903,1576,0,0
686,-552,0,0,0,0,0,0,0,0,0,-1,1910,1576,0,0
693,-552,0,0,0,0,0,0,0,0,0,-1,1917,1576,0,0
700,-552,0,0,0,0,0,0,0,0,0,-1,1924,1576,0,0
707,-552,0,0,0,0,0,0,0,0,0,-1,1931,1576,0,0
714,-552,0,0,0,0,0,0,0,0,0,-1,1938,1576,0,0
721,-552,0,0,0,0,0,0,0,0,0,-1,1945,1576,0,0
728,-552,0,0,0,0,0,0,0,0,0,-1,1952,1576,0,0
735,-552,0,0,0,0,0,0,0,0,0,-1,1959,1576,0,0
742,-552,0,0,0,0,0,0,0,0,0,-1,1966,1576,0,0
749,-552,0,0,0,0,0,0,0,0,0,-1,1973,1576,0,0
756,-552,0,0,0,0,0,0,0,0,0,-1,1980,1576,0,0
763,-552,0,0,0,0,0,0,0,0,0,-1,1987,1576,0,0
770,-552,0,0,0,0,0,0,0,0,0,-1,1994,1576,0,0
777,-552,0,0,0,0,0,0,0,0,0,-1,2001,1576,0,0
784,-552,0,0,0,0,0,0,0,0,0,-1,2008,1576,0,0
791,-552,0,0,0,0,0,0,0,0,0,-1,2015,1576,0,0
798,-552,0,0,0,0,0,0,0,0,0,-1,2022,1576,0,0
805,-552,0,0,0,0,0,0,0,0,0,-1,2029,1576,0,0
812,-552,0,0,0,0,0,0,0,0,0,-1,2036,1576,0,0
-700,-559,0,0,0,0,0,0,0,0,0,-1,524,1583,0,0
-693,-559,0,0,0,0,0,0,0,0,0,-1,531,1583,0,0
-686,-559,0,0,0,0,0,0,0,0,0,-1,538,1583,0,0
-679,-559,0,0,0,0,0,0,0,0,0,-1,545,1583,0,0
-672,-559,0,0,0,0,0,0,0,0,0,-1,552,1583,0,0
-665,-559,0,0,0,0,0,0,0,0,0,-1,559,1583,0,0
-658,-559,0,0,0,0,0,0,0,0,0,-1,566,1583,0,0
-651,-559,0,0,0,0,0,0,0,0,0,-1,573,1583,0,0
-644,-559,0,0,0,0,0,0,0,0,0,-1,580,1583,0,0
-637,-559,0,0,0,0,0,0,0,0,0,-1,587,1583,0,0
-630,-559,0,0,0,0,0,0,0,0,0,-1,594,1583,0,0
-623,-559,0,0,0,0,0,0,0,0,0,-1,601,1583,0,0
-616,-559,0,0,0,0,0,0,0,0,0,-1,608,1583,0,0
-609,-559,0,0,0,0,0,0,0,0,0,-1,615,1583,0,0
-602,-559,0,0,0,0,0,0,0,0,0,-1,622,1583,0,0
-595,-559,0,0,0,0,0,0,0,0,0,-1,629,1583,0,0
-588,-559,0,0,0,0,0,0,0,0,0,-1,636,1583,0,0
-581,-559,0,0,0,0,0,0,0,0,0,-1,643,1583,0,0
-574,-559,0,0,0,0,0,0,0,0,0,-1,650,1583,0,0
-567,-559,0,0,0,0,0,0,0,0,0,-1,657,1583,0,0
-560,-559,0,0,0,0,0,0,0,0,0,-1,664,1583,0,0
-553,-559,0,0,0,0,0,0,0,0,0,-1,671,1583,0,0
-546,-559,0,0,0,0,0,0,0,0,0,-1,678,1583,0,0
-539,-559,0,0,0,0,0,0,0,0,0,-1,685,1583,0,0
-532,-559,0,0,0,0,0,0,0,0,0,-1,692,1583,0,0
-525,-559,0,0,0,0,0,0,0,0,0,-1,699,1583,0,0
-518,-559,0,0,0,0,0,0,0,0,0,-1,706,1583,0,0
-511,-559,0,0,0,0,0,0,0,0,0,-1,713,1583,0,0
-504,-559,0,0,0,0,0,0,0,0,0,-1,720,1583,0,0
-497,-559,0,0,0,0,0,0,0,0,0,-1,727,1583,0,0
-490,-559,-5.49835,4.47424,0,0,0,0,0,0,0,-1,734,1583,-5.49833,-4.4743
-483,-559,-5.24078,4.74561,0,0,0,0,0,0,0,-1,741,1583,-5.24079,-4.74563
-476,-559,-4.98022,4.99316,0,0,0,0,0,0,0,-1,748,1583,-4.98024,-4.99321
-469,-559,-4.6424,5.38062,0,0,0,0,0,0,0,-1,755,1583,-4.64237,-5.38058
-462,-559,-0.161865,6.49438,0,0,0,0,0,0,0,-1,762,1583,-0.161835,-6.49444
-455,-559,1.08826,7.02527,0,0,0,0,0,0,0,-1,769,1583,1.08823,-7.02529
-448,-559,-2.86023,20.0852,0,0,0,0,0,0,0,-1,776,1583,-2.86025,-20.0852
-441,-559,-4.02301,34.3728,0,0,0,0,0,0,0,-1,783,1583,-4.02303,-34.3728
-434,-559,-4.75385,34.8478,0,0,0,0,0,0,0,-1,790,1583,-4.75382,-34.8478
-427,-559,-5.51672,35.2244,0,0,0,0,0,0,0,-1,797,1583,-5.51674,-35.2244
-420,-559,-5.54779,36.2716,0,0,0,0,0,0,0,-1,804,1583,-5.54781,-36.2716
-413,-559,-5.58905,37.2299,-0.000695455,0.000833423,0.000248696,0.000872859,-0.000734892,1.41353,0.000929374,0.0201877,811,1583,-5.58907,-37.2299
-406,-559,-5.64722,38.1125,-8.62808e-05,0.000700869,0.000619105,0.00104091,-0.000426322,1.06853,0.000871527,0.0113117,818,1583,-5.6472,-38.1125
-399,-559,-5.67798,38.9542,0.000454477,0.000760125,0.000904307,0.00152443,-0.000309829,0.869105,0.00113376,0.0150125,825,1583,-5.67798,-38.9543
-392,-559,-5.7486,39.7942,0.000883563,0.000859882,0.00106467,0.00193646,-0.000193013,0.779838,0.00135988,0.0177238,832,1583,-5.74857,-39.7941
-385,-559,-5.79419,40.6462,0.00122183,0.00102585,0.00104424,0.00217267,7.50106e-05,0.738617,0.00142411,0.0171859,839,1583,-5.7942,-40.6463
-378,-559,-5.82788,41.4839,0.00169078,0.00127652,0.00110889,0.00261172,0.000355583,0.693068,0.00163555,0.0164687,846,1583,-5.82785,-41.4839
-371,-559,-5.89221,42.3114,0.00213534,0.00150152,0.00111041,0.00297318,0.000663687,0.646393,0.0018021,0.0229651,853,1583,-5.8922,-42.3113
-364,-559,-5.9295,43.1282,0.00264644,0.00183345,0.00115922,0.00346836,0.00101152,0.616765,0.0020596,0.0205678,860,1583,-5.92951,-43.1282
-357,-559,-5.96387,43.9669,0.0033815,0.00247838,0.00139093,0.00439233,0.00146755,0.628442,0.00258201,0.0126434,867,1583,-5.96385,-43.9669
-350,-559,-5.99139,44.7883,0.00436517,0.00321925,0.00176118,0.00564425,0.00194017,0.628134,0.00331133,0.0102751,874,1583,-5.99137,-44.7883
-343,-559,-6.04987,45.6127,0.00546131,0.00424404,0.00242025,0.00734828,0.00235706,0.662215,0.00433244,0.0117373,881,1583,-6.04988,-45.6126
-336,-559,-6.12421,46.4316,0,0,0,0,0,0,0,-1,888,1583,-6.12421,-46.4316
-329,-559,-6.04065,47.4537,0,0,0,0,0,0,0,-1,895,1583,-6.04067,-47.4537
-322,-559,-5.83813,48.9261,0,0,0,0,0,0,0,-1,902,1583,-5.83812,-48.9262
-315,-559,-0.659607,29.1698,0,0,0,0,0,0,0,-1,909,1583,-0.659577,-29.1698
-308,-559,-0.755493,30.4624,0,0,0,0,0,0,0,-1,916,1583,-0.755509,-30.4625
-301,-559,-1.22174,31.0372,0,0,0,0,0,0,0,-1,923,1583,-1.22176,-31.0372
-294,-559,0.945129,18.5165,0,0,0,0,0,0,0,-1,930,1583,0.945117,-18.5165
-287,-559,-0.11792,15.4912,0,0,0,0,0,0,0,-1,937,1583,-0.117939,-15.4912
-280,-559,0.191467,13.5093,0,0,0,0,0,0,0,-1,944,1583,0.191441,-13.5093
-273,-559,2.12836,10.3059,0,0,0,0,0,0,0,-1,951,1583,2.12839,-10.3059
-266,-559,-0.597046,6.68933,0,0,0,0,0,0,0,-1,958,1583,-0.597031,-6.68937
-259,-559,-7.00311,8.62756,0,0,0,0,0,0,0,-1,965,1583,-7.00312,-8.6275
-252,-559,-9.4483,2.87805,0,0,0,0,0,0,0,-1,972,1583,-9.44829,-2.87805
-245,-559,-4.80804,7.1803,0,0,0,0,0,0,0,-1,979,1583,-4.80804,-7.18027
-238,-559,-8.45764,2.54858,0,0,0,0,0,0,0,-1,986,1583,-8.45763,-2.54862
-231,-559,-5.86914,4.34021,0,0,0,0,0,0,0,-1,993,1583,-5.86914,-4.34019
-224,-559,-3.30505,6.22864,0,0,0,0,0,0,0,-1,1000,1583,-3.30505,-6.22859
-217,-559,0,0,0,0,0,0,0,0,0,-1,1007,1583,0,0
-210,-559,0,0,0,0,0,0,0,0,0,-1,1014,1583,0,0
-203,-559,0,0,0,0,0,0,0,0,0,-1,1021,1583,0,0
-196,-559,0,0,0,0,0,0,0,0,0,-1,1028,1583,0,0
-189,-559,0,0,0,0,0,0,0,0,0,-1,1035,1583,0,0
-182,-559,0,0,0,0,0,0,0,0,0,-1,1042,1583,0,0
-175,-559,0,0,0,0,0,0,0,0,0,-1,1049,1583,0,0
-168,-559,0,0,0,0,0,0,0,0,0,-1,1056,1583,0,0
-161,-559,0,0,0,0,0,0,0,0,0,-1,1063,1583,0,0
-154,-559,0,0,0,0,0,0,0,0,0,-1,1070,1583,0,0
-147,-559,0,0,0,0,0,0,0,0,0,-1,1077,1583,0,0
-140,-559,0,0,0,0,0,0,0,0,0,-1,1084,1583,0,0
-133,-559,0,0,0,0,0,0,0,0,0,-1,1091,1583,0,0
-126,-559,0,0,0,0,0,0,0,0,0,-1,1098,1583,0,0
-119,-559,0,0,0,0,0,0,0,0,0,-1,1105,1583,0,0
-112,-559,0,0,0,0,0,0,0,0,0,-1,1112,1583,0,0
-105,-559,0,0,0,0,0,0,0,0,0,-1,1119,1583,0,0
-98,-559,0,0,0,0,0,0,0,0,0,-1,1126,1583,0,0
-91,-559,0,0,0,0,0,0,0,0,0,-1,1133,1583,0,0
-84,-559,0,0,0,0,0,0,0,0,0,-1,1140,1583,0,0
-77,-559,0,0,0,0,0,0,0,0,0,-1,1147,1583,0,0
-70,-559,0,0,0,0,0,0,0,0,0,-1,1154,1583,0,0
-63,-559,0,0,0,0,0,0,0,0,0,-1,1161,1583,0,0
-56,-559,0,0,0,0,0,0,0,0,0,-1,1168,1583,0,0
-49,-559,0,0,0,0,0,0,0,0,0,-1,1175,1583,0,0
-42,-559,0,0,0,0,0,0,0,0,0,-1,1182,1583,0,0
-35,-559,0,0,0,0,0,0,0,0,0,-1,1189,1583,0,0
-28,-559,0,0,0,0,0,0,0,0,0,-1,1196,1583,0,0
-21,-559,0,0,0,0,0,0,0,0,0,-1,1203,1583,0,0
-14,-559,0,0,0,0,0,0,0,0,0,-1,1210,1583,0,0
-7,-559,0,0,0,0,0,0,0,0,0,-1,1217,1583,0,0
0,-559,0,0,0,0,0,0,0,0,0,-1,1224,1583,0,0
7,-559,0,0,0,0,0,0,0,0,0,-1,1231,1583,0,0
14,-559,0,0,0,0,0,0,0,0,0,-1,1238,1583,0,0
21,-559,0,0,0,0,0,0,0,0,0,-1,1245,1583,0,0
28,-559,0,0,0,0,0,0,0,0,0,-1,1252,1583,0,0
35,-559,0,0,0,0,0,0,0,0,0,-1,1259,1583,0,0
42,-559,0,0,0,0,0,0,0,0,0,-1,1266,1583,0,0
49,-559,0,0,0,0,0,0,0,0,0,-1,1273,1583,0,0
56,-559,0,0,0,0,0,0,0,0,0,-1,1280,1583,0,0
63,-559,0,0,0,0,0,0,0,0,0,-1,1287,1583,0,0
70,-559,0,0,0,0,0,0,0,0,0,-1,1294,1583,0,0
77,-559,0,0,0,0,0,0,0,0,0,-1,1301,1583,0,0
84,-559,0,0,0,0,0,0,0,0,0,-1,1308,1583,0,0
91,-559,0,0,0,0,0,0,0,0,0,-1,1315,1583,0,0
98,-559,0,0,0,0,0,0,0,0,0,-1,1322,1583,0,0
105,-559,0,0,0,0,0,0,0,0,0,-1,1329,1583,0,0
112,-559,0,0,0,0,0,0,0,0,0,-1,1336,1583,0,0
119,-559,0,0,0,0,0,0,0,0,0,-1,1343,1583,0,0
126,-559,0,0,0,0,0,0,0,0,0,-1,1350,1583,0,0
133,-559,0,0,0,0,0,0,0,0,0,-1,1357,1583,0,0
140,-559,0,0,0,0,0,0,0,0,0,-1,1364,1583,0,0
147,-559,0,0,0,0,0,0,0,0,0,-1,1371,1583,0,0
154,-559,0,0,0,0,0,0,0,0,0,-1,1378,1583,0,0
161,-559,0,0,0,0,0,0,0,0,0,-1,1385,1583,0,0
168,-559,0,0,0,0,0,0,0,0,0,-1,1392,1583,0,0
175,-559,0,0,0,0,0,0,0,0,0,-1,1399,1583,0,0
182,-559,0,0,0,0,0,0,0,0,0,-1,1406,1583,0,0
189,-559,0,0,0,0,0,0,0,0,0,-1,1413,1583,0,0
196,-559,0,0,0,0,0,0,0,0,0,-1,1420,1583,0,0
203,-559,0,0,0,0,0,0,0,0,0,-1,1427,1583,0,0
210,-559,0,0,0,0,0,0,0,0,0,-1,1434,1583,0,0
217,-559,0,0,0,0,0,0,0,0,0,-1,1441,1583,0,0
224,-559,0,0,0,0,0,0,0,0,0,-1,1448,1583,0,0
231,-559,0,0,0,0,0,0,0,0,0,-1,1455,1583,0,0
238,-559,0,0,0,0,0,0,0,0,0,-1,1462,1583,0,0
245,-559,0,0,0,0,0,0,0,0,0,-1,1469,1583,0,0
252,-559,0,0,0,0,0,0,0,0,0,-1,1476,1583,0,0
259,-559,0,0,0,0,0,0,0,0,0,-1,1483,1583,0,0
266,-559,0,0,0,0,0,0,0,0,0,-1,1490,1583,0,0
273,-559,0,0,0,0,0,0,0,0,0,-1,1497,1583,0,0
280,-559,0,0,0,0,0,0,0,0,0,-1,1504,1583,0,0
287,-559,0,0,0,0,0,0,0,0,0,-1,1511,1583,0,0
294,-559,0,0,0,0,0,0,0,0,0,-1,1518,1583,0,0
301,-559,0,0,0,0,0,0,0,0,0,-1,1525,1583,0,0
308,-559,0,0,0,0,0,0,0,0,0,-1,1532,1583,0,0
315,-559,0,0,0,0,0,0,0,0,0,-1,1539,1583,0,0
322,-559,0,0,0,0,0,0,0,0,0,-1,1546,1583,0,0
329,-559,0,0,0,0,0,0,0,0,0,-1,1553,1583,0,0
336,-559,5.97668,3.09827,0,0,0,0,0,0,0,-1,1560,1583,5.97667,-3.09824
343,-559,5.44824,2.88696,0,0,0,0,0,0,0,-1,1567,1583,5.44819,-2.88693
350,-559,4.69775,3.27051,0,0,0,0,0,0,0,-1,1574,1583,4.69771,-3.27048
357,-559,3.88025,3.60999,0,0,0,0,0,0,0,-1,1581,1583,3.88027,-3.60998
364,-559,5.00928,5.32605,0,0,0,0,0,0,0,-1,1588,1583,5.00928,-5.32607
371,-559,21.0801,52.1865,0,0,0,0,0,0,0,-1,1595,1583,21.0801,-52.1865
378,-559,6.34753,1.53137,0,0,0,0,0,0,0,-1,1602,1583,6.34752,-1.53139
385,-559,6.95911,1.48181,0,0,0,0,0,0,0,-1,1609,1583,6.95916,-1.48175
392,-559,11.6949,4.77734,0,0,0,0,0,0,0,-1,1616,1583,11.6949,-4.77731
399,-559,11.1104,5.56909,0,0,0,0,0,0,0,-1,1623,1583,11.1103,-5.56905
406,-559,10.3385,6.48657,0,0,0,0,0,0,0,-1,1630,1583,10.3385,-6.48661
413,-559,9.76147,6.97571,0,0,0,0,0,0,0,-1,1637,1583,9.76143,-6.97574
420,-559,7.77124,10.5851,0,0,0,0,0,0,0,-1,1644,1583,7.77128,-10.585
427,-559,10.1022,12.5565,0,0,0,0,0,0,0,-1,1651,1583,10.1021,-12.5565
434,-559,9.62769,14.6309,0,0,0,0,0,0,0,-1,1658,1583,9.62771,-14.6309
441,-559,12.6149,21.3678,0,0,0,0,0,0,0,-1,1665,1583,12.6149,-21.3678
448,-559,13.7046,22.6677,0,0,0,0,0,0,0,-1,1672,1583,13.7046,-22.6677
455,-559,13.9427,23.0509,0,0,0,0,0,0,0,-1,1679,1583,13.9427,-23.0509
462,-559,21.9476,42.0568,0,0,0,0,0,0,0,-1,1686,1583,21.9477,-42.0568
469,-559,23.5199,45.625,0,0,0,0,0,0,0,-1,1693,1583,23.5199,-45.625
476,-559,23.7062,44.7163,0.00844198,0.00861414,-0.00536554,0.0138943,0.00316183,-0.793419,0.00840944,0.0338217,1700,1583,23.7062,-44.7163
483,-559,23.7655,43.762,0.00707727,0.00716903,-0.00458154,0.0117049,0.00254138,-0.790405,0.00710922,0.0140099,1707,1583,23.7655,-43.762
490,-559,23.7205,42.9271,0.00574337,0.00573212,-0.00372057,0.00945832,0.00201717,-0.784643,0.00575229,0.0158516,1714,1583,23.7205,-42.9271
497,-559,23.7036,42.1431,0.00444113,0.00443634,-0.00292043,0.00735917,0.00151831,-0.784988,0.00448648,0.0206467,1721,1583,23.7037,-42.1431
504,-559,23.6416,41.3563,0.00334184,0.00344762,-0.00228859,0.00568393,0.00110552,-0.796951,0.00347982,0.0258398,1728,1583,23.6416,-41.3563
511,-559,23.6047,40.5231,0.00230682,0.00243357,-0.00166,0.00403141,0.000708983,-0.804478,0.00248522,0.0219775,1735,1583,23.6047,-40.5231
518,-559,23.5958,39.6689,0.00137903,0.0016074,-0.0011777,0.00267644,0.00030999,-0.833723,0.00169047,0.0154602,1742,1583,23.5958,-39.6689
525,-559,23.5331,38.8531,0.000592012,0.000843854,-0.000729832,0.00145855,-2.26824e-05,-0.870824,0.000980014,0.015059,1749,1583,23.533,-38.8531
532,-559,23.4567,38.0668,3.51999e-06,0.000211586,-0.000370905,0.000492772,-0.000277666,-0.922127,0.000450554,0.0156605,1756,1583,23.4567,-38.0668
539,-559,23.4,37.2465,-0.000399906,-0.000322407,-0.000107161,-0.000247204,-0.000475108,-0.958884,0.000274379,0.0192735,1763,1583,23.4,-37.2464
546,-559,23.3132,36.402,-0.000564556,-0.000693661,8.05915e-05,-0.000525852,-0.000732366,0.447727,0.000436024,0.0174198,1770,1583,23.3132,-36.402
553,-559,23.3721,35.4952,-0.000422861,-0.000823185,9.68253e-05,-0.000400672,-0.000845374,0.225276,0.000488297,0.0247482,1777,1583,23.3721,-35.4952
560,-559,23.5393,34.9685,0,0,0,0,0,0,0,-1,1784,1583,23.5393,-34.9685
567,-559,21.7423,29.5544,0,0,0,0,0,0,0,-1,1791,1583,21.7423,-29.5544
574,-559,10.5109,10.7317,0,0,0,0,0,0,0,-1,1798,1583,10.5108,-10.7317
581,-559,5.97095,5.96179,0,0,0,0,0,0,0,-1,1805,1583,5.97093,-5.96181
588,-559,5.79102,5.89954,0,0,0,0,0,0,0,-1,1812,1583,5.79098,-5.89949
595,-559,5.79089,6.24231,0,0,0,0,0,0,0,-1,1819,1583,5.7909,-6.24227
602,-559,12.478,2.35669,0,0,0,0,0,0,0,-1,1826,1583,12.4781,-2.35675
609,-559,14.0479,1.22681,0,0,0,0,0,0,0,-1,1833,1583,14.0479,-1.22681
616,-559,0,0,0,0,0,0,0,0,0,-1,1840,1583,0,0
623,-559,0,0,0,0,0,0,0,0,0,-1,1847,1583,0,0
630,-559,0,0,0,0,0,0,0,0,0,-1,1854,1583,0,0
637,-559,0,0,0,0,0,0,0,0,0,-1,1861,1583,0,0
644,-559,0,0,0,0,0,0,0,0,0,-1,1868,1583,0,0
651,-559,0,0,0,0,0,0,0,0,0,-1,1875,1583,0,0
658,-559,0,0,0,0,0,0,0,0,0,-1,1882,1583,0,0
665,-559,0,0,0,0,0,0,0,0,0,-1,1889,1583,0,0
672,-559,0,0,0,0,0,0,0,0,0,-1,1896,1583,0,0
679,-559,0,0,0,0,0,0,0,0,0,-1,1903,1583,0,0
686,-559,0,0,0,0,0,0,0,0,0,-1,1910,1583,0,0
693,-559,0,0,0,0,0,0,0,0,0,-1,1917,1583,0,0
700,-559,0,0,0,0,0,0,0,0,0,-1,1924,1583,0,0
707,-559,0,0,0,0,0,0,0,0,0,-1,1931,1583,0,0
714,-559,0,0,0,0,0,0,0,0,0,-1,1938,1583,0,0
721,-559,0,0,0,0,0,0,0,0,0,-1,1945,1583,0,0
728,-559,0,0,0,0,0,0,0,0,0,-1,1952,1583,0,0
735,-559,0,0,0,0,0,0,0,0,0,-1,1959,1583,0,0
742,-559,0,0,0,0,0,0,0,0,0,-1,1966,1583,0,0
749,-559,0,0,0,0,0,0,0,0,0,-1,1973,1583,0,0
756,-559,0,0,0,0,0,0,0,0,0,-1,1980,1583,0,0
763,-559,0,0,0,0,0,0,0,0,0,-1,1987,1583,0,0
770,-559,0,0,0,0,0,0,0,0,0,-1,1994,1583,0,0
777,-559,0,0,0,0,0,0,0,0,0,-1,2001,1583,0,0
784,-559,0,0,0,0,0,0,0,0,0,-1,2008,1583,0,0
791,-559,0,0,0,0,0,0,0,0,0,-1,2015,1583,0,0
798,-559,0,0,0,0,0,0,0,0,0,-1,2022,1583,0,0
805,-559,0,0,0,0,0,0,0,0,0,-1,2029,1583,0,0
812,-559,0,0,0,0,0,0,0,0,0,-1,2036,1583,0,0
-700,-566,0,0,0,0,0,0,0,0,0,-1,524,1590,0,0
-693,-566,0,0,0,0,0,0,0,0,0,-1,531,1590,0,0
-686,-566,0,0,0,0,0,0,0,0,0,-1,538,1590,0,0
-679,-566,0,0,0,0,0,0,0,0,0,-1,545,1590,0,0
-672,-566,0,0,0,0,0,0,0,0,0,-1,552,1590,0,0
-665,-566,0,0,0,0,0,0,0,0,0,-1,559,1590,0,0
-658,-566,0,0,0,0,0,0,0,0,0,-1,566,1590,0,0
-651,-566,0,0,0,0,0,0,0,0,0,-1,573,1590,0,0
-644,-566,0,0,0,0,0,0,0,0,0,-1,580,1590,0,0
-637,-566,0,0,0,0,0,0,0,0,0,-1,587,1590,0,0
-630,-566,0,0,0,0,0,0,0,0,0,-1,594,1590,0,0
-623,-566,0,0,0,0,0,0,0,0,0,-1,601,1590,0,0
-616,-566,0,0,0,0,0,0,0,0,0,-1,608,1590,0,0
-609,-566,0,0,0,0,0,0,0,0,0,-1,615,1590,0,0
-602,-566,0,0,0,0,0,0,0,0,0,-1,622,1590,0,0
-595,-566,0,0,0,0,0,0,0,0,0,-1,629,1590,0,0
-588,-566,0,0,0,0,0,0,0,0,0,-1,636,1590,0,0
-581,-566,0,0,0,0,0,0,0,0,0,-1,643,1590,0,0
-574,-566,0,0,0,0,0,0,0,0,0,-1,650,1590,0,0
-567,-566,0,0,0,0,0,0,0,0,0,-1,657,1590,0,0
-560,-566,0,0,0,0,0,0,0,0,0,-1,664,1590,0,0
-553,-566,0,0,0,0,0,0,0,0,0,-1,671,1590,0,0
-546,-566,0,0,0,0,0,0,0,0,0,-1,678,1590,0,0
-539,-566,0,0,0,0,0,0,0,0,0,-1,685,1590,0,0
-532,-566,0,0,0,0,0,0,0,0,0,-1,692,1590,0,0
-525,-566,0,0,0,0,0,0,0,0,0,-1,699,1590,0,0
-518,-566,0,0,0,0,0,0,0,0,0,-1,706,1590,0,0
-511,-566,0,0,0,0,0,0,0,0,0,-1,713,1590,0,0
-504,-566,0,0,0,0,0,0,0,0,0,-1,720,1590,0,0
-497,-566,0,0,0,0,0,0,0,0,0,-1,727,1590,0,0
-490,-566,0,0,0,0,0,0,0,0,0,-1,734,1590,0,0
-483,-566,-7.17084,2.78613,0,0,0,0,0,0,0,-1,741,1590,-7.17083,-2.78618
-476,-566,-7.13971,2.87183,0,0,0,0,0,0,0,-1,748,1590,-7.13971,-2.87184
-469,-566,-6.43829,3.2998,0,0,0,0,0,0,0,-1,755,1590,-6.43829,-3.2998
-462,-566,-0.459106,3.89343,0,0,0,0,0,0,0,-1,762,1590,-0.459095,-3.89341
-455,-566,0.280212,4.74023,0,0,0,0,0,0,0,-1,769,1590,0.280207,-4.74023
-448,-566,0.436951,5.51306,0,0,0,0,0,0,0,-1,776,1590,0.436971,-5.51301
-441,-566,-0.440735,12.4063,0,0,0,0,0,0,0,-1,783,1590,-0.440753,-12.4062
-434,-566,-3.91345,35.1444,0,0,0,0,0,0,0,-1,790,1590,-3.91345,-35.1444
-427,-566,-3.8623,33.8759,0,0,0,0,0,0,0,-1,797,1590,-3.86232,-33.8758
-420,-566,-4.89325,36.2592,0,0,0,0,0,0,0,-1,804,1590,-4.89327,-36.2591
-413,-566,-4.77448,37.2634,-0.000780234,0.00122143,0.000626202,0.00140119,-0.000959992,1.29125,0.00137114,0.039236,811,1590,-4.77448,-37.2634
-406,-566,-4.78546,38.1561,-0.000197409,0.00085823,0.00100725,0.00146757,-0.000806752,1.02674,0.00133143,0.0174418,818,1590,-4.78546,-38.1561
-399,-566,-4.84082,39.0125,0.000321912,0.000780677,0.00129172,0.00186322,-0.00076063,0.873272,0.00155883,0.0122986,825,1590,-4.84081,-39.0125
-392,-566,-4.91974,39.842,0.000731383,0.000756973,0.00142053,0.00216477,-0.000676414,0.789902,0.00171374,0.0152965,832,1590,-4.91971,-39.842
-385,-566,-4.94684,40.7147,0.000992762,0.000842123,0.00137467,0.00229417,-0.000459285,0.75803,0.00170331,0.0173851,839,1590,-4.94681,-40.7148
-378,-566,-4.97528,41.5643,0.00138097,0.00104802,0.00141275,0.00263701,-0.000208028,0.72675,0.00183129,0.0173869,846,1590,-4.97526,-41.5643
-371,-566,-5.04822,42.3585,0.00170266,0.00110949,0.00127833,0.00271835,9.37901e-05,0.67141,0.0017818,0.0228401,853,1590,-5.04824,-42.3585
-364,-566,-5.06549,43.1896,0.0020855,0.00131691,0.00121007,0.00297083,0.000431583,0.631644,0.00185352,0.023404,860,1590,-5.06546,-43.1895
-357,-566,-5.1402,44.0096,0.00269168,0.00181028,0.00130262,0.00362613,0.000875825,0.622283,0.0021848,0.0190981,867,1590,-5.14019,-44.0097
-350,-566,-5.17792,44.8352,0.00354803,0.00240853,0.00154133,0.00462154,0.00133501,0.608362,0.0027464,0.0212974,874,1590,-5.17794,-44.8352
-343,-566,-5.22076,45.6198,0.00450088,0.00325493,0.002026,0.00599753,0.00175829,0.636241,0.00356006,0.0271805,881,1590,-5.22077,-45.6198
-336,-566,-5.39893,46.4114,0.00552582,0.00458007,0.00275496,0.0078482,0.00225769,0.700405,0.00466536,0.0323091,888,1590,-5.39893,-46.4114
-329,-566,-5.2619,47.1876,0.00695243,0.00603197,0.00374219,0.0102626,0.00272181,0.724214,0.00613898,0.0336343,895,1590,-5.26188,-47.1876
-322,-566,-5.18134,48.2147,0.00899163,0.00795538,0.00519614,0.0136954,0.0032516,0.735706,0.00826251,0.0466159,902,1590,-5.18135,-48.2148
-315,-566,-5.11108,49.47,0,0,0,0,0,0,0,-1,909,1590,-5.11109,-49.4699
-308,-566,-0.127258,29.7607,0,0,0,0,0,0,0,-1,916,1590,-0.12725,-29.7608
-301,-566,0.424011,30.6545,0,0,0,0,0,0,0,-1,923,1590,0.424036,-30.6546
-294,-566,-2.54523,43.1459,0,0,0,0,0,0,0,-1,930,1590,-2.54522,-43.1458
-287,-566,1.25391,23.4589,0,0,0,0,0,0,0,-1,937,1590,1.2539,-23.4589
-280,-566,1.59406,17.8762,0,0,0,0,0,0,0,-1,944,1590,1.59405,-17.8762
-273,-566,0.49762,11.2427,0,0,0,0,0,0,0,-1,951,1590,0.497591,-11.2426
-266,-566,0.392151,6.90295,0,0,0,0,0,0,0,-1,958,1590,0.392151,-6.90294
-259,-566,0.343628,6.47437,0,0,0,0,0,0,0,-1,965,1590,0.34363,-6.47438
-252,-566,-7.68311,1.01343,0,0,0,0,0,0,0,-1,972,1590,-7.68308,-1.01348
-245,-566,-11.1835,1.97522,0,0,0,0,0,0,0,-1,979,1590,-11.1835,-1.97527
-238,-566,-10.4883,2.40491,0,0,0,0,0,0,0,-1,986,1590,-10.4883,-2.40487
-231,-566,-7.41827,4.22803,0,0,0,0,0,0,0,-1,993,1590,-7.41827,-4.22803
-224,-566,-4.67188,6.30859,0,0,0,0,0,0,0,-1,1000,1590,-4.67185,-6.30853
-217,-566,-2.82867,7.52527,0,0,0,0,0,0,0,-1,1007,1590,-2.82869,-7.52531
-210,-566,-1.03436,8.67737,0,0,0,0,0,0,0,-1,1014,1590,-1.03439,-8.67733
-203,-566,0,0,0,0,0,0,0,0,0,-1,1021,1590,0,0
-196,-566,0,0,0,0,0,0,0,0,0,-1,1028,1590,0,0
-189,-566,0,0,0,0,0,0,0,0,0,-1,1035,1590,0,0
-182,-566,0,0,0,0,0,0,0,0,0,-1,1042,1590,0,0
-175,-566,0,0,0,0,0,0,0,0,0,-1,1049,1590,0,0
-168,-566,0,0,0,0,0,0,0,0,0,-1,1056,1590,0,0
-161,-566,0,0,0,0,0,0,0,0,0,-1,1063,1590,0,0
-154,-566,0,0,0,0,0,0,0,0,0,-1,1070,1590,0,0
-147,-566,0,0,0,0,0,0,0,0,0,-1,1077,1590,0,0
-140,-566,0,0,0,0,0,0,0,0,0,-1,1084,1590,0,0
-133,-566,0,0,0,0,0,0,0,0,0,-1,1091,1590,0,0
-126,-566,0,0,0,0,0,0,0,0,0,-1,1098,1590,0,0
-119,-566,0,0,0,0,0,0,0,0,0,-1,1105,1590,0,0
-112,-566,0,0,0,0,0,0,0,0,0,-1,1112,1590,0,0
-105,-566,0,0,0,0,0,0,0,0,0,-1,1119,1590,0,0
-98,-566,0,0,0,0,0,0,0,0,0,-1,1126,1590,0,0
-91,-566,0,0,0,0,0,0,0,0,0,-1,1133,1590,0,0
-84,-566,0,0,0,0,0,0,0,0,0,-1,1140,1590,0,0
-77,-566,0,0,0,0,0,0,0,0,0,-1,1147,1590,0,0
-70,-566,0,0,0,0,0,0,0,0,0,-1,1154,1590,0,0
-63,-566,0,0,0,0,0,0,0,0,0,-1,1161,1590,0,0
-56,-566,0,0,0,0,0,0,0,0,0,-1,1168,1590,0,0
-49,-566,0,0,0,0,0,0,0,0,0,-1,1175,1590,0,0
-42,-566,0,0,0,0,0,0,0,0,0,-1,1182,1590,0,0
-35,-566,0,0,0,0,0,0,0,0,0,-1,1189,1590,0,0
-28,-566,0,0,0,0,0,0,0,0,0,-1,1196,1590,0,0
-21,-566,0,0,0,0,0,0,0,0,0,-1,1203,1590,0,0
-14,-566,0,0,0,0,0,0,0,0,0,-1,1210,1590,0,0
-7,-566,0,0,0,0,0,0,0,0,0,-1,1217,1590,0,0
0,-566,0,0,0,0,0,0,0,0,0,-1,1224,1590,0,0
7,-566,0,0,0,0,0,0,0,0,0,-1,1231,1590,0,0
14,-566,0,0,0,0,0,0,0,0,0,-1,1238,1590,0,0
21,-566,0,0,0,0,0,0,0,0,0,-1,1245,1590,0,0
28,-566,0,0,0,0,0,0,0,0,0,-1,1252,1590,0,0
35,-566,0,0,0,0,0,0,0,0,0,-1,1259,1590,0,0
42,-566,0,0,0,0,0,0,0,0,0,-1,1266,1590,0,0
49,-566,0,0,0,0,0,0,0,0,0,-1,1273,1590,0,0
56,-566,0,0,0,0,0,0,0,0,0,-1,1280,1590,0,0
63,-566,0,0,0,0,0,0,0,0,0,-1,1287,1590,0,0
70,-566,0,0,0,0,0,0,0,0,0,-1,1294,1590,0,0
77,-566,0,0,0,0,0,0,0,0,0,-1,1301,1590,0,0
84,-566,0,0,0,0,0,0,0,0,0,-1,1308,1590,0,0
91,-566,0,0,0,0,0,0,0,0,0,-1,1315,1590,0,0
98,-566,0,0,0,0,0,0,0,0,0,-1,1322,1590,0,0
105,-566,0,0,0,0,0,0,0,0,0,-1,1329,1590,0,0
112,-566,0,0,0,0,0,0,0,0,0,-1,1336,1590,0,0
119,-566,0,0,0,0,0,0,0,0,0,-1,1343,1590,0,0
126,-566,0,0,0,0,0,0,0,0,0,-1,1350,1590,0,0
133,-566,0,0,0,0,0,0,0,0,0,-1,1357,1590,0,0
140,-566,0,0,0,0,0,0,0,0,0,-1,1364,1590,0,0
147,-566,0,0,0,0,0,0,0,0,0,-1,1371,1590,0,0
154,-566,0,0,0,0,0,0,0,0,0,-1,1378,1590,0,0
161,-566,0,0,0,0,0,0,0,0,0,-1,1385,1590,0,0
168,-566,0,0,0,0,0,0,0,0,0,-1,1392,1590,0,0
175,-566,0,0,0,0,0,0,0,0,0,-1,1399,1590,0,0
182,-566,0,0,0,0,0,0,0,0,0,-1,1406,1590,0,0
189,-566,0,0,0,0,0,0,0,0,0,-1,1413,1590,0,0
196,-566,0,0,0,0,0,0,0,0,0,-1,1420,1590,0,0
203,-566,0,0,0,0,0,0,0,0,0,-1,1427,1590,0,0
210,-566,0,0,0,0,0,0,0,0,0,-1,1434,1590,0,0
217,-566,0,0,0,0,0,0,0,0,0,-1,1441,1590,0,0
224,-566,0,0,0,0,0,0,0,0,0,-1,1448,1590,0,0
231,-566,0,0,0,0,0,0,0,0,0,-1,1455,1590,0,0
238,-566,0,0,0,0,0,0,0,0,0,-1,1462,1590,0,0
245,-566,0,0,0,0,0,0,0,0,0,-1,1469,1590,0,0
252,-566,0,0,0,0,0,0,0,0,0,-1,1476,1590,0,0
259,-566,0,0,0,0,0,0,0,0,0,-1,1483,1590,0,0
266,-566,0,0,0,0,0,0,0,0,0,-1,1490,1590,0,0
273,-566,0,0,0,0,0,0,0,0,0,-1,1497,1590,0,0
280,-566,0,0,0,0,0,0,0,0,0,-1,1504,1590,0,0
287,-566,0,0,0,0,0,0,0,0,0,-1,1511,1590,0,0
294,-566,0,0,0,0,0,0,0,0,0,-1,1518,1590,0,0
301,-566,0,0,0,0,0,0,0,0,0,-1,1525,1590,0,0
308,-566,0,0,0,0,0,0,0,0,0,-1,1532,1590,0,0
315,-566,0,0,0,0,0,0,0,0,0,-1,1539,1590,0,0
322,-566,6.07983,4.44873,0,0,0,0,0,0,0,-1,1546,1590,6.07983,-4.44873
329,-566,5.77026,3.47534,0,0,0,0,0,0,0,-1,1553,1590,5.77026,-3.47535
336,-566,5.41138,2.62915,0,0,0,0,0,0,0,-1,1560,1590,5.41138,-2.62909
343,-566,4.81873,1.79089,0,0,0,0,0,0,0,-1,1567,1590,4.81878,-1.79095
350,-566,24.2104,52.894,0,0,0,0,0,0,0,-1,1574,1590,24.2105,-52.8941
357,-566,25.1531,51.6272,0,0,0,0,0,0,0,-1,1581,1590,25.153,-51.6272
364,-566,24.3885,51.1313,0,0,0,0,0,0,0,-1,1588,1590,24.3886,-51.1314
371,-566,21.1536,52.8204,0,0,0,0,0,0,0,-1,1595,1590,21.1535,-52.8205
378,-566,22.0442,54.6259,0,0,0,0,0,0,0,-1,1602,1590,22.0442,-54.6259
385,-566,5.67615,-0.573975,0,0,0,0,0,0,0,-1,1609,1590,5.67612,0.573956
392,-566,5.78638,1.82434,0,0,0,0,0,0,0,-1,1616,1590,5.78637,-1.82439
399,-566,18.6853,38.6455,0,0,0,0,0,0,0,-1,1623,1590,18.6853,-38.6456
406,-566,4.30359,5.26868,0,0,0,0,0,0,0,-1,1630,1590,4.30364,-5.26867
413,-566,4.27124,5.79492,0,0,0,0,0,0,0,-1,1637,1590,4.27123,-5.7949
420,-566,18.0121,32.5314,0,0,0,0,0,0,0,-1,1644,1590,18.0121,-32.5313
427,-566,19.4491,36.9315,0,0,0,0,0,0,0,-1,1651,1590,19.4491,-36.9315
434,-566,19.338,36.7385,0,0,0,0,0,0,0,-1,1658,1590,19.338,-36.7386
441,-566,15.5841,27.5869,0,0,0,0,0,0,0,-1,1665,1590,15.5842,-27.587
448,-566,21.8796,45.052,0,0,0,0,0,0,0,-1,1672,1590,21.8797,-45.052
455,-566,22.7372,47.5707,0,0,0,0,0,0,0,-1,1679,1590,22.7371,-47.5707
462,-566,22.9375,46.3113,0,0,0,0,0,0,0,-1,1686,1590,22.9375,-46.3112
469,-566,22.9009,45.4695,0.00743866,0.0077242,-0.00423065,0.0118145,0.00334837,-0.802265,0.00703118,0.0225884,1693,1590,22.9009,-45.4695
476,-566,22.9578,44.6036,0.00643555,0.00656476,-0.00389734,0.010398,0.00260228,-0.793685,0.00624793,0.0112056,1700,1590,22.9578,-44.6037
483,-566,22.9264,43.7881,0.00532188,0.00536766,-0.00336245,0.0087073,0.00198224,-0.788802,0.00526989,0.0115099,1707,1590,22.9264,-43.7881
490,-566,22.8955,42.9686,0.00420614,0.00419772,-0.0027172,0.00691914,0.00148473,-0.784623,0.00420613,0.0137828,1714,1590,22.8955,-42.9687
497,-566,22.8901,42.1866,0.00311566,0.00316416,-0.00211667,0.00525672,0.00102311,-0.791126,0.00321812,0.0176709,1721,1590,22.8902,-42.1866
504,-566,22.8431,41.4092,0.00218302,0.00231792,-0.0016102,0.00386208,0.000638856,-0.80633,0.0023904,0.0216555,1728,1590,22.8432,-41.4092
511,-566,22.7883,40.5802,0.00128455,0.00146256,-0.00109032,0.0024675,0.000279609,-0.826125,0.00156017,0.0211034,1735,1590,22.7884,-40.5801
518,-566,22.7521,39.7662,0.000471243,0.000739545,-0.000687025,0.00130539,-9.46061e-05,-0.881817,0.000903451,0.0127453,1742,1590,22.752,-39.7662
525,-566,22.6886,38.9349,-0.000207938,7.11302e-05,-0.000315928,0.000276966,-0.000413774,-0.993348,0.000401397,0.0120962,1749,1590,22.6886,-38.935
532,-566,22.6237,38.087,-0.000683809,-0.000466636,-2.77972e-05,-0.000463134,-0.00068731,-1.44549,0.000404734,0.0149747,1756,1590,22.6237,-38.0871
539,-566,22.573,37.2244,-0.00102185,-0.00097897,0.000202673,-0.000796605,-0.00120421,0.838095,0.000707241,0.02048,1763,1590,22.573,-37.2243
546,-566,22.5864,36.3257,-0.00111177,-0.00131408,0.000371994,-0.000827421,-0.00159843,0.652642,0.000923044,0.0241133,1770,1590,22.5865,-36.3257
553,-566,22.543,35.6631,-0.000850969,-0.00136087,0.000350956,-0.000672135,-0.00153971,0.471268,0.000891335,0.0378665,1777,1590,22.543,-35.6631
560,-566,22.3221,35.0803,0,0,0,0,0,0,0,-1,1784,1590,22.3222,-35.0803
567,-566,22.3624,34.3958,0,0,0,0,0,0,0,-1,1791,1590,22.3624,-34.3958
574,-566,7.99548,3.14514,0,0,0,0,0,0,0,-1,1798,1590,7.99543,-3.14511
581,-566,2.54102,5.1311,0,0,0,0,0,0,0,-1,1805,1590,2.54099,-5.13111
588,-566,-1.91321,8.39197,0,0,0,0,0,0,0,-1,1812,1590,-1.91316,-8.39199
595,-566,9.0271,4.66467,0,0,0,0,0,0,0,-1,1819,1590,9.02705,-4.66468
602,-566,9.953,3.54895,0,0,0,0,0,0,0,-1,1826,1590,9.953,-3.54898
609,-566,0,0,0,0,0,0,0,0,0,-1,1833,1590,0,0
616,-566,0,0,0,0,0,0,0,0,0,-1,1840,1590,0,0
623,-566,0,0,0,0,0,0,0,0,0,-1,1847,1590,0,0
630,-566,0,0,0,0,0,0,0,0,0,-1,1854,1590,0,0
637,-566,0,0,0,0,0,0,0,0,0,-1,1861,1590,0,0
644,-566,0,0,0,0,0,0,0,0,0,-1,1868,1590,0,0
651,-566,0,0,0,0,0,0,0,0,0,-1,1875,1590,0,0
658,-566,0,0,0,0,0,0,0,0,0,-1,1882,1590,0,0
665,-566,0,0,0,0,0,0,0,0,0,-1,1889,1590,0,0
672,-566,0,0,0,0,0,0,0,0,0,-1,1896,1590,0,0
679,-566,0,0,0,0,0,0,0,0,0,-1,1903,1590,0,0
686,-566,0,0,0,0,0,0,0,0,0,-1,1910,1590,0,0
693,-566,0,0,0,0,0,0,0,0,0,-1,1917,1590,0,0
700,-566,0,0,0,0,0,0,0,0,0,-1,1924,1590,0,0
707,-566,0,0,0,0,0,0,0,0,0,-1,1931,1590,0,0
714,-566,0,0,0,0,0,0,0,0,0,-1,1938,1590,0,0
721,-566,0,0,0,0,0,0,0,0,0,-1,1945,1590,0,0
728,-566,0,0,0,0,0,0,0,0,0,-1,1952,1590,0,0
735,-566,0,0,0,0,0,0,0,0,0,-1,1959,1590,0,0
742,-566,0,0,0,0,0,0,0,0,0,-1,1966,1590,0,0
749,-566,0,0,0,0,0,0,0,0,0,-1,1973,1590,0,0
756,-566,0,0,0,0,0,0,0,0,0,-1,1980,1590,0,0
763,-566,0,0,0,0,0,0,0,0,0,-1,1987,1590,0,0
770,-566,0,0,0,0,0,0,0,0,0,-1,1994,1590,0,0
777,-566,0,0,0,0,0,0,0,0,0,-1,2001,1590,0,0
784,-566,0,0,0,0,0,0,0,0,0,-1,2008,1590,0,0
791,-566,0,0,0,0,0,0,0,0,0,-1,2015,1590,0,0
798,-566,0,0,0,0,0,0,0,0,0,-1,2022,1590,0,0
805,-566,0,0,0,0,0,0,0,0,0,-1,2029,1590,0,0
812,-566,0,0,0,0,0,0,0,0,0,-1,2036,1590,0,0
-700,-573,0,0,0,0,0,0,0,0,0,-1,524,1597,0,0
-693,-573,0,0,0,0,0,0,0,0,0,-1,531,1597,0,0
-686,-573,0,0,0,0,0,0,0,0,0,-1,538,1597,0,0
-679,-573,0,0,0,0,0,0,0,0,0,-1,545,1597,0,0
-672,-573,0,0,0,0,0,0,0,0,0,-1,552,1597,0,0
-665,-573,0,0,0,0,0,0,0,0,0,-1,559,1597,0,0
-658,-573,0,0,0,0,0,0,0,0,0,-1,566,1597,0,0
-651,-573,0,0,0,0,0,0,0,0,0,-1,573,1597,0,0
-644,-573,0,0,0,0,0,0,0,0,0,-1,580,1597,0,0
-637,-573,0,0,0,0,0,0,0,0,0,-1,587,1597,0,0
-630,-573,0,0,0,0,0,0,0,0,0,-1,594,1597,0,0
-623,-573,0,0,0,0,0,0,0,0,0,-1,601,1597,0,0
-616,-573,0,0,0,0,0,0,0,0,0,-1,608,1597,0,0
-609,-573,0,0,0,0,0,0,0,0,0,-1,615,1597,0,0
-602,-573,0,0,0,0,0,0,0,0,0,-1,622,1597,0,0
-595,-573,0,0,0,0,0,0,0,0,0,-1,629,1597,0,0
-588,-573,0,0,0,0,0,0,0,0,0,-1,636,1597,0,0
-581,-573,0,0,0,0,0,0,0,0,0,-1,643,1597,0,0
-574,-573,0,0,0,0,0,0,0,0,0,-1,650,1597,0,0
-567,-573,0,0,0,0,0,0,0,0,0,-1,657,1597,0,0
-560,-573,0,0,0,0,0,0,0,0,0,-1,664,1597,0,0
-553,-573,0,0,0,0,0,0,0,0,0,-1,671,1597,0,0
-546,-573,0,0,0,0,0,0,0,0,0,-1,678,1597,0,0
-539,-573,0,0,0,0,0,0,0,0,0,-1,685,1597,0,0
-532,-573,0,0,0,0,0,0,0,0,0,-1,692,1597,0,0
-525,-573,0,0,0,0,0,0,0,0,0,-1,699,1597,0,0
-518,-573,0,0,0,0,0,0,0,0,0,-1,706,1597,0,0
-511,-573,0,0,0,0,0,0,0,0,0,-1,713,1597,0,0
-504,-573,0,0,0,0,0,0,0,0,0,-1,720,1597,0,0
-497,-573,0,0,0,0,0,0,0,0,0,-1,727,1597,0,0
-490,-573,0,0,0,0,0,0,0,0,0,-1,734,1597,0,0
-483,-573,0,0,0,0,0,0,0,0,0,-1,741,1597,0,0
-476,-573,-9.3327,0.972778,0,0,0,0,0,0,0,-1,748,1597,-9.33268,-0.972776
-469,-573,-1.41681,1.13379,0,0,0,0,0,0,0,-1,755,1597,-1.41681,-1.13382
-462,-573,-0.748535,2.02588,0,0,0,0,0,0,0,-1,762,1597,-0.748533,-2.02584
-455,-573,-0.112976,2.70703,0,0,0,0,0,0,0,-1,769,1597,-0.112988,-2.70697
-448,-573,-1.26172,3.33252,0,0,0,0,0,0,0,-1,776,1597,-1.26173,-3.33248
-441,-573,0.108582,5.06726,0,0,0,0,0,0,0,-1,783,1597,0.108584,-5.06721
-434,-573,1.61768,7.05444,0,0,0,0,0,0,0,-1,790,1597,1.61767,-7.05446
-427,-573,-1.37927,24.4124,0,0,0,0,0,0,0,-1,797,1597,-1.37928,-24.4124
-420,-573,-1.15186,28.0936,0,0,0,0,0,0,0,-1,804,1597,-1.15185,-28.0936
-413,-573,-4.03766,36.9346,0,0,0,0,0,0,0,-1,811,1597,-4.03767,-36.9346
-406,-573,-4.05383,38.101,0,0,0,0,0,0,0,-1,818,1597,-4.05385,-38.101
-399,-573,-4.01843,39.0404,0.000369452,0.00103694,0.00192114,0.00265312,-0.00124672,0.871401,0.00229986,0.020765,825,1597,-4.01844,-39.0404
-392,-573,-4.06281,39.9106,0.000765831,0.000857387,0.00197726,0.0027894,-0.00116618,0.796972,0.00234697,0.0153785,832,1597,-4.06282,-39.9106
-385,-573,-4.12854,40.7706,0.00093777,0.000842499,0.00188261,0.00277334,-0.000993074,0.772749,0.00225406,0.0162885,839,1597,-4.12855,-40.7706
-378,-573,-4.16565,41.6119,0.00120764,0.000970971,0.00184822,0.00294131,-0.000762693,0.753428,0.00225845,0.016177,846,1597,-4.16563,-41.6119
-371,-573,-4.1922,42.4487,0.00137911,0.000842831,0.00154828,0.0026823,-0.00046036,0.699656,0.00195976,0.0171822,853,1597,-4.19221,-42.4488
-364,-573,-4.21765,43.2484,0.00161269,0.00089691,0.00134285,0.00264452,-0.000134922,0.655168,0.00180966,0.0198673,860,1597,-4.21764,-43.2484
-357,-573,-4.27081,44.0337,0.00205865,0.00119713,0.00128454,0.00298274,0.000273046,0.62362,0.00190401,0.0232719,867,1597,-4.27082,-44.0337
-350,-573,-4.33197,44.9025,0.00274359,0.00161798,0.00138448,0.00367529,0.00068628,0.592347,0.00225649,0.0185679,874,1597,-4.33198,-44.9024
-343,-573,-4.38391,45.7048,0.00351288,0.00227175,0.00170613,0.0047078,0.00107683,0.610974,0.00284827,0.0229044,881,1597,-4.38393,-45.7048
-336,-573,-4.43243,46.5498,0.00433046,0.00337512,0.00225197,0.00615486,0.00155072,0.680891,0.0036964,0.0187235,888,1597,-4.43245,-46.5498
-329,-573,-4.4256,47.3213,0.00545048,0.0045391,0.00298257,0.00801197,0.00197761,0.709593,0.00481932,0.0207094,895,1597,-4.4256,-47.3213
-322,-573,-4.47559,48.1666,0.0070686,0.00610089,0.00410045,0.0107136,0.00245585,0.726669,0.00648081,0.0198942,902,1597,-4.47556,-48.1666
-315,-573,-4.34814,49.1919,0,0,0,0,0,0,0,-1,909,1597,-4.34813,-49.1919
-308,-573,-4.39539,50.632,0,0,0,0,0,0,0,-1,916,1597,-4.39539,-50.632
-301,-573,-4.22021,51.0468,0,0,0,0,0,0,0,-1,923,1597,-4.2202,-51.0468
-294,-573,-3.89948,50.4868,0,0,0,0,0,0,0,-1,930,1597,-3.89947,-50.4868
-287,-573,-2.00739,43.4723,0,0,0,0,0,0,0,-1,937,1597,-2.00739,-43.4723
-280,-573,1.19684,26.4906,0,0,0,0,0,0,0,-1,944,1597,1.19685,-26.4906
-273,-573,2.24805,25.4375,0,0,0,0,0,0,0,-1,951,1597,2.24803,-25.4374
-266,-573,1.31116,7.1814,0,0,0,0,0,0,0,-1,958,1597,1.31118,-7.18142
-259,-573,1.2514,6.70959,0,0,0,0,0,0,0,-1,965,1597,1.25137,-6.70965
-252,-573,2.07874,5.27161,0,0,0,0,0,0,0,-1,972,1597,2.07875,-5.27157
-245,-573,-10.2592,1.09827,0,0,0,0,0,0,0,-1,979,1597,-10.2592,-1.09823
-238,-573,-11.5463,4.44141,0,0,0,0,0,0,0,-1,986,1597,-11.5463,-4.44146
-231,-573,-9.23431,4.14539,0,0,0,0,0,0,0,-1,993,1597,-9.23431,-4.14534
-224,-573,-6.70044,7.40857,0,0,0,0,0,0,0,-1,1000,1597,-6.70045,-7.40851
-217,-573,-4.25824,8.59119,0,0,0,0,0,0,0,-1,1007,1597,-4.25824,-8.59122
-210,-573,-2.39661,9.73914,0,0,0,0,0,0,0,-1,1014,1597,-2.39658,-9.73915
-203,-573,-0.557373,10.9005,0,0,0,0,0,0,0,-1,1021,1597,-0.557387,-10.9006
-196,-573,-1.65344,9.02246,0,0,0,0,0,0,0,-1,1028,1597,-1.65349,-9.02241
-189,-573,-6.12915,6.66882,0,0,0,0,0,0,0,-1,1035,1597,-6.12913,-6.66884
-182,-573,0,0,0,0,0,0,0,0,0,-1,1042,1597,0,0
-175,-573,0,0,0,0,0,0,0,0,0,-1,1049,1597,0,0
-168,-573,0,0,0,0,0,0,0,0,0,-1,1056,1597,0,0
-161,-573,0,0,0,0,0,0,0,0,0,-1,1063,1597,0,0
-154,-573,0,0,0,0,0,0,0,0,0,-1,1070,1597,0,0
-147,-573,0,0,0,0,0,0,0,0,0,-1,1077,1597,0,0
-140,-573,0,0,0,0,0,0,0,0,0,-1,1084,1597,0,0
-133,-573,0,0,0,0,0,0,0,0,0,-1,1091,1597,0,0
-126,-573,0,0,0,0,0,0,0,0,0,-1,1098,1597,0,0
-119,-573,0,0,0,0,0,0,0,0,0,-1,1105,1597,0,0
-112,-573,0,0,0,0,0,0,0,0,0,-1,1112,1597,0,0
-105,-573,0,0,0,0,0,0,0,0,0,-1,1119,1597,0,0
-98,-573,0,0,0,0,0,0,0,0,0,-1,1126,1597,0,0
-91,-573,0,0,0,0,0,0,0,0,0,-1,1133,1597,0,0
-84,-573,0,0,0,0,0,0,0,0,0,-1,1140,1597,0,0
-77,-573,0,0,0,0,0,0,0,0,0,-1,1147,1597,0,0
-70,-573,0,0,0,0,0,0,0,0,0,-1,1154,1597,0,0
-63,-573,0,0,0,0,0,0,0,0,0,-1,1161,1597,0,0
-56,-573,0,0,0,0,0,0,0,0,0,-1,1168,1597,0,0
-49,-573,0,0,0,0,0,0,0,0,0,-1,1175,1597,0,0
-42,-573,0,0,0,0,0,0,0,0,0,-1,1182,1597,0,0
-35,-573,0,0,0,0,0,0,0,0,0,-1,1189,1597,0,0
-28,-573,0,0,0,0,0,0,0,0,0,-1,1196,1597,0,0
-21,-573,0,0,0,0,0,0,0,0,0,-1,1203,1597,0,0
-14,-573,0,0,0,0,0,0,0,0,0,-1,1210,1597,0,0
-7,-573,0,0,0,0,0,0,0,0,0,-1,1217,1597,0,0
0,-573,0,0,0,0,0,0,0,0,0,-1,1224,1597,0,0
7,-573,0,0,0,0,0,0,0,0,0,-1,1231,1597,0,0
14,-573,0,0,0,0,0,0,0,0,0,-1,1238,1597,0,0
21,-573,0,0,0,0,0,0,0,0,0,-1,1245,1597,0,0
28,-573,0,0,0,0,0,0,0,0,0,-1,1252,1597,0,0
35,-573,0,0,0,0,0,0,0,0,0,-1,1259,1597,0,0
42,-573,0,0,0,0,0,0,0,0,0,-1,1266,1597,0,0
49,-573,0,0,0,0,0,0,0,0,0,-1,1273,1597,0,0
56,-573,0,0,0,0,0,0,0,0,0,-1,1280,1597,0,0
63,-573,0,0,0,0,0,0,0,0,0,-1,1287,1597,0,0
70,-573,0,0,0,0,0,0,0,0,0,-1,1294,1597,0,0
77,-573,0,0,0,0,0,0,0,0,0,-1,1301,1597,0,0
84,-573,0,0,0,0,0,0,0,0,0,-1,1308,1597,0,0
91,-573,0,0,0,0,0,0,0,0,0,-1,1315,1597,0,0
98,-573,0,0,0,0,0,0,0,0,0,-1,1322,1597,0,0
105,-573,0,0,0,0,0,0,0,0,0,-1,1329,1597,0,0
112,-573,0,0,0,0,0,0,0,0,0,-1,1336,1597,0,0
119,-573,0,0,0,0,0,0,0,0,0,-1,1343,1597,0,0
126,-573,0,0,0,0,0,0,0,0,0,-1,1350,1597,0,0
133,-573,0,0,0,0,0,0,0,0,0,-1,1357,1597,0,0
140,-573,0,0,0,0,0,0,0,0,0,-1,1364,1597,0,0
147,-573,0,0,0,0,0,0,0,0,0,-1,1371,1597,0,0
154,-573,0,0,0,0,0,0,0,0,0,-1,1378,1597,0,0
161,-573,0,0,0,0,0,0,0,0,0,-1,1385,1597,0,0
168,-573,0,0,0,0,0,0,0,0,0,-1,1392,1597,0,0
175,-573,0,0,0,0,0,0,0,0,0,-1,1399,1597,0,0
182,-573,0,0,0,0,0,0,0,0,0,-1,1406,1597,0,0
189,-573,0,0,0,0,0,0,0,0,0,-1,1413,1597,0,0
196,-573,0,0,0,0,0,0,0,0,0,-1,1420,1597,0,0
203,-573,0,0,0,0,0,0,0,0,0,-1,1427,1597,0,0
210,-573,0,0,0,0,0,0,0,0,0,-1,1434,1597,0,0
217,-573,0,0,0,0,0,0,0,0,0,-1,1441,1597,0,0
224,-573,0,0,0,0,0,0,0,0,0,-1,1448,1597,0,0
231,-573,0,0,0,0,0,0,0,0,0,-1,1455,1597,0,0
238,-573,0,0,0,0,0,0,0,0,0,-1,1462,1597,0,0
245,-573,0,0,0,0,0,0,0,0,0,-1,1469,1597,0,0
252,-573,0,0,0,0,0,0,0,0,0,-1,1476,1597,0,0
259,-573,0,0,0,0,0,0,0,0,0,-1,1483,1597,0,0
266,-573,0,0,0,0,0,0,0,0,0,-1,1490,1597,0,0
273,-573,0,0,0,0,0,0,0,0,0,-1,1497,1597,0,0
280,-573,0,0,0,0,0,0,0,0,0,-1,1504,1597,0,0
287,-573,0,0,0,0,0,0,0,0,0,-1,1511,1597,0,0
294,-573,0,0,0,0,0,0,0,0,0,-1,1518,1597,0,0
301,-573,0,0,0,0,0,0,0,0,0,-1,1525,1597,0,0
308,-573,5.93042,9.71143,0,0,0,0,0,0,0,-1,1532,1597,5.93046,-9.71144
315,-573,4.34204,11.719,0,0,0,0,0,0,0,-1,1539,1597,4.34205,-11.719
322,-573,10.3269,7.77563,0,0,0,0,0,0,0,-1,1546,1597,10.327,-7.77565
329,-573,4.99573,3.80273,0,0,0,0,0,0,0,-1,1553,1597,4.9957,-3.80273
336,-573,4.85693,2.53455,0,0,0,0,0,0,0,-1,1560,1597,4.8569,-2.53459
343,-573,21.4159,52.1832,0,0,0,0,0,0,0,-1,1567,1597,21.4159,-52.1833
350,-573,24.5242,53.5112,0,0,0,0,0,0,0,-1,1574,1597,24.5242,-53.5112
357,-573,23.7375,52.9818,-0.0488307,-0.181844,0.0611917,-0.0249628,-0.205712,0.371901,0.129624,0.0477156,1581,1597,23.7376,-52.9818
364,-573,22.9738,52.4512,-0.0456174,-0.158344,0.0583614,-0.0208457,-0.183115,0.401407,0.115756,0.0482317,1588,1597,22.9738,-52.4511
371,-573,22.2067,51.9435,0,0,0,0,0,0,0,-1,1595,1597,22.2066,-51.9435
378,-573,22.1105,55.1304,0,0,0,0,0,0,0,-1,1602,1597,22.1104,-55.1304
385,-573,6.54346,-0.951904,0,0,0,0,0,0,0,-1,1609,1597,6.54349,0.951901
392,-573,17.5164,38.3645,0,0,0,0,0,0,0,-1,1616,1597,17.5164,-38.3645
399,-573,20.5255,42.9893,0,0,0,0,0,0,0,-1,1623,1597,20.5255,-42.9893
406,-573,22.5132,48.6315,0,0,0,0,0,0,0,-1,1630,1597,22.5132,-48.6315
413,-573,19.0908,43.9061,0,0,0,0,0,0,0,-1,1637,1597,19.0908,-43.9062
420,-573,18.8063,37.0011,0,0,0,0,0,0,0,-1,1644,1597,18.8063,-37.0011
427,-573,20.4286,42.2079,0,0,0,0,0,0,0,-1,1651,1597,20.4285,-42.2079
434,-573,22.4844,50.298,0,0,0,0,0,0,0,-1,1658,1597,22.4844,-50.298
441,-573,22.1067,49.2388,0,0,0,0,0,0,0,-1,1665,1597,22.1067,-49.2387
448,-573,22.2137,48.0665,0,0,0,0,0,0,0,-1,1672,1597,22.2138,-48.0665
455,-573,22.1814,47.2041,0.00620199,0.00715585,-0.00340744,0.0101196,0.00323827,-0.85493,0.00596741,0.0393052,1679,1597,22.1814,-47.204
462,-573,22.2419,46.1987,0.00604908,0.00642123,-0.00323382,0.00947432,0.00299599,-0.814137,0.00559181,0.0244749,1686,1597,22.242,-46.1987
469,-573,22.2007,45.391,0.00554932,0.00577959,-0.00306739,0.008734,0.00259491,-0.804157,0.00517912,0.0155706,1693,1597,22.2007,-45.391
476,-573,22.1788,44.616,0.00475067,0.00487881,-0.00285106,0.00766652,0.00196296,-0.796633,0.00459853,0.0142209,1700,1597,22.1788,-44.6159
483,-573,22.1736,43.8265,0.00385489,0.00386272,-0.00248964,0.00634844,0.00136916,-0.786185,0.00385776,0.0141691,1707,1597,22.1735,-43.8266
490,-573,22.1066,43.0001,0.00292499,0.00290721,-0.00200669,0.00492281,0.000909387,-0.783183,0.00302466,0.0159467,1714,1597,22.1066,-43.0001
497,-573,22.0695,42.1863,0.00200494,0.00208103,-0.00155421,0.00359766,0.000488314,-0.797635,0.00225337,0.0241836,1721,1597,22.0695,-42.1863
504,-573,22.0416,41.4237,0.00119738,0.00134179,-0.0011341,0.00240599,0.000133185,-0.817189,0.00156149,0.0208318,1728,1597,22.0416,-41.4237
511,-573,21.9913,40.5989,0.000413689,0.000623724,-0.000699465,0.00122601,-0.000188598,-0.859912,0.000886916,0.0200258,1735,1597,21.9913,-40.5989
518,-573,21.9156,39.796,-0.000299053,-2.19625e-05,-0.000345093,0.000211358,-0.000532373,-0.976286,0.000442525,0.0145001,1742,1597,21.9157,-39.7961
525,-573,21.8687,38.964,-0.000886984,-0.00062466,-1.88248e-05,-0.000623316,-0.000888328,-1.49952,0.000526599,0.0168565,1749,1597,21.8687,-38.964
532,-573,21.8428,38.1074,-0.00126186,-0.00111278,0.000239672,-0.000936324,-0.00143832,0.936161,0.000842938,0.01754,1756,1597,21.8428,-38.1074
539,-573,21.7262,37.2795,-0.00147442,-0.00167565,0.000468669,-0.00109569,-0.00205438,0.67966,0.00118698,0.0334852,1763,1597,21.7262,-37.2796
546,-573,21.8983,36.2778,0,0,0,0,0,0,0,-1,1770,1597,21.8983,-36.2779
553,-573,21.5205,35.8506,0,0,0,0,0,0,0,-1,1777,1597,21.5205,-35.8506
560,-573,21.1051,35.1921,0,0,0,0,0,0,0,-1,1784,1597,21.1051,-35.1921
567,-573,19.8645,28.3368,0,0,0,0,0,0,0,-1,1791,1597,19.8645,-28.3368
574,-573,0.83374,5.7041,0,0,0,0,0,0,0,-1,1798,1597,0.833718,-5.70405
581,-573,-0.224854,7.41602,0,0,0,0,0,0,0,-1,1805,1597,-0.224904,-7.41596
588,-573,-0.134033,7.67065,0,0,0,0,0,0,0,-1,1812,1597,-0.134037,-7.67063
595,-573,-0.0825195,8.35083,0,0,0,0,0,0,0,-1,1819,1597,-0.0824684,-8.35088
602,-573,0,0,0,0,0,0,0,0,0,-1,1826,1597,0,0
609,-573,0,0,0,0,0,0,0,0,0,-1,1833,1597,0,0
616,-573,0,0,0,0,0,0,0,0,0,-1,1840,1597,0,0
623,-573,0,0,0,0,0,0,0,0,0,-1,1847,1597,0,0
630,-573,0,0,0,0,0,0,0,0,0,-1,1854,1597,0,0
637,-573,0,0,0,0,0,0,0,0,0,-1,1861,1597,0,0
644,-573,0,0,0,0,0,0,0,0,0,-1,1868,1597,0,0
651,-573,0,0,0,0,0,0,0,0,0,-1,1875,1597,0,0
658,-573,0,0,0,0,0,0,0,0,0,-1,1882,1597,0,0
665,-573,0,0,0,0,0,0,0,0,0,-1,1889,1597,0,0
672,-573,0,0,0,0,0,0,0,0,0,-1,1896,1597,0,0
679,-573,0,0,0,0,0,0,0,0,0,-1,1903,1597,0,0
686,-573,0,0,0,0,0,0,0,0,0,-1,1910,1597,0,0
693,-573,0,0,0,0,0,0,0,0,0,-1,1917,1597,0,0
700,-573,0,0,0,0,0,0,0,0,0,-1,1924,1597,0,0
707,-573,0,0,0,0,0,0,0,0,0,-1,1931,1597,0,0
714,-573,0,0,0,0,0,0,0,0,0,-1,1938,1597,0,0
721,-573,0,0,0,0,0,0,0,0,0,-1,1945,1597,0,0
728,-573,0,0,0,0,0,0,0,0,0,-1,1952,1597,0,0
735,-573,0,0,0,0,0,0,0,0,0,-1,1959,1597,0,0
742,-573,0,0,0,0,0,0,0,0,0,-1,1966,1597,0,0
749,-573,0,0,0,0,0,0,0,0,0,-1,1973,1597,0,0
756,-573,0,0,0,0,0,0,0,0,0,-1,1980,1597,0,0
763,-573,0,0,0,0,0,0,0,0,0,-1,1987,1597,0,0
770,-573,0,0,0,0,0,0,0,0,0,-1,1994,1597,0,0
777,-573,0,0,0,0,0,0,0,0,0,-1,2001,1597,0,0
784,-573,0,0,0,0,0,0,0,0,0,-1,2008,1597,0,0
791,-573,0,0,0,0,0,0,0,0,0,-1,2015,1597,0,0
798,-573,0,0,0,0,0,0,0,0,0,-1,2022,1597,0,0
805,-573,0,0,0,0,0,0,0,0,0,-1,2029,1597,0,0
812,-573,0,0,0,0,0,0,0,0,0,-1,2036,1597,0,0
-700,-580,0,0,0,0,0,0,0,0,0,-1,524,1604,0,0
-693,-580,0,0,0,0,0,0,0,0,0,-1,531,1604,0,0
-686,-580,0,0,0,0,0,0,0,0,0,-1,538,1604,0,0
-679,-580,0,0,0,0,0,0,0,0,0,-1,545,1604,0,0
-672,-580,0,0,0,0,0,0,0,0,0,-1,552,1604,0,0
-665,-580,0,0,0,0,0,0,0,0,0,-1,559,1604,0,0
-658,-580,0,0,0,0,0,0,0,0,0,-1,566,1604,0,0
-651,-580,0,0,0,0,0,0,0,0,0,-1,573,1604,0,0
-644,-580,0,0,0,0,0,0,0,0,0,-1,580,1604,0,0
-637,-580,0,0,0,0,0,0,0,0,0,-1,587,1604,0,0
-630,-580,0,0,0,0,0,0,0,0,0,-1,594,1604,0,0
-623,-580,0,0,0,0,0,0,0,0,0,-1,601,1604,0,0
-616,-580,0,0,0,0,0,0,0,0,0,-1,608,1604,0,0
-609,-580,0,0,0,0,0,0,0,0,0,-1,615,1604,0,0
-602,-580,0,0,0,0,0,0,0,0,0,-1,622,1604,0,0
-595,-580,0,0,0,0,0,0,0,0,0,-1,629,1604,0,0
-588,-580,0,0,0,0,0,0,0,0,0,-1,636,1604,0,0
-581,-580,0,0,0,0,0,0,0,0,0,-1,643,1604,0,0
-574,-580,0,0,0,0,0,0,0,0,0,-1,650,1604,0,0
-567,-580,0,0,0,0,0,0,0,0,0,-1,657,1604,0,0
-560,-580,0,0,0,0,0,0,0,0,0,-1,664,1604,0,0
-553,-580,0,0,0,0,0,0,0,0,0,-1,671,1604,0,0
-546,-580,0,0,0,0,0,0,0,0,0,-1,678,1604,0,0
-539,-580,0,0,0,0,0,0,0,0,0,-1,685,1604,0,0
-532,-580,0,0,0,0,0,0,0,0,0,-1,692,1604,0,0
-525,-580,0,0,0,0,0,0,0,0,0,-1,699,1604,0,0
-518,-580,0,0,0,0,0,0,0,0,0,-1,706,1604,0,0
-511,-580,0,0,0,0,0,0,0,0,0,-1,713,1604,0,0
-504,-580,0,0,0,0,0,0,0,0,0,-1,720,1604,0,0
-497,-580,0,0,0,0,0,0,0,0,0,-1,727,1604,0,0
-490,-580,0,0,0,0,0,0,0,0,0,-1,734,1604,0,0
-483,-580,0,0,0,0,0,0,0,0,0,-1,741,1604,0,0
-476,-580,0,0,0,0,0,0,0,0,0,-1,748,1604,0,0
-469,-580,-1.69189,-0.38916,0,0,0,0,0,0,0,-1,755,1604,-1.69192,0.389188
-462,-580,-0.859863,0.675293,0,0,0,0,0,0,0,-1,762,1604,-0.859834,-0.675245
-455,-580,-0.730164,0.651978,0,0,0,0,0,0,0,-1,769,1604,-0.730153,-0.651957
-448,-580,-3.31891,2.07544,0,0,0,0,0,0,0,-1,776,1604,-3.3189,-2.07539
-441,-580,-1.63843,3.9469,0,0,0,0,0,0,0,-1,783,1604,-1.63842,-3.94695
-434,-580,0.23291,5.97876,0,0,0,0,0,0,0,-1,790,1604,0.232901,-5.97878
-427,-580,1.62756,8.05493,0,0,0,0,0,0,0,-1,797,1604,1.62758,-8.05488
-420,-580,0.986572,11.2383,0,0,0,0,0,0,0,-1,804,1604,0.986544,-11.2382
-413,-580,0.922913,21.5701,0,0,0,0,0,0,0,-1,811,1604,0.922905,-21.5701
-406,-580,-3.00854,38.0941,0,0,0,0,0,0,0,-1,818,1604,-3.00852,-38.0941
-399,-580,-3.25049,39.0201,0,0,0,0,0,0,0,-1,825,1604,-3.25051,-39.0201
-392,-580,-3.24164,39.9666,0.000888789,0.001107,0.00266646,0.00366658,-0.00167079,0.805846,0.00315253,0.0275658,832,1604,-3.24162,-39.9665
-385,-580,-3.28632,40.8234,0.000995887,0.000987703,0.00250519,0.00349699,-0.0015134,0.784581,0.00296735,0.0133297,839,1604,-3.28634,-40.8234
-378,-580,-3.32922,41.6853,0.00113605,0.00102689,0.0023591,0.0034412,-0.00127826,0.773832,0.00281855,0.0151206,846,1604,-3.32919,-41.6854
-371,-580,-3.36353,42.5394,0.00115611,0.000711666,0.00188056,0.00282753,-0.000959758,0.726587,0.0022735,0.0143294,853,1604,-3.36353,-42.5395
-364,-580,-3.41266,43.3125,0.00125301,0.000617708,0.00153967,0.00250746,-0.000636738,0.68367,0.00191942,0.0197388,860,1604,-3.41267,-43.3125
-357,-580,-3.45892,44.0978,0.00155478,0.000716874,0.00133686,0.0025368,-0.000265138,0.633551,0.00178615,0.014624,867,1604,-3.4589,-44.0978
-350,-580,-3.51764,44.9445,0.00208606,0.000969375,0.00130884,0.00295068,0.00010476,0.583788,0.00193314,0.0118202,874,1604,-3.51762,-44.9445
-343,-580,-3.55017,45.7596,0.00269929,0.00144696,0.00148457,0.00368434,0.00046191,0.585827,0.00231765,0.0121066,881,1604,-3.55014,-45.7597
-336,-580,-3.5799,46.5223,0.00335111,0.00233584,0.00186344,0.00477482,0.000912129,0.652417,0.00292693,0.0208127,888,1604,-3.57988,-46.5223
-329,-580,-3.61047,47.3783,0.00422732,0.00325894,0.00237441,0.0061664,0.00131985,0.684817,0.00374924,0.0192892,895,1604,-3.61045,-47.3783
-322,-580,-3.65997,48.2075,0.00550761,0.00453001,0.00320419,0.00826007,0.00177755,0.709706,0.00502022,0.0216163,902,1604,-3.65996,-48.2076
-315,-580,-3.64032,48.9786,0.00709592,0.00597409,0.00458399,0.0111532,0.00191683,0.724519,0.00688603,0.0262311,909,1604,-3.64035,-48.9787
-308,-580,-3.57605,49.9901,0.00878347,0.00750831,0.00644029,0.0146177,0.00167412,0.73606,0.00923777,0.0426379,916,1604,-3.57604,-49.9902
-301,-580,-3.51373,50.6595,0.0110589,0.00880303,0.00846153,0.0184673,0.00139458,0.719139,0.011874,0.0410307,923,1604,-3.51371,-50.6595
-294,-580,-3.60339,51.4299,0,0,0,0,0,0,0,-1,930,1604,-3.60337,-51.4299
-287,-580,-3.40948,52.8193,0,0,0,0,0,0,0,-1,937,1604,-3.40947,-52.8194
-280,-580,-2.74774,52.328,0,0,0,0,0,0,0,-1,944,1604,-2.74776,-52.328
-273,-580,-2.96637,52.8284,0,0,0,0,0,0,0,-1,951,1604,-2.96637,-52.8283
-266,-580,-1.22644,48.4485,0,0,0,0,0,0,0,-1,958,1604,-1.22644,-48.4485
-259,-580,1.31091,9.11536,0,0,0,0,0,0,0,-1,965,1604,1.31092,-9.11539
-252,-580,1.07629,7.74097,0,0,0,0,0,0,0,-1,972,1604,1.07627,-7.74101
-245,-580,3.80304,9.16028,0,0,0,0,0,0,0,-1,979,1604,3.80306,-9.16034
-238,-580,-10.3588,1.57556,0,0,0,0,0,0,0,-1,986,1604,-10.3588,-1.5755
-231,-580,-10.576,6.43787,0,0,0,0,0,0,0,-1,993,1604,-10.576,-6.43783
-224,-580,-8.27435,7.58972,0,0,0,0,0,0,0,-1,1000,1604,-8.27435,-7.5897
-217,-580,-5.85632,9.51221,0,0,0,0,0,0,0,-1,1007,1604,-5.85632,-9.5122
-210,-580,-3.6684,11.1569,0,0,0,0,0,0,0,-1,1014,1604,-3.66839,-11.1569
-203,-580,-1.92474,12.7845,0,0,0,0,0,0,0,-1,1021,1604,-1.92477,-12.7845
-196,-580,-2.28552,10.3289,0,0,0,0,0,0,0,-1,1028,1604,-2.28552,-10.3288
-189,-580,-4.58252,7.59058,0,0,0,0,0,0,0,-1,1035,1604,-4.58256,-7.59057
-182,-580,-5.45874,7.65942,0,0,0,0,0,0,0,-1,1042,1604,-5.45876,-7.65939
-175,-580,-6.38977,7.55005,0,0,0,0,0,0,0,-1,1049,1604,-6.38981,-7.5501
-168,-580,0,0,0,0,0,0,0,0,0,-1,1056,1604,0,0
-161,-580,0,0,0,0,0,0,0,0,0,-1,1063,1604,0,0
-154,-580,0,0,0,0,0,0,0,0,0,-1,1070,1604,0,0
-147,-580,0,0,0,0,0,0,0,0,0,-1,1077,1604,0,0
-140,-580,0,0,0,0,0,0,0,0,0,-1,1084,1604,0,0
-133,-580,0,0,0,0,0,0,0,0,0,-1,1091,1604,0,0
-126,-580,0,0,0,0,0,0,0,0,0,-1,1098,1604,0,0
-119,-580,0,0,0,0,0,0,0,0,0,-1,1105,1604,0,0
-112,-580,0,0,0,0,0,0,0,0,0,-1,1112,1604,0,0
-105,-580,0,0,0,0,0,0,0,0,0,-1,1119,1604,0,0
-98,-580,0,0,0,0,0,0,0,0,0,-1,1126,1604,0,0
-91,-580,0,0,0,0,0,0,0,0,0,-1,1133,1604,0,0
-84,-580,0,0,0,0,0,0,0,0,0,-1,1140,1604,0,0
-77,-580,0,0,0,0,0,0,0,0,0,-1,1147,1604,0,0
-70,-580,0,0,0,0,0,0,0,0,0,-1,1154,1604,0,0
-63,-580,0,0,0,0,0,0,0,0,0,-1,1161,1604,0,0
-56,-580,0,0,0,0,0,0,0,0,0,-1,1168,1604,0,0
-49,-580,0,0,0,0,0,0,0,0,0,-1,1175,1604,0,0
-42,-580,0,0,0,0,0,0,0,0,0,-1,1182,1604,0,0
-35,-580,0,0,0,0,0,0,0,0,0,-1,1189,1604,0,0
-28,-580,0,0,0,0,0,0,0,0,0,-1,1196,1604,0,0
-21,-580,0,0,0,0,0,0,0,0,0,-1,1203,1604,0,0
-14,-580,0,0,0,0,0,0,0,0,0,-1,1210,1604,0,0
-7,-580,0,0,0,0,0,0,0,0,0,-1,1217,1604,0,0
0,-580,0,0,0,0,0,0,0,0,0,-1,1224,1604,0,0
7,-580,0,0,0,0,0,0,0,0,0,-1,1231,1604,0,0
14,-580,0,0,0,0,0,0,0,0,0,-1,1238,1604,0,0
21,-580,0,0,0,0,0,0,0,0,0,-1,1245,1604,0,0
28,-580,0,0,0,0,0,0,0,0,0,-1,1252,1604,0,0
35,-580,0,0,0,0,0,0,0,0,0,-1,1259,1604,0,0
42,-580,0,0,0,0,0,0,0,0,0,-1,1266,1604,0,0
49,-580,0,0,0,0,0,0,0,0,0,-1,1273,1604,0,0
56,-580,0,0,0,0,0,0,0,0,0,-1,1280,1604,0,0
63,-580,0,0,0,0,0,0,0,0,0,-1,1287,1604,0,0
70,-580,0,0,0,0,0,0,0,0,0,-1,1294,1604,0,0
77,-580,0,0,0,0,0,0,0,0,0,-1,1301,1604,0,0
84,-580,0,0,0,0,0,0,0,0,0,-1,1308,1604,0,0
91,-580,0,0,0,0,0,0,0,0,0,-1,1315,1604,0,0
98,-580,0,0,0,0,0,0,0,0,0,-1,1322,1604,0,0
105,-580,0,0,0,0,0,0,0,0,0,-1,1329,1604,0,0
112,-580,0,0,0,0,0,0,0,0,0,-1,1336,1604,0,0
119,-580,0,0,0,0,0,0,0,0,0,-1,1343,1604,0,0
126,-580,0,0,0,0,0,0,0,0,0,-1,1350,1604,0,0
133,-580,0,0,0,0,0,0,0,0,0,-1,1357,1604,0,0
140,-580,0,0,0,0,0,0,0,0,0,-1,1364,1604,0,0
147,-580,0,0,0,0,0,0,0,0,0,-1,1371,1604,0,0
154,-580,0,0,0,0,0,0,0,0,0,-1,1378,1604,0,0
161,-580,0,0,0,0,0,0,0,0,0,-1,1385,1604,0,0
168,-580,0,0,0,0,0,0,0,0,0,-1,1392,1604,0,0
175,-580,0,0,0,0,0,0,0,0,0,-1,1399,1604,0,0
182,-580,0,0,0,0,0,0,0,0,0,-1,1406,1604,0,0
189,-580,0,0,0,0,0,0,0,0,0,-1,1413,1604,0,0
196,-580,0,0,0,0,0,0,0,0,0,-1,1420,1604,0,0
203,-580,0,0,0,0,0,0,0,0,0,-1,1427,1604,0,0
210,-580,0,0,0,0,0,0,0,0,0,-1,1434,1604,0,0
217,-580,0,0,0,0,0,0,0,0,0,-1,1441,1604,0,0
224,-580,0,0,0,0,0,0,0,0,0,-1,1448,1604,0,0
231,-580,0,0,0,0,0,0,0,0,0,-1,1455,1604,0,0
238,-580,0,0,0,0,0,0,0,0,0,-1,1462,1604,0,0
245,-580,0,0,0,0,0,0,0,0,0,-1,1469,1604,0,0
252,-580,0,0,0,0,0,0,0,0,0,-1,1476,1604,0,0
259,-580,0,0,0,0,0,0,0,0,0,-1,1483,1604,0,0
266,-580,0,0,0,0,0,0,0,0,0,-1,1490,1604,0,0
273,-580,0,0,0,0,0,0,0,0,0,-1,1497,1604,0,0
280,-580,0,0,0,0,0,0,0,0,0,-1,1504,1604,0,0
287,-580,0,0,0,0,0,0,0,0,0,-1,1511,1604,0,0
294,-580,4.0437,0.177368,0,0,0,0,0,0,0,-1,1518,1604,4.04369,-0.177371
301,-580,7.55164,8.05798,0,0,0,0,0,0,0,-1,1525,1604,7.55158,-8.05802
308,-580,5.9126,9.99341,0,0,0,0,0,0,0,-1,1532,1604,5.91255,-9.99337
315,-580,4.27356,11.9287,0,0,0,0,0,0,0,-1,1539,1604,4.27352,-11.9287
322,-580,10.2366,7.50281,0,0,0,0,0,0,0,-1,1546,1604,10.2366,-7.50282
329,-580,10.5962,8.69641,0,0,0,0,0,0,0,-1,1553,1604,10.5962,-8.69642
336,-580,3.66431,1.58862,0,0,0,0,0,0,0,-1,1560,1604,3.6643,-1.58864
343,-580,19.0659,51.8346,0,0,0,0,0,0,0,-1,1567,1604,19.0659,-51.8346
350,-580,22.8734,54.9255,0,0,0,0,0,0,0,-1,1574,1604,22.8734,-54.9255
357,-580,22.1614,54.3809,-0.0223938,-0.160295,0.0440025,-0.00954948,-0.173139,0.284008,0.112378,0.0435625,1581,1604,22.1614,-54.3809
364,-580,21.4701,53.8442,-0.0189557,-0.137486,0.0413969,-0.00592935,-0.150512,0.30486,0.0984246,0.0479563,1588,1604,21.4701,-53.8442
371,-580,22.1991,54.8005,0,0,0,0,0,0,0,-1,1595,1604,22.1991,-54.8005
378,-580,23.1404,53.2659,0,0,0,0,0,0,0,-1,1602,1604,23.1404,-53.2659
385,-580,18.6182,47.5352,0,0,0,0,0,0,0,-1,1609,1604,18.6181,-47.5352
392,-580,19.1388,46.7451,0,0,0,0,0,0,0,-1,1616,1604,19.1388,-46.7452
399,-580,21.1744,50.241,0,0,0,0,0,0,0,-1,1623,1604,21.1744,-50.241
406,-580,21.7869,52.526,0,0,0,0,0,0,0,-1,1630,1604,21.7868,-52.526
413,-580,21.6279,51.3054,0,0,0,0,0,0,0,-1,1637,1604,21.6279,-51.3054
420,-580,21.4386,50.86,0,0,0,0,0,0,0,-1,1644,1604,21.4386,-50.8599
427,-580,21.542,50.4001,0,0,0,0,0,0,0,-1,1651,1604,21.542,-50.4001
434,-580,21.694,49.6525,0,0,0,0,0,0,0,-1,1658,1604,21.694,-49.6525
441,-580,21.397,48.7031,0.00484803,0.00679365,-0.00148075,0.00759256,0.00404912,-1.07603,0.00438681,0.0283434,1665,1604,21.397,-48.7031
448,-580,21.4657,47.8069,0.00490915,0.00597244,-0.00214891,0.0076545,0.00322709,-0.906663,0.0044374,0.0202751,1672,1604,21.4657,-47.8069
455,-580,21.5264,47.0422,0.00467182,0.00520686,-0.0024048,0.00735898,0.00251971,-0.840793,0.00431849,0.0222184,1679,1604,21.5264,-47.0422
462,-580,21.4609,46.2312,0.00454295,0.00461594,-0.00236588,0.00694561,0.00221328,-0.79311,0.00409702,0.0245492,1686,1604,21.4609,-46.2312
469,-580,21.3842,45.4279,0.00416553,0.00416885,-0.00233242,0.00649961,0.00183477,-0.785753,0.00386931,0.0210209,1693,1604,21.3841,-45.4279
476,-580,21.3612,44.6464,0.00351641,0.00347237,-0.00220136,0.00569586,0.00129293,-0.780397,0.00344804,0.0151931,1700,1604,21.3612,-44.6463
483,-580,21.3361,43.8718,0.00277789,0.00261632,-0.00196211,0.00466088,0.000733334,-0.764824,0.00289394,0.0143381,1707,1604,21.336,-43.8718
490,-580,21.2637,43.0859,0.00197846,0.00184246,-0.00159929,0.0035112,0.000309725,-0.764151,0.00224469,0.0199328,1714,1604,21.2637,-43.0859
497,-580,21.2202,42.2582,0.00117853,0.00118973,-0.00125559,0.00243974,-7.14727e-05,-0.787627,0.00165083,0.0156945,1721,1604,21.2202,-42.2581
504,-580,21.1847,41.4631,0.000439679,0.000525063,-0.000883099,0.0013665,-0.00040176,-0.809551,0.00107036,0.0179387,1728,1604,21.1847,-41.4631
511,-580,21.1578,40.6744,-0.000284802,-8.64493e-05,-0.000500403,0.000324511,-0.000695762,-0.883227,0.000601913,0.0176795,1735,1604,21.1578,-40.6744
518,-580,21.0883,39.8524,-0.000972562,-0.000708787,-0.000145618,-0.000644209,-0.00103714,-1.15338,0.000604623,0.016286,1742,1604,21.0882,-39.8524
525,-580,21.0229,39.0076,-0.00157011,-0.00130044,0.000209938,-0.00118576,-0.00168478,1.07086,0.000999284,0.0188129,1749,1604,21.023,-39.0076
532,-580,20.9587,38.1891,-0.0019734,-0.00181843,0.000519928,-0.00137024,-0.00242158,0.859372,0.00140214,0.0275379,1756,1604,20.9588,-38.1891
539,-580,20.9735,37.3275,0,0,0,0,0,0,0,-1,1763,1604,20.9735,-37.3275
546,-580,21.1232,36.8827,0,0,0,0,0,0,0,-1,1770,1604,21.1232,-36.8827
553,-580,17.1749,26.6359,0,0,0,0,0,0,0,-1,1777,1604,17.1749,-26.6358
560,-580,18.9662,29.0388,0,0,0,0,0,0,0,-1,1784,1604,18.9661,-29.0389
567,-580,3.87708,4.0647,0,0,0,0,0,0,0,-1,1791,1604,3.87711,-4.06471
574,-580,2.31653,5.62952,0,0,0,0,0,0,0,-1,1798,1604,2.31654,-5.62947
581,-580,1.60876,6.67664,0,0,0,0,0,0,0,-1,1805,1604,1.60873,-6.67667
588,-580,1.38684,7.14441,0,0,0,0,0,0,0,-1,1812,1604,1.38689,-7.14443
595,-580,0,0,0,0,0,0,0,0,0,-1,1819,1604,0,0
602,-580,0,0,0,0,0,0,0,0,0,-1,1826,1604,0,0
609,-580,0,0,0,0,0,0,0,0,0,-1,1833,1604,0,0
616,-580,0,0,0,0,0,0,0,0,0,-1,1840,1604,0,0
623,-580,0,0,0,0,0,0,0,0,0,-1,1847,1604,0,0
630,-580,0,0,0,0,0,0,0,0,0,-1,1854,1604,0,0
637,-580,0,0,0,0,0,0,0,0,0,-1,1861,1604,0,0
644,-580,0,0,0,0,0,0,0,0,0,-1,1868,1604,0,0
651,-580,0,0,0,0,0,0,0,0,0,-1,1875,1604,0,0
658,-580,0,0,0,0,0,0,0,0,0,-1,1882,1604,0,0
665,-580,0,0,0,0,0,0,0,0,0,-1,1889,1604,0,0
672,-580,0,0,0,0,0,0,0,0,0,-1,1896,1604,0,0
679,-580,0,0,0,0,0,0,0,0,0,-1,1903,1604,0,0
686,-580,0,0,0,0,0,0,0,0,0,-1,1910,1604,0,0
693,-580,0,0,0,0,0,0,0,0,0,-1,1917,1604,0,0
700,-580,0,0,0,0,0,0,0,0,0,-1,1924,1604,0,0
707,-580,0,0,0,0,0,0,0,0,0,-1,1931,1604,0,0
714,-580,0,0,0,0,0,0,0,0,0,-1,1938,1604,0,0
721,-580,0,0,0,0,0,0,0,0,0,-1,1945,1604,0,0
728,-580,0,0,0,0,0,0,0,0,0,-1,1952,1604,0,0
735,-580,0,0,0,0,0,0,0,0,0,-1,1959,1604,0,0
742,-580,0,0,0,0,0,0,0,0,0,-1,1966,1604,0,0
749,-580,0,0,0,0,0,0,0,0,0,-1,1973,1604,0,0
756,-580,0,0,0,0,0,0,0,0,0,-1,1980,1604,0,0
763,-580,0,0,0,0,0,0,0,0,0,-1,1987,1604,0,0
770,-580,0,0,0,0,0,0,0,0,0,-1,1994,1604,0,0
777,-580,0,0,0,0,0,0,0,0,0,-1,2001,1604,0,0
784,-580,0,0,0,0,0,0,0,0,0,-1,2008,1604,0,0
791,-580,0,0,0,0,0,0,0,0,0,-1,2015,1604,0,0
798,-580,0,0,0,0,0,0,0,0,0,-1,2022,1604,0,0
805,-580,0,0,0,0,0,0,0,0,0,-1,2029,1604,0,0
812,-580,0,0,0,0,0,0,0,0,0,-1,2036,1604,0,0
-700,-587,0,0,0,0,0,0,0,0,0,-1,524,1611,0,0
-693,-587,0,0,0,0,0,0,0,0,0,-1,531,1611,0,0
-686,-587,0,0,0,0,0,0,0,0,0,-1,538,1611,0,0
-679,-587,0,0,0,0,0,0,0,0,0,-1,545,1611,0,0
-672,-587,0,0,0,0,0,0,0,0,0,-1,552,1611,0,0
-665,-587,0,0,0,0,0,0,0,0,0,-1,559,1611,0,0
-658,-587,0,0,0,0,0,0,0,0,0,-1,566,1611,0,0
-651,-587,0,0,0,0,0,0,0,0,0,-1,573,1611,0,0
-644,-587,0,0,0,0,0,0,0,0,0,-1,580,1611,0,0
-637,-587,0,0,0,0,0,0,0,0,0,-1,587,1611,0,0
-630,-587,0,0,0,0,0,0,0,0,0,-1,594,1611,0,0
-623,-587,0,0,0,0,0,0,0,0,0,-1,601,1611,0,0
-616,-587,0,0,0,0,0,0,0,0,0,-1,608,1611,0,0
-609,-587,0,0,0,0,0,0,0,0,0,-1,615,1611,0,0
-602,-587,0,0,0,0,0,0,0,0,0,-1,622,1611,0,0
-595,-587,0,0,0,0,0,0,0,0,0,-1,629,1611,0,0
-588,-587,0,0,0,0,0,0,0,0,0,-1,636,1611,0,0
-581,-587,0,0,0,0,0,0,0,0,0,-1,643,1611,0,0
-574,-587,0,0,0,0,0,0,0,0,0,-1,650,1611,0,0
-567,-587,0,0,0,0,0,0,0,0,0,-1,657,1611,0,0
-560,-587,0,0,0,0,0,0,0,0,0,-1,664,1611,0,0
-553,-587,0,0,0,0,0,0,0,0,0,-1,671,1611,0,0
-546,-587,0,0,0,0,0,0,0,0,0,-1,678,1611,0,0
-539,-587,0,0,0,0,0,0,0,0,0,-1,685,1611,0,0
-532,-587,0,0,0,0,0,0,0,0,0,-1,692,1611,0,0
-525,-587,0,0,0,0,0,0,0,0,0,-1,699,1611,0,0
-518,-587,0,0,0,0,0,0,0,0,0,-1,706,1611,0,0
-511,-587,0,0,0,0,0,0,0,0,0,-1,713,1611,0,0
-504,-587,0,0,0,0,0,0,0,0,0,-1,720,1611,0,0
-497,-587,0,0,0,0,0,0,0,0,0,-1,727,1611,0,0
-490,-587,0,0,0,0,0,0,0,0,0,-1,734,1611,0,0
-483,-587,0,0,0,0,0,0,0,0,0,-1,741,1611,0,0
-476,-587,0,0,0,0,0,0,0,0,0,-1,748,1611,0,0
-469,-587,0,0,0,0,0,0,0,0,0,-1,755,1611,0,0
-462,-587,-0.714355,-0.418457,0,0,0,0,0,0,0,-1,762,1611,-0.714359,0.418483
-455,-587,-0.619812,-0.522461,0,0,0,0,0,0,0,-1,769,1611,-0.619802,0.522515
-448,-587,-0.461731,-0.686523,0,0,0,0,0,0,0,-1,776,1611,-0.461739,0.686559
-441,-587,-3.56555,2.72253,0,0,0,0,0,0,0,-1,783,1611,-3.56555,-2.72259
-434,-587,-1.77319,4.76318,0,0,0,0,0,0,0,-1,790,1611,-1.77318,-4.76323
-427,-587,0.0346069,6.92944,0,0,0,0,0,0,0,-1,797,1611,0.034587,-6.92941
-420,-587,-0.647156,10.1157,0,0,0,0,0,0,0,-1,804,1611,-0.647128,-10.1158
-413,-587,2.13971,10.3901,0,0,0,0,0,0,0,-1,811,1611,2.13971,-10.3902
-406,-587,2.2525,19.7814,0,0,0,0,0,0,0,-1,818,1611,2.25253,-19.7814
-399,-587,-1.7851,36.6587,0,0,0,0,0,0,0,-1,825,1611,-1.78511,-36.6587
-392,-587,-2.54425,39.8148,0,0,0,0,0,0,0,-1,832,1611,-2.54424,-39.8148
-385,-587,-2.57135,40.7664,0.0011121,0.00123451,0.00319888,0.00437278,-0.00202616,0.794964,0.00377633,0.035427,839,1611,-2.57133,-40.7663
-378,-587,-2.54736,41.7097,0.00110841,0.00119396,0.00293318,0.00408468,-0.00178231,0.792689,0.00347316,0.0142653,846,1611,-2.54738,-41.7097
-371,-587,-2.59375,42.6051,0.000976797,0.000700586,0.0022817,0.00312457,-0.00144718,0.755171,0.00269807,0.0140994,853,1611,-2.59373,-42.6051
-364,-587,-2.63495,43.4261,0.000961699,0.00046728,0.0018146,0.00254585,-0.00111687,0.717698,0.00216766,0.0184214,860,1611,-2.63496,-43.4261
-357,-587,-2.66815,44.1512,0.00114438,0.000368319,0.00147212,0.00227875,-0.000766054,0.656536,0.00182881,0.0182628,867,1611,-2.66814,-44.1512
-350,-587,-2.72455,44.9977,0.00154044,0.000465915,0.00131984,0.00242818,-0.000421821,0.592106,0.00177617,0.0112394,874,1611,-2.72453,-44.9977
-343,-587,-2.78137,45.8104,0.00203398,0.000785202,0.00135535,0.00290185,-8.26679e-05,0.569546,0.0019627,0.014112,881,1611,-2.78139,-45.8104
-336,-587,-2.8241,46.5869,0.0025682,0.00147512,0.00157339,0.00368727,0.000356045,0.618237,0.00234851,0.0136872,888,1611,-2.82409,-46.5869
-329,-587,-2.86346,47.4028,0.00325916,0.00220078,0.00189198,0.00469456,0.000765372,0.649032,0.00290835,0.0152428,895,1611,-2.86347,-47.4028
-322,-587,-2.87067,48.2053,0.00426497,0.00322342,0.00247233,0.00627078,0.00121761,0.681595,0.00383955,0.0176197,902,1611,-2.87065,-48.2053
-315,-587,-2.91028,48.9906,0.00556043,0.00437189,0.00353456,0.00855033,0.00138199,0.702111,0.00529996,0.0147411,909,1611,-2.91028,-48.9906
-308,-587,-2.93829,49.7793,0.00699955,0.00558273,0.00500314,0.0113442,0.0012381,0.715069,0.00718573,0.0156665,916,1611,-2.93831,-49.7793
-301,-587,-2.87634,50.601,0.00894159,0.00670245,0.00658696,0.0145034,0.0011406,0.701219,0.00931208,0.0174043,923,1611,-2.87637,-50.601
-294,-587,-2.80237,51.4581,0.0117755,0.00841912,0.00913022,0.0193805,0.000814123,0.694511,0.0126577,0.0286169,930,1611,-2.80235,-51.4581
-287,-587,-2.88342,52.3319,0.0150047,0.010216,0.0119879,0.024835,0.000385663,0.68683,0.0164296,0.0424952,937,1611,-2.88343,-52.3319
-280,-587,-2.73322,53.4789,0,0,0,0,0,0,0,-1,944,1611,-2.73324,-53.4789
-273,-587,-2.44904,54.0392,0,0,0,0,0,0,0,-1,951,1611,-2.44904,-54.0392
-266,-587,-1.62799,54.59,0,0,0,0,0,0,0,-1,958,1611,-1.62797,-54.5899
-259,-587,-1.53925,55.3203,0,0,0,0,0,0,0,-1,965,1611,-1.53923,-55.3203
-252,-587,1.30188,10.3103,0,0,0,0,0,0,0,-1,972,1611,1.30188,-10.3104
-245,-587,1.52075,27.4791,0,0,0,0,0,0,0,-1,979,1611,1.52076,-27.4791
-238,-587,2.87799,9.53821,0,0,0,0,0,0,0,-1,986,1611,2.87797,-9.53823
-231,-587,2.49548,9.14465,0,0,0,0,0,0,0,-1,993,1611,2.49551,-9.14468
-224,-587,-9.72528,9.21069,0,0,0,0,0,0,0,-1,1000,1611,-9.72529,-9.21072
-217,-587,-7.07495,10.7847,0,0,0,0,0,0,0,-1,1007,1611,-7.07495,-10.7847
-210,-587,-4.72308,12.5889,0,0,0,0,0,0,0,-1,1014,1611,-4.72307,-12.5888
-203,-587,-3.2583,13.7289,0,0,0,0,0,0,0,-1,1021,1611,-3.25828,-13.7289
-196,-587,-1.953,14.8145,0,0,0,0,0,0,0,-1,1028,1611,-1.95302,-14.8144
-189,-587,-3.04138,8.66638,0,0,0,0,0,0,0,-1,1035,1611,-3.04136,-8.66635
-182,-587,-3.97095,9.7146,0,0,0,0,0,0,0,-1,1042,1611,-3.97093,-9.71461
-175,-587,-4.80969,8.37878,0,0,0,0,0,0,0,-1,1049,1611,-4.80964,-8.37883
-168,-587,-5.91394,8.72546,0,0,0,0,0,0,0,-1,1056,1611,-5.91398,-8.72542
-161,-587,-7.06946,8.88501,0,0,0,0,0,0,0,-1,1063,1611,-7.06947,-8.885
-154,-587,-2.24731,6.56519,0,0,0,0,0,0,0,-1,1070,1611,-2.24728,-6.56517
-147,-587,0,0,0,0,0,0,0,0,0,-1,1077,1611,0,0
-140,-587,0,0,0,0,0,0,0,0,0,-1,1084,1611,0,0
-133,-587,0,0,0,0,0,0,0,0,0,-1,1091,1611,0,0
-126,-587,0,0,0,0,0,0,0,0,0,-1,1098,1611,0,0
-119,-587,0,0,0,0,0,0,0,0,0,-1,1105,1611,0,0
-112,-587,0,0,0,0,0,0,0,0,0,-1,1112,1611,0,0
-105,-587,0,0,0,0,0,0,0,0,0,-1,1119,1611,0,0
-98,-587,0,0,0,0,0,0,0,0,0,-1,1126,1611,0,0
-91,-587,0,0,0,0,0,0,0,0,0,-1,1133,1611,0,0
-84,-587,0,0,0,0,0,0,0,0,0,-1,1140,1611,0,0
-77,-587,0,0,0,0,0,0,0,0,0,-1,1147,1611,0,0
-70,-587,0,0,0,0,0,0,0,0,0,-1,1154,1611,0,0
-63,-587,0,0,0,0,0,0,0,0,0,-1,1161,1611,0,0
-56,-587,0,0,0,0,0,0,0,0,0,-1,1168,1611,0,0
-49,-587,0,0,0,0,0,0,0,0,0,-1,1175,1611,0,0
-42,-587,0,0,0,0,0,0,0,0,0,-1,1182,1611,0,0
-35,-587,0,0,0,0,0,0,0,0,0,-1,1189,1611,0,0
-28,-587,0,0,0,0,0,0,0,0,0,-1,1196,1611,0,0
-21,-587,0,0,0,0,0,0,0,0,0,-1,1203,1611,0,0
-14,-587,0,0,0,0,0,0,0,0,0,-1,1210,1611,0,0
-7,-587,0,0,0,0,0,0,0,0,0,-1,1217,1611,0,0
0,-587,0,0,0,0,0,0,0,0,0,-1,1224,1611,0,0
7,-587,0,0,0,0,0,0,0,0,0,-1,1231,1611,0,0
14,-587,0,0,0,0,0,0,0,0,0,-1,1238,1611,0,0
21,-587,0,0,0,0,0,0,0,0,0,-1,1245,1611,0,0
28,-587,0,0,0,0,0,0,0,0,0,-1,1252,1611,0,0
35,-587,0,0,0,0,0,0,0,0,0,-1,1259,1611,0,0
42,-587,0,0,0,0,0,0,0,0,0,-1,1266,1611,0,0
49,-587,0,0,0,0,0,0,0,0,0,-1,1273,1611,0,0
56,-587,0,0,0,0,0,0,0,0,0,-1,1280,1611,0,0
63,-587,0,0,0,0,0,0,0,0,0,-1,1287,1611,0,0
70,-587,0,0,0,0,0,0,0,0,0,-1,1294,1611,0,0
77,-587,0,0,0,0,0,0,0,0,0,-1,1301,1611,0,0
84,-587,0,0,0,0,0,0,0,0,0,-1,1308,1611,0,0
91,-587,0,0,0,0,0,0,0,0,0,-1,1315,1611,0,0
98,-587,0,0,0,0,0,0,0,0,0,-1,1322,1611,0,0
105,-587,0,0,0,0,0,0,0,0,0,-1,1329,1611,0,0
112,-587,0,0,0,0,0,0,0,0,0,-1,1336,1611,0,0
119,-587,0,0,0,0,0,0,0,0,0,-1,1343,1611,0,0
126,-587,0,0,0,0,0,0,0,0,0,-1,1350,1611,0,0
133,-587,0,0,0,0,0,0,0,0,0,-1,1357,1611,0,0
140,-587,0,0,0,0,0,0,0,0,0,-1,1364,1611,0,0
147,-587,0,0,0,0,0,0,0,0,0,-1,1371,1611,0,0
154,-587,0,0,0,0,0,0,0,0,0,-1,1378,1611,0,0
161,-587,0,0,0,0,0,0,0,0,0,-1,1385,1611,0,0
168,-587,0,0,0,0,0,0,0,0,0,-1,1392,1611,0,0
175,-587,0,0,0,0,0,0,0,0,0,-1,1399,1611,0,0
182,-587,0,0,0,0,0,0,0,0,0,-1,1406,1611,0,0
189,-587,0,0,0,0,0,0,0,0,0,-1,1413,1611,0,0
196,-587,0,0,0,0,0,0,0,0,0,-1,1420,1611,0,0
203,-587,0,0,0,0,0,0,0,0,0,-1,1427,1611,0,0
210,-587,0,0,0,0,0,0,0,0,0,-1,1434,1611,0,0
217,-587,0,0,0,0,0,0,0,0,0,-1,1441,1611,0,0
224,-587,0,0,0,0,0,0,0,0,0,-1,1448,1611,0,0
231,-587,0,0,0,0,0,0,0,0,0,-1,1455,1611,0,0
238,-587,0,0,0,0,0,0,0,0,0,-1,1462,1611,0,0
245,-587,0,0,0,0,0,0,0,0,0,-1,1469,1611,0,0
252,-587,0,0,0,0,0,0,0,0,0,-1,1476,1611,0,0
259,-587,0,0,0,0,0,0,0,0,0,-1,1483,1611,0,0
266,-587,0,0,0,0,0,0,0,0,0,-1,1490,1611,0,0
273,-587,10.2936,6.35083,0,0,0,0,0,0,0,-1,1497,1611,10.2936,-6.35087
280,-587,2.09204,1.1217,0,0,0,0,0,0,0,-1,1504,1611,2.092,-1.12176
287,-587,3.2865,0.671509,0,0,0,0,0,0,0,-1,1511,1611,3.28656,-0.671538
294,-587,4.24646,1.58765,0,0,0,0,0,0,0,-1,1518,1611,4.24648,-1.58761
301,-587,7.60474,8.37085,0,0,0,0,0,0,0,-1,1525,1611,7.60478,-8.37084
308,-587,5.99316,10.2291,0,0,0,0,0,0,0,-1,1532,1611,5.99315,-10.2291
315,-587,4.34558,12.3289,0,0,0,0,0,0,0,-1,1539,1611,4.34556,-12.3288
322,-587,10.4526,6.38245,0,0,0,0,0,0,0,-1,1546,1611,10.4526,-6.38245
329,-587,10.7738,8.42444,0,0,0,0,0,0,0,-1,1553,1611,10.7738,-8.42438
336,-587,7.5531,5.96619,0,0,0,0,0,0,0,-1,1560,1611,7.55311,-5.96617
343,-587,20.0991,54.4835,0,0,0,0,0,0,0,-1,1567,1611,20.0991,-54.4835
350,-587,21.0448,56.5502,0,0,0,0,0,0,0,-1,1574,1611,21.0448,-56.5501
357,-587,20.4718,55.9312,0,0,0,0,0,0,0,-1,1581,1611,20.4718,-55.9312
364,-587,20.3434,56.9608,0,0,0,0,0,0,0,-1,1588,1611,20.3434,-56.9608
371,-587,21.0079,55.5272,-0.0020367,-0.095414,0.0264014,0.00491107,-0.102362,0.257325,0.0699357,0.0466538,1595,1611,21.008,-55.5272
378,-587,21.7808,53.9426,0,0,0,0,0,0,0,-1,1602,1611,21.7808,-53.9427
385,-587,21.8807,54.0842,0,0,0,0,0,0,0,-1,1609,1611,21.8808,-54.0843
392,-587,21.3848,54.3462,0,0,0,0,0,0,0,-1,1616,1611,21.3847,-54.3461
399,-587,21.1411,53.2303,0,0,0,0,0,0,0,-1,1623,1611,21.1411,-53.2303
406,-587,20.983,52.5078,0.00349111,-0.0220987,0.00962573,0.00670758,-0.0253152,0.322489,0.019501,0.0467429,1630,1611,20.9831,-52.5079
413,-587,20.868,51.5513,0.00615492,-0.00807056,0.00531523,0.00792152,-0.00983717,0.32088,0.0102729,0.0357986,1637,1611,20.868,-51.5513
420,-587,20.78,50.9036,0.00752159,0.0022967,0.00190164,0.00814041,0.00167788,0.314608,0.00496311,0.0309621,1644,1611,20.78,-50.9036
427,-587,20.8114,50.2715,0.00390027,0.00537745,0.000990917,0.00587475,0.00340297,1.10566,0.00340596,0.0270437,1651,1611,20.8114,-50.2715
434,-587,20.7183,49.5352,0,0,0,0,0,0,0,-1,1658,1611,20.7183,-49.5352
441,-587,20.7366,48.5216,0.0038315,0.00507617,-0.000845034,0.0055033,0.00340437,-1.10279,0.00320699,0.0246111,1665,1611,20.7366,-48.5216
448,-587,20.7253,47.8253,0.00383488,0.00435278,-0.00149866,0.0056147,0.00257296,-0.870948,0.00324541,0.0167134,1672,1611,20.7253,-47.8253
455,-587,20.7087,47.0752,0.00358135,0.00370093,-0.00179997,0.00544211,0.00184017,-0.802002,0.00319641,0.0156801,1679,1611,20.7087,-47.0752
462,-587,20.6608,46.2876,0.00339979,0.00317825,-0.00185966,0.00515198,0.00142607,-0.755651,0.0030717,0.0205964,1686,1611,20.6607,-46.2876
469,-587,20.5952,45.5104,0.00304328,0.00281698,-0.00191205,0.00484553,0.00101473,-0.755844,0.00295085,0.0181829,1693,1611,20.5952,-45.5104
476,-587,20.5427,44.7446,0.00246866,0.00225641,-0.00184353,0.00420912,0.00051595,-0.756647,0.00265089,0.0111379,1700,1611,20.5428,-44.7446
483,-587,20.4874,43.9397,0.00183862,0.00152077,-0.00169741,0.00338453,-2.51331e-05,-0.73872,0.00226478,0.0135919,1707,1611,20.4874,-43.9397
490,-587,20.4436,43.1389,0.00114508,0.000901182,-0.00143698,0.00246527,-0.000419016,-0.743068,0.00179952,0.0172323,1714,1611,20.4437,-43.1389
497,-587,20.418,42.3373,0.000456972,0.000404722,-0.00118655,0.00161769,-0.000755994,-0.774391,0.00140022,0.0139723,1721,1611,20.418,-42.3373
504,-587,20.366,41.5509,-0.000206324,-0.000195339,-0.000851375,0.000650561,-0.00105222,-0.788624,0.000992179,0.0129265,1728,1611,20.3659,-41.5509
511,-587,20.3274,40.7552,-0.000842077,-0.000686293,-0.000521631,-0.00023677,-0.0012916,-0.859512,0.000793999,0.0147985,1735,1611,20.3273,-40.7552
518,-587,20.3066,39.9192,-0.00146714,-0.00127487,-0.000134757,-0.00120547,-0.00153654,-1.09523,0.000933778,0.0149664,1742,1611,20.3066,-39.9192
525,-587,20.24,39.1161,-0.00206075,-0.00186956,0.000275311,-0.00167372,-0.0022566,0.952498,0.00135264,0.0206178,1749,1611,20.24,-39.1161
532,-587,20.2532,38.382,-0.00249184,-0.00243934,0.000690447,-0.00177464,-0.00315653,0.804399,0.00182712,0.0375439,1756,1611,20.2531,-38.382
539,-587,20.3594,37.4833,0,0,0,0,0,0,0,-1,1763,1611,20.3593,-37.4832
546,-587,17.6716,25.2673,0,0,0,0,0,0,0,-1,1770,1611,17.6716,-25.2674
553,-587,7.5813,8.45068,0,0,0,0,0,0,0,-1,1777,1611,7.58125,-8.45068
560,-587,4.21179,5.23547,0,0,0,0,0,0,0,-1,1784,1611,4.21185,-5.23553
567,-587,4.03711,5.46387,0,0,0,0,0,0,0,-1,1791,1611,4.03715,-5.46382
574,-587,3.83142,5.68884,0,0,0,0,0,0,0,-1,1798,1611,3.83141,-5.68881
581,-587,3.47168,6.00977,0,0,0,0,0,0,0,-1,1805,1611,3.47167,-6.00983
588,-587,0,0,0,0,0,0,0,0,0,-1,1812,1611,0,0
595,-587,0,0,0,0,0,0,0,0,0,-1,1819,1611,0,0
602,-587,0,0,0,0,0,0,0,0,0,-1,1826,1611,0,0
609,-587,0,0,0,0,0,0,0,0,0,-1,1833,1611,0,0
616,-587,0,0,0,0,0,0,0,0,0,-1,1840,1611,0,0
623,-587,0,0,0,0,0,0,0,0,0,-1,1847,1611,0,0
630,-587,0,0,0,0,0,0,0,0,0,-1,1854,1611,0,0
637,-587,0,0,0,0,0,0,0,0,0,-1,1861,1611,0,0
644,-587,0,0,0,0,0,0,0,0,0,-1,1868,1611,0,0
651,-587,0,0,0,0,0,0,0,0,0,-1,1875,1611,0,0
658,-587,0,0,0,0,0,0,0,0,0,-1,1882,1611,0,0
665,-587,0,0,0,0,0,0,0,0,0,-1,1889,1611,0,0
672,-587,0,0,0,0,0,0,0,0,0,-1,1896,1611,0,0
679,-587,0,0,0,0,0,0,0,0,0,-1,1903,1611,0,0
686,-587,0,0,0,0,0,0,0,0,0,-1,1910,1611,0,0
693,-587,0,0,0,0,0,0,0,0,0,-1,1917,1611,0,0
700,-587,0,0,0,0,0,0,0,0,0,-1,1924,1611,0,0
707,-587,0,0,0,0,0,0,0,0,0,-1,1931,1611,0,0
714,-587,0,0,0,0,0,0,0,0,0,-1,1938,1611,0,0
721,-587,0,0,0,0,0,0,0,0,0,-1,1945,1611,0,0
728,-587,0,0,0,0,0,0,0,0,0,-1,1952,1611,0,0
735,-587,0,0,0,0,0,0,0,0,0,-1,1959,1611,0,0
742,-587,0,0,0,0,0,0,0,0,0,-1,1966,1611,0,0
749,-587,0,0,0,0,0,0,0,0,0,-1,1973,1611,0,0
756,-587,0,0,0,0,0,0,0,0,0,-1,1980,1611,0,0
763,-587,0,0,0,0,0,0,0,0,0,-1,1987,1611,0,0
770,-587,0,0,0,0,0,0,0,0,0,-1,1994,1611,0,0
777,-587,0,0,0,0,0,0,0,0,0,-1,2001,1611,0,0
784,-587,0,0,0,0,0,0,0,0,0,-1,2008,1611,0,0
791,-587,0,0,0,0,0,0,0,0,0,-1,2015,1611,0,0
798,-587,0,0,0,0,0,0,0,0,0,-1,2022,1611,0,0
805,-587,0,0,0,0,0,0,0,0,0,-1,2029,1611,0,0
812,-587,0,0,0,0,0,0,0,0,0,-1,2036,1611,0,0
-700,-594,0,0,0,0,0,0,0,0,0,-1,524,1618,0,0
-693,-594,0,0,0,0,0,0,0,0,0,-1,531,1618,0,0
-686,-594,0,0,0,0,0,0,0,0,0,-1,538,1618,0,0
-679,-594,0,0,0,0,0,0,0,0,0,-1,545,1618,0,0
-672,-594,0,0,0,0,0,0,0,0,0,-1,552,1618,0,0
-665,-594,0,0,0,0,0,0,0,0,0,-1,559,1618,0,0
-658,-594,0,0,0,0,0,0,0,0,0,-1,566,1618,0,0
-651,-594,0,0,0,0,0,0,0,0,0,-1,573,1618,0,0
-644,-594,0,0,0,0,0,0,0,0,0,-1,580,1618,0,0
-637,-594,0,0,0,0,0,0,0,0,0,-1,587,1618,0,0
-630,-594,0,0,0,0,0,0,0,0,0,-1,594,1618,0,0
-623,-594,0,0,0,0,0,0,0,0,0,-1,601,1618,0,0
-616,-594,0,0,0,0,0,0,0,0,0,-1,608,1618,0,0
-609,-594,0,0,0,0,0,0,0,0,0,-1,615,1618,0,0
-602,-594,0,0,0,0,0,0,0,0,0,-1,622,1618,0,0
-595,-594,0,0,0,0,0,0,0,0,0,-1,629,1618,0,0
-588,-594,0,0,0,0,0,0,0,0,0,-1,636,1618,0,0
-581,-594,0,0,0,0,0,0,0,0,0,-1,643,1618,0,0
-574,-594,0,0,0,0,0,0,0,0,0,-1,650,1618,0,0
-567,-594,0,0,0,0,0,0,0,0,0,-1,657,1618,0,0
-560,-594,0,0,0,0,0,0,0,0,0,-1,664,1618,0,0
-553,-594,0,0,0,0,0,0,0,0,0,-1,671,1618,0,0
-546,-594,0,0,0,0,0,0,0,0,0,-1,678,1618,0,0
-539,-594,0,0,0,0,0,0,0,0,0,-1,685,1618,0,0
-532,-594,0,0,0,0,0,0,0,0,0,-1,692,1618,0,0
-525,-594,0,0,0,0,0,0,0,0,0,-1,699,1618,0,0
-518,-594,0,0,0,0,0,0,0,0,0,-1,706,1618,0,0
-511,-594,0,0,0,0,0,0,0,0,0,-1,713,1618,0,0
-504,-594,0,0,0,0,0,0,0,0,0,-1,720,1618,0,0
-497,-594,0,0,0,0,0,0,0,0,0,-1,727,1618,0,0
-490,-594,0,0,0,0,0,0,0,0,0,-1,734,1618,0,0
-483,-594,0,0,0,0,0,0,0,0,0,-1,741,1618,0,0
-476,-594,0,0,0,0,0,0,0,0,0,-1,748,1618,0,0
-469,-594,0,0,0,0,0,0,0,0,0,-1,755,1618,0,0
-462,-594,0,0,0,0,0,0,0,0,0,-1,762,1618,0,0
-455,-594,-0.509216,-1.58411,0,0,0,0,0,0,0,-1,769,1618,-0.509245,1.58415
-448,-594,-7.71887,-0.0559082,0,0,0,0,0,0,0,-1,776,1618,-7.71885,0.055939
-441,-594,-5.78473,1.18298,0,0,0,0,0,0,0,-1,783,1618,-5.78474,-1.18295
-434,-594,-3.93628,3.06213,0,0,0,0,0,0,0,-1,790,1618,-3.93631,-3.06208
-427,-594,-3.97693,6.77759,0,0,0,0,0,0,0,-1,797,1618,-3.97695,-6.77764
-420,-594,-2.53046,7.71606,0,0,0,0,0,0,0,-1,804,1618,-2.53047,-7.71609
-413,-594,-0.860413,8.00391,0,0,0,0,0,0,0,-1,811,1618,-0.860423,-8.00389
-406,-594,2.45746,13.6218,0,0,0,0,0,0,0,-1,818,1618,2.45747,-13.6218
-399,-594,1.30414,24.9963,0,0,0,0,0,0,0,-1,825,1618,1.30415,-24.9963
-392,-594,-0.504883,35.921,0,0,0,0,0,0,0,-1,832,1618,-0.50491,-35.921
-385,-594,-1.78479,40.7245,0,0,0,0,0,0,0,-1,839,1618,-1.7848,-40.7245
-378,-594,-1.81647,41.7106,0.00123461,0.00150679,0.00364521,0.00501845,-0.00227705,0.804057,0.00431004,0.024868,846,1618,-1.81645,-41.7106
-371,-594,-1.78088,42.6267,0.000869058,0.00081625,0.00273528,0.00357806,-0.00189275,0.780572,0.00320814,0.0152754,853,1618,-1.7809,-42.6267
-364,-594,-1.81085,43.4285,0.000703797,0.000450302,0.00209098,0.00267187,-0.00151777,0.755127,0.00244929,0.0115698,860,1618,-1.81086,-43.4285
-357,-594,-1.8587,44.2328,0.000747361,0.000154653,0.0015849,0.00206337,-0.00116136,0.692972,0.00188592,0.0115195,867,1618,-1.8587,-44.2328
-350,-594,-1.91956,45.0828,0.00100541,0.000113515,0.00130486,0.00193842,-0.000819499,0.620742,0.00163539,0.0178501,874,1618,-1.91955,-45.0828
-343,-594,-1.98901,45.9043,0.00140352,0.000296996,0.00121019,0.00218092,-0.000480404,0.570998,0.00163774,0.0210245,881,1618,-1.98903,-45.9043
-336,-594,-2.05762,46.6636,0.00185941,0.000806346,0.00129579,0.00273156,-6.58075e-05,0.592419,0.00184337,0.0171344,888,1618,-2.05761,-46.6635
-329,-594,-2.07086,47.4617,0.00242038,0.0013672,0.00147519,0.00346015,0.000327427,0.613965,0.00220574,0.0154841,895,1618,-2.07088,-47.4617
-322,-594,-2.05817,48.2675,0.00322157,0.0021794,0.00187484,0.00464639,0.00075458,0.649852,0.00287922,0.0164665,902,1618,-2.05815,-48.2675
-315,-594,-2.09082,49.0511,0.00428742,0.0030636,0.00268257,0.00642698,0.000924036,0.673263,0.00401227,0.0172035,909,1618,-2.09081,-49.0512
-308,-594,-2.12732,49.8209,0.00553038,0.00399841,0.00384129,0.00868131,0.000847475,0.686985,0.00552675,0.0156847,916,1618,-2.12733,-49.8209
-301,-594,-2.16656,50.573,0.00718391,0.00493419,0.00507803,0.0112602,0.000857918,0.676401,0.00723778,0.0128118,923,1618,-2.16655,-50.573
-294,-594,-2.14905,51.3365,0.00956229,0.00634602,0.00709813,0.0152322,0.000676144,0.674,0.00993707,0.0156214,930,1618,-2.14905,-51.3366
-287,-594,-2.23804,52.0916,0.0121005,0.00776073,0.00925503,0.0194366,0.000424625,0.67025,0.0128186,0.0235836,937,1618,-2.23801,-52.0915
-280,-594,-2.1839,52.896,0.0149365,0.00943998,0.0118975,0.024399,-2.25278e-05,0.671892,0.0162735,0.0257642,944,1618,-2.18388,-52.896
-273,-594,-2.03119,53.7694,0.0182019,0.0111615,0.0148621,0.029955,-0.000591621,0.669113,0.0201701,0.0314756,951,1618,-2.03118,-53.7695
-266,-594,-1.57617,54.5181,0.0219477,0.0128286,0.0181585,0.0361104,-0.00133408,0.662393,0.0245304,0.0377829,958,1618,-1.5762,-54.5181
-259,-594,-1.4198,55.231,0.0260026,0.0147533,0.0218356,0.0429264,-0.00217047,0.659344,0.0293678,0.0456586,965,1618,-1.41981,-55.231
-252,-594,-1.28009,55.8168,0,0,0,0,0,0,0,-1,972,1618,-1.28008,-55.8167
-245,-594,2.27759,35.1766,0,0,0,0,0,0,0,-1,979,1618,2.27756,-35.1766
-238,-594,2.09015,28.0121,0,0,0,0,0,0,0,-1,986,1618,2.09012,-28.0121
-231,-594,1.93774,9.35388,0,0,0,0,0,0,0,-1,993,1618,1.93776,-9.35393
-224,-594,1.81824,8.62744,0,0,0,0,0,0,0,-1,1000,1618,1.81822,-8.62745
-217,-594,-8.24066,12.0752,0,0,0,0,0,0,0,-1,1007,1618,-8.24068,-12.0751
-210,-594,-5.61438,14.2119,0,0,0,0,0,0,0,-1,1014,1618,-5.6144,-14.212
-203,-594,-3.94507,15.5768,0,0,0,0,0,0,0,-1,1021,1618,-3.94506,-15.5768
-196,-594,2.78613,10.5815,0,0,0,0,0,0,0,-1,1028,1618,2.78612,-10.5815
-189,-594,2.60913,9.48865,0,0,0,0,0,0,0,-1,1035,1618,2.6091,-9.48871
-182,-594,1.2395,9.38806,0,0,0,0,0,0,0,-1,1042,1618,1.23951,-9.38804
-175,-594,0.234863,8.73792,0,0,0,0,0,0,0,-1,1049,1618,0.234812,-8.73786
-168,-594,-0.495483,8.46289,0,0,0,0,0,0,0,-1,1056,1618,-0.495513,-8.46285
-161,-594,-1.39734,8.28699,0,0,0,0,0,0,0,-1,1063,1618,-1.39729,-8.28699
-154,-594,-0.000854492,7.68445,0,0,0,0,0,0,0,-1,1070,1618,-0.000805755,-7.6845
-147,-594,0.348267,9.3385,0,0,0,0,0,0,0,-1,1077,1618,0.348237,-9.33849
-140,-594,0.675171,11.5884,0,0,0,0,0,0,0,-1,1084,1618,0.675204,-11.5884
-133,-594,0,0,0,0,0,0,0,0,0,-1,1091,1618,0,0
-126,-594,0,0,0,0,0,0,0,0,0,-1,1098,1618,0,0
-119,-594,0,0,0,0,0,0,0,0,0,-1,1105,1618,0,0
-112,-594,0,0,0,0,0,0,0,0,0,-1,1112,1618,0,0
-105,-594,0,0,0,0,0,0,0,0,0,-1,1119,1618,0,0
-98,-594,0,0,0,0,0,0,0,0,0,-1,1126,1618,0,0
-91,-594,0,0,0,0,0,0,0,0,0,-1,1133,1618,0,0
-84,-594,0,0,0,0,0,0,0,0,0,-1,1140,1618,0,0
-77,-594,0,0,0,0,0,0,0,0,0,-1,1147,1618,0,0
-70,-594,0,0,0,0,0,0,0,0,0,-1,1154,1618,0,0
-63,-594,0,0,0,0,0,0,0,0,0,-1,1161,1618,0,0
-56,-594,0,0,0,0,0,0,0,0,0,-1,1168,1618,0,0
-49,-594,0,0,0,0,0,0,0,0,0,-1,1175,1618,0,0
-42,-594,0,0,0,0,0,0,0,0,0,-1,1182,1618,0,0
-35,-594,0,0,0,0,0,0,0,0,0,-1,1189,1618,0,0
-28,-594,0,0,0,0,0,0,0,0,0,-1,1196,1618,0,0
-21,-594,0,0,0,0,0,0,0,0,0,-1,1203,1618,0,0
-14,-594,0,0,0,0,0,0,0,0,0,-1,1210,1618,0,0
-7,-594,0,0,0,0,0,0,0,0,0,-1,1217,1618,0,0
0,-594,0,0,0,0,0,0,0,0,0,-1,1224,1618,0,0
7,-594,0,0,0,0,0,0,0,0,0,-1,1231,1618,0,0
14,-594,0,0,0,0,0,0,0,0,0,-1,1238,1618,0,0
21,-594,0,0,0,0,0,0,0,0,0,-1,1245,1618,0,0
28,-594,0,0,0,0,0,0,0,0,0,-1,1252,1618,0,0
35,-594,0,0,0,0,0,0,0,0,0,-1,1259,1618,0,0
42,-594,0,0,0,0,0,0,0,0,0,-1,1266,1618,0,0
49,-594,0,0,0,0,0,0,0,0,0,-1,1273,1618,0,0
56,-594,0,0,0,0,0,0,0,0,0,-1,1280,1618,0,0
63,-594,0,0,0,0,0,0,0,0,0,-1,1287,1618,0,0
70,-594,0,0,0,0,0,0,0,0,0,-1,1294,1618,0,0
77,-594,0,0,0,0,0,0,0,0,0,-1,1301,1618,0,0
84,-594,0,0,0,0,0,0,0,0,0,-1,1308,1618,0,0
91,-594,0,0,0,0,0,0,0,0,0,-1,1315,1618,0,0
98,-594,0,0,0,0,0,0,0,0,0,-1,1322,1618,0,0
105,-594,0,0,0,0,0,0,0,0,0,-1,1329,1618,0,0
112,-594,0,0,0,0,0,0,0,0,0,-1,1336,1618,0,0
119,-594,0,0,0,0,0,0,0,0,0,-1,1343,1618,0,0
126,-594,0,0,0,0,0,0,0,0,0,-1,1350,1618,0,0
133,-594,0,0,0,0,0,0,0,0,0,-1,1357,1618,0,0
140,-594,0,0,0,0,0,0,0,0,0,-1,1364,1618,0,0
147,-594,0,0,0,0,0,0,0,0,0,-1,1371,1618,0,0
154,-594,0,0,0,0,0,0,0,0,0,-1,1378,1618,0,0
161,-594,0,0,0,0,0,0,0,0,0,-1,1385,1618,0,0
168,-594,0,0,0,0,0,0,0,0,0,-1,1392,1618,0,0
175,-594,0,0,0,0,0,0,0,0,0,-1,1399,1618,0,0
182,-594,0,0,0,0,0,0,0,0,0,-1,1406,1618,0,0
189,-594,0,0,0,0,0,0,0,0,0,-1,1413,1618,0,0
196,-594,0,0,0,0,0,0,0,0,0,-1,1420,1618,0,0
203,-594,0,0,0,0,0,0,0,0,0,-1,1427,1618,0,0
210,-594,0,0,0,0,0,0,0,0,0,-1,1434,1618,0,0
217,-594,0,0,0,0,0,0,0,0,0,-1,1441,1618,0,0
224,-594,0,0,0,0,0,0,0,0,0,-1,1448,1618,0,0
231,-594,0,0,0,0,0,0,0,0,0,-1,1455,1618,0,0
238,-594,0,0,0,0,0,0,0,0,0,-1,1462,1618,0,0
245,-594,0,0,0,0,0,0,0,0,0,-1,1469,1618,0,0
252,-594,3.03674,1.20996,0,0,0,0,0,0,0,-1,1476,1618,3.0368,-1.20999
259,-594,4.79834,1.53113,0,0,0,0,0,0,0,-1,1483,1618,4.79837,-1.53118
266,-594,3.71606,2.68152,0,0,0,0,0,0,0,-1,1490,1618,3.71609,-2.68149
273,-594,9.7655,6.33557,0,0,0,0,0,0,0,-1,1497,1618,9.76555,-6.33554
280,-594,3.13281,0.911255,0,0,0,0,0,0,0,-1,1504,1618,3.13277,-0.911207
287,-594,4.42749,1.51563,0,0,0,0,0,0,0,-1,1511,1618,4.42747,-1.51564
294,-594,5.36475,3.34937,0,0,0,0,0,0,0,-1,1518,1618,5.36475,-3.3494
301,-594,7.97144,9.04333,0,0,0,0,0,0,0,-1,1525,1618,7.9714,-9.04328
308,-594,6.30347,10.4633,0,0,0,0,0,0,0,-1,1532,1618,6.30351,-10.4633
315,-594,4.62012,11.934,0,0,0,0,0,0,0,-1,1539,1618,4.62006,-11.934
322,-594,2.91528,13.3134,0,0,0,0,0,0,0,-1,1546,1618,2.91523,-13.3133
329,-594,4.19861,9.77258,0,0,0,0,0,0,0,-1,1553,1618,4.19865,-9.77264
336,-594,10.1353,4.66528,0,0,0,0,0,0,0,-1,1560,1618,10.1353,-4.66533
343,-594,18.0483,57.3796,0,0,0,0,0,0,0,-1,1567,1618,18.0484,-57.3796
350,-594,18.9417,58.5305,0,0,0,0,0,0,0,-1,1574,1618,18.9417,-58.5306
357,-594,19.0614,57.6416,0.00128291,-0.105885,0.0228817,0.00596395,-0.110566,0.201792,0.0757771,0.0438005,1581,1618,19.0615,-57.6416
364,-594,19.3879,57.0189,0.00433337,-0.0899346,0.0200714,0.00842901,-0.0940303,0.20129,0.0656771,0.0457447,1588,1618,19.3879,-57.0189
371,-594,19.8853,56.3157,0.00577581,-0.0743368,0.0177325,0.00952533,-0.0780863,0.208379,0.0555058,0.0446831,1595,1618,19.8853,-56.3157
378,-594,20.1434,55.3075,0,0,0,0,0,0,0,-1,1602,1618,20.1434,-55.3075
385,-594,20.4067,54.4255,0.00599712,-0.0460038,0.0134904,0.00928855,-0.0492952,0.239308,0.0363573,0.0444283,1609,1618,20.4067,-54.4256
392,-594,20.2578,54.1044,0.005774,-0.0337323,0.0110875,0.00867299,-0.0366313,0.25574,0.0277671,0.0476268,1616,1618,20.2578,-54.1044
399,-594,20.3031,53.3464,0.00547344,-0.0234756,0.00881041,0.00794398,-0.0259461,0.273391,0.0204659,0.0424367,1623,1618,20.3031,-53.3465
406,-594,20.1422,52.5162,0.00519748,-0.0147247,0.00636162,0.0070556,-0.0165828,0.284176,0.0140123,0.0284715,1630,1618,20.1422,-52.5162
413,-594,20.0699,51.7527,0.00593421,-0.00463244,0.00363496,0.00706388,-0.00576211,0.301315,0.00741779,0.0190979,1637,1618,20.0699,-51.7526
420,-594,20.0526,51.0031,0.00601315,0.00222794,0.00147237,0.00651843,0.00172267,0.330579,0.00390034,0.0158898,1644,1618,20.0526,-51.0031
427,-594,20.0481,50.2654,0.00321114,0.00417322,0.000836379,0.00465703,0.00272734,1.04637,0.00270185,0.0139029,1651,1618,20.0481,-50.2654
434,-594,19.9821,49.4938,0.00282889,0.00394638,0.000303814,0.00402363,0.00275163,1.32178,0.00237483,0.0194921,1658,1618,19.982,-49.4938
441,-594,19.9418,48.683,0.00295875,0.00373967,-0.00064995,0.00410743,0.002591,-1.05589,0.00239832,0.0178168,1665,1618,19.9417,-48.683
448,-594,19.9553,47.8832,0.00294597,0.00305189,-0.00121221,0.0042123,0.00178557,-0.807228,0.00244135,0.0171713,1672,1618,19.9553,-47.8832
455,-594,19.9019,47.095,0.0027566,0.00246005,-0.00151239,0.00412796,0.00108868,-0.736534,0.00247038,0.0129184,1679,1618,19.9019,-47.095
462,-594,19.8754,46.324,0.00259908,0.00194001,-0.0016173,0.00392008,0.000619016,-0.684897,0.00243343,0.0149258,1686,1618,19.8754,-46.324
469,-594,19.8198,45.5684,0.00232043,0.0015863,-0.0017139,0.00370614,0.000200599,-0.679907,0.00240668,0.0135469,1693,1618,19.8199,-45.5684
476,-594,19.7659,44.7848,0.00186165,0.00110451,-0.00168687,0.0032119,-0.000245744,-0.675017,0.00222771,0.012972,1700,1618,19.7659,-44.7848
483,-594,19.7163,43.972,0.00135993,0.000467263,-0.00162466,0.00259846,-0.00077126,-0.651343,0.00203862,0.0160927,1707,1618,19.7163,-43.9721
490,-594,19.6843,43.1813,0.000772831,-9.06149e-06,-0.00147869,0.00191138,-0.00114761,-0.656162,0.00178437,0.0148526,1714,1618,19.6844,-43.1813
497,-594,19.635,42.3787,0.000189332,-0.000351835,-0.00133949,0.00128529,-0.0014478,-0.685737,0.00157888,0.0114882,1721,1618,19.635,-42.3787
504,-594,19.5806,41.5657,-0.0004025,-0.000873618,-0.00107519,0.000462631,-0.00173875,-0.677559,0.00134026,0.0116995,1728,1618,19.5806,-41.5656
511,-594,19.5387,40.7169,-0.00101126,-0.00114696,-0.000906882,-0.000169691,-0.00198852,-0.748059,0.0012729,0.0193189,1735,1618,19.5387,-40.7169
518,-594,19.4323,39.8733,-0.00173674,-0.00160468,-0.000462814,-0.00120321,-0.00213821,-0.856253,0.00123773,0.0264572,1742,1618,19.4322,-39.8732
525,-594,19.3286,39.1326,-0.00237973,-0.00219431,4.15923e-05,-0.00218541,-0.00238864,1.35994,0.00152919,0.0389496,1749,1618,19.3287,-39.1326
532,-594,19.2607,38.4265,0,0,0,0,0,0,0,-1,1756,1618,19.2607,-38.4265
539,-594,21.0237,24.9617,0,0,0,0,0,0,0,-1,1763,1618,21.0237,-24.9616
546,-594,7.48645,8.54785,0,0,0,0,0,0,0,-1,1770,1618,7.48639,-8.54789
553,-594,3.69714,5.68762,0,0,0,0,0,0,0,-1,1777,1618,3.69715,-5.68764
560,-594,6.06616,4.44482,0,0,0,0,0,0,0,-1,1784,1618,6.06621,-4.44477
567,-594,5.97266,4.73303,0,0,0,0,0,0,0,-1,1791,1618,5.97271,-4.73309
574,-594,5.9906,4.96326,0,0,0,0,0,0,0,-1,1798,1618,5.99065,-4.96326
581,-594,0,0,0,0,0,0,0,0,0,-1,1805,1618,0,0
588,-594,0,0,0,0,0,0,0,0,0,-1,1812,1618,0,0
595,-594,0,0,0,0,0,0,0,0,0,-1,1819,1618,0,0
602,-594,0,0,0,0,0,0,0,0,0,-1,1826,1618,0,0
609,-594,0,0,0,0,0,0,0,0,0,-1,1833,1618,0,0
616,-594,0,0,0,0,0,0,0,0,0,-1,1840,1618,0,0
623,-594,0,0,0,0,0,0,0,0,0,-1,1847,1618,0,0
630,-594,0,0,0,0,0,0,0,0,0,-1,1854,1618,0,0
637,-594,0,0,0,0,0,0,0,0,0,-1,1861,1618,0,0
644,-594,0,0,0,0,0,0,0,0,0,-1,1868,1618,0,0
651,-594,0,0,0,0,0,0,0,0,0,-1,1875,1618,0,0
658,-594,0,0,0,0,0,0,0,0,0,-1,1882,1618,0,0
665,-594,0,0,0,0,0,0,0,0,0,-1,1889,1618,0,0
672,-594,0,0,0,0,0,0,0,0,0,-1,1896,1618,0,0
679,-594,0,0,0,0,0,0,0,0,0,-1,1903,1618,0,0
686,-594,0,0,0,0,0,0,0,0,0,-1,1910,1618,0,0
693,-594,0,0,0,0,0,0,0,0,0,-1,1917,1618,0,0
700,-594,0,0,0,0,0,0,0,0,0,-1,1924,1618,0,0
707,-594,0,0,0,0,0,0,0,0,0,-1,1931,1618,0,0
714,-594,0,0,0,0,0,0,0,0,0,-1,1938,1618,0,0
721,-594,0,0,0,0,0,0,0,0,0,-1,1945,1618,0,0
728,-594,0,0,0,0,0,0,0,0,0,-1,1952,1618,0,0
735,-594,0,0,0,0,0,0,0,0,0,-1,1959,1618,0,0
742,-594,0,0,0,0,0,0,0,0,0,-1,1966,1618,0,0
749,-594,0,0,0,0,0,0,0,0,0,-1,1973,1618,0,0
756,-594,0,0,0,0,0,0,0,0,0,-1,1980,1618,0,0
763,-594,0,0,0,0,0,0,0,0,0,-1,1987,1618,0,0
770,-594,0,0,0,0,0,0,0,0,0,-1,1994,1618,0,0
777,-594,0,0,0,0,0,0,0,0,0,-1,2001,1618,0,0
784,-594,0,0,0,0,0,0,0,0,0,-1,2008,1618,0,0
791,-594,0,0,0,0,0,0,0,0,0,-1,2015,1618,0,0
798,-594,0,0,0,0,0,0,0,0,0,-1,2022,1618,0,0
805,-594,0,0,0,0,0,0,0,0,0,-1,2029,1618,0,0
812,-594,0,0,0,0,0,0,0,0,0,-1,2036,1618,0,0
-700,-601,0,0,0,0,0,0,0,0,0,-1,524,1625,0,0
-693,-601,0,0,0,0,0,0,0,0,0,-1,531,1625,0,0
-686,-601,0,0,0,0,0,0,0,0,0,-1,538,1625,0,0
-679,-601,0,0,0,0,0,0,0,0,0,-1,545,1625,0,0
-672,-601,0,0,0,0,0,0,0,0,0,-1,552,1625,0,0
-665,-601,0,0,0,0,0,0,0,0,0,-1,559,1625,0,0
-658,-601,0,0,0,0,0,0,0,0,0,-1,566,1625,0,0
-651,-601,0,0,0,0,0,0,0,0,0,-1,573,1625,0,0
-644,-601,0,0,0,0,0,0,0,0,0,-1,580,1625,0,0
-637,-601,0,0,0,0,0,0,0,0,0,-1,587,1625,0,0
-630,-601,0,0,0,0,0,0,0,0,0,-1,594,1625,0,0
-623,-601,0,0,0,0,0,0,0,0,0,-1,601,1625,0,0
-616,-601,0,0,0,0,0,0,0,0,0,-1,608,1625,0,0
-609,-601,0,0,0,0,0,0,0,0,0,-1,615,1625,0,0
-602,-601,0,0,0,0,0,0,0,0,0,-1,622,1625,0,0
-595,-601,0,0,0,0,0,0,0,0,0,-1,629,1625,0,0
-588,-601,0,0,0,0,0,0,0,0,0,-1,636,1625,0,0
-581,-601,0,0,0,0,0,0,0,0,0,-1,643,1625,0,0
-574,-601,0,0,0,0,0,0,0,0,0,-1,650,1625,0,0
-567,-601,0,0,0,0,0,0,0,0,0,-1,657,1625,0,0
-560,-601,0,0,0,0,0,0,0,0,0,-1,664,1625,0,0
-553,-601,0,0,0,0,0,0,0,0,0,-1,671,1625,0,0
-546,-601,0,0,0,0,0,0,0,0,0,-1,678,1625,0,0
-539,-601,0,0,0,0,0,0,0,0,0,-1,685,1625,0,0
-532,-601,0,0,0,0,0,0,0,0,0,-1,692,1625,0,0
-525,-601,0,0,0,0,0,0,0,0,0,-1,699,1625,0,0
-518,-601,0,0,0,0,0,0,0,0,0,-1,706,1625,0,0
-511,-601,0,0,0,0,0,0,0,0,0,-1,713,1625,0,0
-504,-601,0,0,0,0,0,0,0,0,0,-1,720,1625,0,0
-497,-601,0,0,0,0,0,0,0,0,0,-1,727,1625,0,0
-490,-601,0,0,0,0,0,0,0,0,0,-1,734,1625,0,0
-483,-601,0,0,0,0,0,0,0,0,0,-1,741,1625,0,0
-476,-601,0,0,0,0,0,0,0,0,0,-1,748,1625,0,0
-469,-601,0,0,0,0,0,0,0,0,0,-1,755,1625,0,0
-462,-601,0,0,0,0,0,0,0,0,0,-1,762,1625,0,0
-455,-601,0,0,0,0,0,0,0,0,0,-1,769,1625,0,0
-448,-601,-7.07623,2.7616,0,0,0,0,0,0,0,-1,776,1625,-7.07626,-2.76161
-441,-601,-6.06689,3.33447,0,0,0,0,0,0,0,-1,783,1625,-6.06691,-3.33448
-434,-601,-5.02655,3.8468,0,0,0,0,0,0,0,-1,790,1625,-5.02657,-3.84674
-427,-601,-5.78601,4.2406,0,0,0,0,0,0,0,-1,797,1625,-5.786,-4.24058
-420,-601,-5.5191,5.60364,0,0,0,0,0,0,0,-1,804,1625,-5.51907,-5.60368
-413,-601,-4.30756,5.86047,0,0,0,0,0,0,0,-1,811,1625,-4.30757,-5.86046
-406,-601,-1.67493,7.20422,0,0,0,0,0,0,0,-1,818,1625,-1.67493,-7.20428
-399,-601,1.40094,15.3108,0,0,0,0,0,0,0,-1,825,1625,1.40096,-15.3107
-392,-601,0.678833,30.98,0,0,0,0,0,0,0,-1,832,1625,0.678827,-30.98
-385,-601,-0.0147095,37.3687,0,0,0,0,0,0,0,-1,839,1625,-0.0147267,-37.3687
-378,-601,-1.12048,41.8514,0,0,0,0,0,0,0,-1,846,1625,-1.12051,-41.8515
-371,-601,-0.972473,42.5566,0.000824023,0.00120921,0.003223,0.00424536,-0.00221213,0.81524,0.00378934,0.0290723,853,1625,-0.972498,-42.5566
-364,-601,-0.994873,43.4513,0.000471675,0.000669763,0.00235079,0.00292359,-0.00178215,0.806452,0.00274337,0.0145175,860,1625,-0.994887,-43.4513
-357,-601,-1.07117,44.2971,0.000350387,0.000127503,0.00166741,0.00191008,-0.00143219,0.75203,0.00193622,0.0111297,867,1625,-1.07115,-44.2971
-350,-601,-1.09576,45.1658,0.000452901,-5.73374e-05,0.00125655,0.00147997,-0.0010844,0.685244,0.0014864,0.0232064,874,1625,-1.09576,-45.1657
-343,-601,-1.19739,46.009,0.000756558,-1.30532e-06,0.00104278,0.00148712,-0.000731866,0.611123,0.00130563,0.0274446,881,1625,-1.19741,-46.0091
-336,-601,-1.29468,46.7937,0.00114614,0.00034223,0.00102088,0.00184134,-0.000352976,0.597852,0.00136057,0.0244393,888,1625,-1.29465,-46.7937
-329,-601,-1.28473,47.5609,0.00160619,0.000775057,0.00110245,0.0023688,1.24536e-05,0.605158,0.00157506,0.0197744,895,1625,-1.28474,-47.5609
-322,-601,-1.27716,48.3523,0.00224919,0.00141788,0.00137107,0.00326622,0.000400847,0.638221,0.00205693,0.0142085,902,1625,-1.27716,-48.3523
-315,-601,-1.30353,49.0686,0.00313078,0.00210226,0.00197258,0.00465503,0.000578009,0.657884,0.00292975,0.0147471,909,1625,-1.30354,-49.0686
-308,-601,-1.35284,49.8318,0.00420696,0.0028122,0.00286138,0.00645472,0.000564443,0.665867,0.00412788,0.0136052,916,1625,-1.35283,-49.8317
-301,-601,-1.37933,50.6298,0.00564297,0.00360943,0.00383154,0.00859035,0.000662048,0.655703,0.00551947,0.010958,923,1625,-1.37936,-50.6298
-294,-601,-1.40967,51.3975,0.00765348,0.00475621,0.00542304,0.011818,0.000591651,0.654882,0.00768907,0.0110457,930,1625,-1.40965,-51.3975
-287,-601,-1.47192,52.1859,0.0096737,0.0058648,0.00704273,0.0150649,0.000473562,0.65335,0.00988921,0.0118002,937,1625,-1.47192,-52.1859
-280,-601,-1.48615,52.9384,0.0119178,0.00717799,0.00897938,0.0188347,0.00026102,0.656377,0.0124704,0.0136893,944,1625,-1.48613,-52.9383
-273,-601,-1.46991,53.7163,0.0144743,0.00846627,0.0111085,0.0229778,-3.71914e-05,0.653343,0.015331,0.0139548,951,1625,-1.46991,-53.7164
-266,-601,-1.42145,54.4854,0.017304,0.00982461,0.0134485,0.0275231,-0.000394509,0.649788,0.0184816,0.0167754,958,1625,-1.42145,-54.4853
-259,-601,-1.36029,55.1371,0.0203524,0.0114613,0.0160271,0.0325391,-0.0007254,0.650111,0.0219386,0.0287709,965,1625,-1.36026,-55.1371
-252,-601,-1.34863,55.7689,0,0,0,0,0,0,0,-1,972,1625,-1.34863,-55.7689
-245,-601,-0.243347,57.4296,0,0,0,0,0,0,0,-1,979,1625,-0.243344,-57.4296
-238,-601,-0.0498657,52.927,0,0,0,0,0,0,0,-1,986,1625,-0.0498886,-52.9271
-231,-601,2.66772,13.7051,0,0,0,0,0,0,0,-1,993,1625,2.6677,-13.7051
-224,-601,-0.0305176,9.13684,0,0,0,0,0,0,0,-1,1000,1625,-0.030498,-9.13681
-217,-601,3.39429,10.3898,0,0,0,0,0,0,0,-1,1007,1625,3.39431,-10.3898
-210,-601,-6.53699,15.7931,0,0,0,0,0,0,0,-1,1014,1625,-6.53697,-15.7931
-203,-601,2.69348,15.9099,0,0,0,0,0,0,0,-1,1021,1625,2.69351,-15.91
-196,-601,2.66992,16.1815,0,0,0,0,0,0,0,-1,1028,1625,2.66995,-16.1815
-189,-601,2.849,16.6105,0,0,0,0,0,0,0,-1,1035,1625,2.84902,-16.6104
-182,-601,1.82153,13.9752,0,0,0,0,0,0,0,-1,1042,1625,1.82155,-13.9752
-175,-601,0.544922,9.28687,0,0,0,0,0,0,0,-1,1049,1625,0.544879,-9.28685
-168,-601,-0.247559,8.97461,0,0,0,0,0,0,0,-1,1056,1625,-0.247598,-8.97466
-161,-601,-1.16833,8.80078,0,0,0,0,0,0,0,-1,1063,1625,-1.16837,-8.80081
-154,-601,1.12756,7.94861,0,0,0,0,0,0,0,-1,1070,1625,1.12762,-7.94855
-147,-601,1.35352,9.55432,0,0,0,0,0,0,0,-1,1077,1625,1.35351,-9.55429
-140,-601,1.72437,11.1498,0,0,0,0,0,0,0,-1,1084,1625,1.72432,-11.1498
-133,-601,2.13281,12.8347,0,0,0,0,0,0,0,-1,1091,1625,2.13287,-12.8348
-126,-601,3.09534,15.427,0,0,0,0,0,0,0,-1,1098,1625,3.0953,-15.4271
-119,-601,1.22485,9.43457,0,0,0,0,0,0,0,-1,1105,1625,1.22489,-9.43456
-112,-601,0,0,0,0,0,0,0,0,0,-1,1112,1625,0,0
-105,-601,0,0,0,0,0,0,0,0,0,-1,1119,1625,0,0
-98,-601,0,0,0,0,0,0,0,0,0,-1,1126,1625,0,0
-91,-601,0,0,0,0,0,0,0,0,0,-1,1133,1625,0,0
-84,-601,0,0,0,0,0,0,0,0,0,-1,1140,1625,0,0
-77,-601,0,0,0,0,0,0,0,0,0,-1,1147,1625,0,0
-70,-601,0,0,0,0,0,0,0,0,0,-1,1154,1625,0,0
-63,-601,0,0,0,0,0,0,0,0,0,-1,1161,1625,0,0
-56,-601,0,0,0,0,0,0,0,0,0,-1,1168,1625,0,0
-49,-601,0,0,0,0,0,0,0,0,0,-1,1175,1625,0,0
-42,-601,0,0,0,0,0,0,0,0,0,-1,1182,1625,0,0
-35,-601,0,0,0,0,0,0,0,0,0,-1,1189,1625,0,0
-28,-601,0,0,0,0,0,0,0,0,0,-1,1196,1625,0,0
-21,-601,0,0,0,0,0,0,0,0,0,-1,1203,1625,0,0
-14,-601,0,0,0,0,0,0,0,0,0,-1,1210,1625,0,0
-7,-601,0,0,0,0,0,0,0,0,0,-1,1217,1625,0,0
0,-601,0,0,0,0,0,0,0,0,0,-1,1224,1625,0,0
7,-601,0,0,0,0,0,0,0,0,0,-1,1231,1625,0,0
14,-601,0,0,0,0,0,0,0,0,0,-1,1238,1625,0,0
21,-601,0,0,0,0,0,0,0,0,0,-1,1245,1625,0,0
28,-601,0,0,0,0,0,0,0,0,0,-1,1252,1625,0,0
35,-601,0,0,0,0,0,0,0,0,0,-1,1259,1625,0,0
42,-601,0,0,0,0,0,0,0,0,0,-1,1266,1625,0,0
49,-601,0,0,0,0,0,0,0,0,0,-1,1273,1625,0,0
56,-601,0,0,0,0,0,0,0,0,0,-1,1280,1625,0,0
63,-601,0,0,0,0,0,0,0,0,0,-1,1287,1625,0,0
70,-601,0,0,0,0,0,0,0,0,0,-1,1294,1625,0,0
77,-601,0,0,0,0,0,0,0,0,0,-1,1301,1625,0,0
84,-601,0,0,0,0,0,0,0,0,0,-1,1308,1625,0,0
91,-601,0,0,0,0,0,0,0,0,0,-1,1315,1625,0,0
98,-601,0,0,0,0,0,0,0,0,0,-1,1322,1625,0,0
105,-601,0,0,0,0,0,0,0,0,0,-1,1329,1625,0,0
112,-601,0,0,0,0,0,0,0,0,0,-1,1336,1625,0,0
119,-601,0,0,0,0,0,0,0,0,0,-1,1343,1625,0,0
126,-601,0,0,0,0,0,0,0,0,0,-1,1350,1625,0,0
133,-601,0,0,0,0,0,0,0,0,0,-1,1357,1625,0,0
140,-601,0,0,0,0,0,0,0,0,0,-1,1364,1625,0,0
147,-601,0,0,0,0,0,0,0,0,0,-1,1371,1625,0,0
154,-601,0,0,0,0,0,0,0,0,0,-1,1378,1625,0,0
161,-601,0,0,0,0,0,0,0,0,0,-1,1385,1625,0,0
168,-601,0,0,0,0,0,0,0,0,0,-1,1392,1625,0,0
175,-601,0,0,0,0,0,0,0,0,0,-1,1399,1625,0,0
182,-601,0,0,0,0,0,0,0,0,0,-1,1406,1625,0,0
189,-601,0,0,0,0,0,0,0,0,0,-1,1413,1625,0,0
196,-601,0,0,0,0,0,0,0,0,0,-1,1420,1625,0,0
203,-601,0,0,0,0,0,0,0,0,0,-1,1427,1625,0,0
210,-601,0,0,0,0,0,0,0,0,0,-1,1434,1625,0,0
217,-601,0,0,0,0,0,0,0,0,0,-1,1441,1625,0,0
224,-601,0,0,0,0,0,0,0,0,0,-1,1448,1625,0,0
231,-601,-0.0371094,0.525879,0,0,0,0,0,0,0,-1,1455,1625,-0.0371518,-0.525824
238,-601,2.03369,-1.32861,0,0,0,0,0,0,0,-1,1462,1625,2.03364,1.32858
245,-601,2.71375,2.44983,0,0,0,0,0,0,0,-1,1469,1625,2.71371,-2.44979
252,-601,4.66943,2.28381,0,0,0,0,0,0,0,-1,1476,1625,4.66947,-2.28376
259,-601,6.42712,2.61987,0,0,0,0,0,0,0,-1,1483,1625,6.42711,-2.61985
266,-601,6.75317,1.68701,0,0,0,0,0,0,0,-1,1490,1625,6.75323,-1.687
273,-601,5.4314,2.92053,0,0,0,0,0,0,0,-1,1497,1625,5.43144,-2.92051
280,-601,4.64722,1.17786,0,0,0,0,0,0,0,-1,1504,1625,4.64722,-1.1779
287,-601,5.32532,2.6217,0,0,0,0,0,0,0,-1,1511,1625,5.32535,-2.62171
294,-601,5.97693,4.22693,0,0,0,0,0,0,0,-1,1518,1625,5.97697,-4.22694
301,-601,7.28162,9.50024,0,0,0,0,0,0,0,-1,1525,1625,7.28162,-9.50025
308,-601,6.53528,10.3927,0,0,0,0,0,0,0,-1,1532,1625,6.53529,-10.3927
315,-601,4.88013,11.7184,0,0,0,0,0,0,0,-1,1539,1625,4.88015,-11.7184
322,-601,3.38098,12.7864,0,0,0,0,0,0,0,-1,1546,1625,3.38104,-12.7864
329,-601,1.8772,13.8768,0,0,0,0,0,0,0,-1,1553,1625,1.87716,-13.8768
336,-601,4.67847,9.53308,0,0,0,0,0,0,0,-1,1560,1625,4.67848,-9.53309
343,-601,11.1404,3.14575,0,0,0,0,0,0,0,-1,1567,1625,11.1404,-3.1458
350,-601,18.1141,60.1068,0,0,0,0,0,0,0,-1,1574,1625,18.1141,-60.1069
357,-601,18.4315,59.1316,0.00732717,-0.0807002,0.0153911,0.00994064,-0.0833137,0.168199,0.0591352,0.0419827,1581,1625,18.4316,-59.1316
364,-601,18.6334,58.0361,0.00916599,-0.0679768,0.013027,0.0113064,-0.0701172,0.162854,0.0509337,0.0474479,1588,1625,18.6335,-58.0362
371,-601,18.9949,56.771,0.00979376,-0.0554024,0.0112384,0.0116766,-0.0572852,0.165998,0.0426189,0.0462568,1595,1625,18.9949,-56.771
378,-601,19.2522,55.464,0.00950226,-0.0434789,0.00973611,0.0112348,-0.0452114,0.176103,0.0345011,0.0436656,1602,1625,19.2522,-55.464
385,-601,19.2589,54.6556,0.00865396,-0.0328358,0.00837788,0.0102818,-0.0344637,0.191912,0.0270622,0.0432942,1609,1625,19.2589,-54.6556
392,-601,19.1948,53.9674,0.00764809,-0.0234162,0.00691553,0.00911807,-0.0248862,0.209444,0.0203238,0.0375574,1616,1625,19.1948,-53.9674
399,-601,19.2762,53.2618,0.0066154,-0.015782,0.00553686,0.0079094,-0.0170761,0.229586,0.0147454,0.0207536,1623,1625,19.2763,-53.2618
406,-601,19.3595,52.4784,0.00568262,-0.00959813,0.00406893,0.00669855,-0.0106141,0.244676,0.0100803,0.0141521,1630,1625,19.3595,-52.4784
413,-601,19.2898,51.7469,0.00543997,-0.00258678,0.00242055,0.00611341,-0.00326022,0.271356,0.0054948,0.0131164,1637,1625,19.2897,-51.747
420,-601,19.2778,50.9766,0.00491375,0.00188381,0.00107618,0.00525709,0.00154047,0.308824,0.00312066,0.0117045,1644,1625,19.2778,-50.9766
427,-601,19.2566,50.2201,0.00276982,0.00302787,0.000632335,0.00354421,0.00225348,0.886037,0.00207126,0.0153924,1651,1625,19.2566,-50.2201
434,-601,19.1937,49.4471,0.00238312,0.00277166,0.000193354,0.00285148,0.00230329,1.17928,0.00174716,0.0162815,1658,1625,19.1937,-49.4471
441,-601,19.192,48.679,0.00244347,0.00250706,-0.00060535,0.00308145,0.00186908,-0.811633,0.00179249,0.0186836,1665,1625,19.192,-48.679
448,-601,19.1991,47.9307,0.00244726,0.00190122,-0.0011376,0.00334414,0.00100434,-0.667626,0.00198139,0.0161268,1672,1625,19.1991,-47.9306
455,-601,19.1481,47.132,0.00231711,0.00139799,-0.00147994,0.00340721,0.000307896,-0.634855,0.00217611,0.014671,1679,1625,19.148,-47.1319
462,-601,19.098,46.365,0.00216809,0.000913536,-0.00165926,0.00331468,-0.000233056,-0.604679,0.00229143,0.012935,1686,1625,19.098,-46.3649
469,-601,19.0671,45.6165,0.00194215,0.000583382,-0.00182777,0.00321271,-0.00068718,-0.60746,0.00240384,0.0122263,1693,1625,19.0671,-45.6165
476,-601,19.0171,44.8235,0.00157306,0.000189077,-0.00186167,0.00286719,-0.00110505,-0.607459,0.0023674,0.0141676,1700,1625,19.0171,-44.8235
483,-601,18.9324,44.0267,0.00117454,-0.000338532,-0.0018839,0.00244814,-0.00161213,-0.594464,0.0023607,0.0173656,1707,1625,18.9324,-44.0268
490,-601,18.8911,43.2422,0.000662097,-0.000654534,-0.00184703,0.00196462,-0.00195706,-0.614208,0.00226419,0.013443,1714,1625,18.8911,-43.2422
497,-601,18.8593,42.4376,0.00014783,-0.000851638,-0.00179703,0.00151331,-0.00221712,-0.64978,0.00216651,0.0136827,1721,1625,18.8592,-42.4376
504,-601,18.8817,41.5839,-0.000394022,-0.00127475,-0.00159606,0.000821308,-0.00249008,-0.650794,0.00199111,0.0308237,1728,1625,18.8817,-41.5838
511,-601,18.7183,40.8782,-0.00102067,-0.00128213,-0.00159176,0.00044572,-0.00274851,-0.744425,0.00199756,0.0494027,1735,1625,18.7182,-40.8782
518,-601,18.4381,40.1508,0,0,0,0,0,0,0,-1,1742,1625,18.4381,-40.1508
525,-601,18.3762,39.0326,0,0,0,0,0,0,0,-1,1749,1625,18.3762,-39.0325
532,-601,15.9053,24.3068,0,0,0,0,0,0,0,-1,1756,1625,15.9053,-24.3067
539,-601,7.77112,11.4299,0,0,0,0,0,0,0,-1,1763,1625,7.77116,-11.4299
546,-601,6.56873,3.62354,0,0,0,0,0,0,0,-1,1770,1625,6.56867,-3.62352
553,-601,7.03015,4.25049,0,0,0,0,0,0,0,-1,1777,1625,7.03011,-4.25048
560,-601,7.50745,4.83374,0,0,0,0,0,0,0,-1,1784,1625,7.50744,-4.83376
567,-601,7.82043,3.83301,0,0,0,0,0,0,0,-1,1791,1625,7.82041,-3.83303
574,-601,0,0,0,0,0,0,0,0,0,-1,1798,1625,0,0
581,-601,0,0,0,0,0,0,0,0,0,-1,1805,1625,0,0
588,-601,0,0,0,0,0,0,0,0,0,-1,1812,1625,0,0
595,-601,0,0,0,0,0,0,0,0,0,-1,1819,1625,0,0
602,-601,0,0,0,0,0,0,0,0,0,-1,1826,1625,0,0
609,-601,0,0,0,0,0,0,0,0,0,-1,1833,1625,0,0
616,-601,0,0,0,0,0,0,0,0,0,-1,1840,1625,0,0
623,-601,0,0,0,0,0,0,0,0,0,-1,1847,1625,0,0
630,-601,0,0,0,0,0,0,0,0,0,-1,1854,1625,0,0
637,-601,0,0,0,0,0,0,0,0,0,-1,1861,1625,0,0
644,-601,0,0,0,0,0,0,0,0,0,-1,1868,1625,0,0
651,-601,0,0,0,0,0,0,0,0,0,-1,1875,1625,0,0
658,-601,0,0,0,0,0,0,0,0,0,-1,1882,1625,0,0
665,-601,0,0,0,0,0,0,0,0,0,-1,1889,1625,0,0
672,-601,0,0,0,0,0,0,0,0,0,-1,1896,1625,0,0
679,-601,0,0,0,0,0,0,0,0,0,-1,1903,1625,0,0
686,-601,0,0,0,0,0,0,0,0,0,-1,1910,1625,0,0
693,-601,0,0,0,0,0,0,0,0,0,-1,1917,1625,0,0
700,-601,0,0,0,0,0,0,0,0,0,-1,1924,1625,0,0
707,-601,0,0,0,0,0,0,0,0,0,-1,1931,1625,0,0
714,-601,0,0,0,0,0,0,0,0,0,-1,1938,1625,0,0
721,-601,0,0,0,0,0,0,0,0,0,-1,1945,1625,0,0
728,-601,0,0,0,0,0,0,0,0,0,-1,1952,1625,0,0
735,-601,0,0,0,0,0,0,0,0,0,-1,1959,1625,0,0
742,-601,0,0,0,0,0,0,0,0,0,-1,1966,1625,0,0
749,-601,0,0,0,0,0,0,0,0,0,-1,1973,1625,0,0
756,-601,0,0,0,0,0,0,0,0,0,-1,1980,1625,0,0
763,-601,0,0,0,0,0,0,0,0,0,-1,1987,1625,0,0
770,-601,0,0,0,0,0,0,0,0,0,-1,1994,1625,0,0
777,-601,0,0,0,0,0,0,0,0,0,-1,2001,1625,0,0
784,-601,0,0,0,0,0,0,0,0,0,-1,2008,1625,0,0
791,-601,0,0,0,0,0,0,0,0,0,-1,2015,1625,0,0
798,-601,0,0,0,0,0,0,0,0,0,-1,2022,1625,0,0
805,-601,0,0,0,0,0,0,0,0,0,-1,2029,1625,0,0
812,-601,0,0,0,0,0,0,0,0,0,-1,2036,1625,0,0
-700,-608,0,0,0,0,0,0,0,0,0,-1,524,1632,0,0
-693,-608,0,0,0,0,0,0,0,0,0,-1,531,1632,0,0
-686,-608,0,0,0,0,0,0,0,0,0,-1,538,1632,0,0
-679,-608,0,0,0,0,0,0,0,0,0,-1,545,1632,0,0
-672,-608,0,0,0,0,0,0,0,0,0,-1,552,1632,0,0
-665,-608,0,0,0,0,0,0,0,0,0,-1,559,1632,0,0
-658,-608,0,0,0,0,0,0,0,0,0,-1,566,1632,0,0
-651,-608,0,0,0,0,0,0,0,0,0,-1,573,1632,0,0
-644,-608,0,0,0,0,0,0,0,0,0,-1,580,1632,0,0
-637,-608,0,0,0,0,0,0,0,0,0,-1,587,1632,0,0
-630,-608,0,0,0,0,0,0,0,0,0,-1,594,1632,0,0
-623,-608,0,0,0,0,0,0,0,0,0,-1,601,1632,0,0
-616,-608,0,0,0,0,0,0,0,0,0,-1,608,1632,0,0
-609,-608,0,0,0,0,0,0,0,0,0,-1,615,1632,0,0
-602,-608,0,0,0,0,0,0,0,0,0,-1,622,1632,0,0
-595,-608,0,0,0,0,0,0,0,0,0,-1,629,1632,0,0
-588,-608,0,0,0,0,0,0,0,0,0,-1,636,1632,0,0
-581,-608,0,0,0,0,0,0,0,0,0,-1,643,1632,0,0
-574,-608,0,0,0,0,0,0,0,0,0,-1,650,1632,0,0
-567,-608,0,0,0,0,0,0,0,0,0,-1,657,1632,0,0
-560,-608,0,0,0,0,0,0,0,0,0,-1,664,1632,0,0
-553,-608,0,0,0,0,0,0,0,0,0,-1,671,1632,0,0
-546,-608,0,0,0,0,0,0,0,0,0,-1,678,1632,0,0
-539,-608,0,0,0,0,0,0,0,0,0,-1,685,1632,0,0
-532,-608,0,0,0,0,0,0,0,0,0,-1,692,1632,0,0
-525,-608,0,0,0,0,0,0,0,0,0,-1,699,1632,0,0
-518,-608,0,0,0,0,0,0,0,0,0,-1,706,1632,0,0
-511,-608,0,0,0,0,0,0,0,0,0,-1,713,1632,0,0
-504,-608,0,0,0,0,0,0,0,0,0,-1,720,1632,0,0
-497,-608,0,0,0,0,0,0,0,0,0,-1,727,1632,0,0
-490,-608,0,0,0,0,0,0,0,0,0,-1,734,1632,0,0
-483,-608,0,0,0,0,0,0,0,0,0,-1,741,1632,0,0
-476,-608,0,0,0,0,0,0,0,0,0,-1,748,1632,0,0
-469,-608,0,0,0,0,0,0,0,0,0,-1,755,1632,0,0
-462,-608,0,0,0,0,0,0,0,0,0,-1,762,1632,0,0
-455,-608,0,0,0,0,0,0,0,0,0,-1,769,1632,0,0
-448,-608,0,0,0,0,0,0,0,0,0,-1,776,1632,0,0
-441,-608,-7.34601,2.78052,0,0,0,0,0,0,0,-1,783,1632,-7.346,-2.78056
-434,-608,-6.34558,3.27405,0,0,0,0,0,0,0,-1,790,1632,-6.34555,-3.27406
-427,-608,-7.74335,4.17688,0,0,0,0,0,0,0,-1,797,1632,-7.74334,-4.17693
-420,-608,-6.82794,4.34839,0,0,0,0,0,0,0,-1,804,1632,-6.82794,-4.34838
-413,-608,-5.41919,5.66138,0,0,0,0,0,0,0,-1,811,1632,-5.41917,-5.66133
-406,-608,-4.79681,4.98999,0,0,0,0,0,0,0,-1,818,1632,-4.79684,-4.98997
-399,-608,-2.60645,6.34167,0,0,0,0,0,0,0,-1,825,1632,-2.60643,-6.34169
-392,-608,2.08356,15.437,0,0,0,0,0,0,0,-1,832,1632,2.08354,-15.437
-385,-608,1.51526,31.5153,0,0,0,0,0,0,0,-1,839,1632,1.51527,-31.5153
-378,-608,0.340515,38.2742,0,0,0,0,0,0,0,-1,846,1632,0.340526,-38.2742
-371,-608,0.0119629,42.4453,0,0,0,0,0,0,0,-1,853,1632,0.0119478,-42.4453
-364,-608,-0.11908,43.3427,0.000212316,0.00113974,0.00263503,0.00335154,-0.00199949,0.872496,0.00312212,0.0286476,860,1632,-0.119059,-43.3427
-357,-608,-0.260559,44.2595,-9.29171e-05,0.000285165,0.00182309,0.00192899,-0.00173674,0.83706,0.00211738,0.02032,867,1632,-0.260563,-44.2596
-350,-608,-0.309937,45.1284,-0.000148242,-6.53471e-05,0.001313,0.00120686,-0.00142045,0.801176,0.00151854,0.0204114,874,1632,-0.309959,-45.1284
-343,-608,-0.38562,45.981,6.58098e-05,-0.000145504,0.0010102,0.000975866,-0.00105556,0.733293,0.00117315,0.0274438,881,1632,-0.385634,-45.9809
-336,-608,-0.438416,46.829,0.000393597,4.03219e-05,0.000903847,0.0011379,-0.000703986,0.6889,0.00107321,0.0204205,888,1632,-0.438416,-46.829
-329,-608,-0.50116,47.6251,0.000761496,0.000374576,0.000908513,0.00149692,-0.000360846,0.680494,0.00113747,0.0193028,895,1632,-0.501172,-47.6251
-322,-608,-0.535278,48.3782,0.00126383,0.000885059,0.0010623,0.0021535,-4.60958e-06,0.697186,0.0014372,0.0190232,902,1632,-0.535259,-48.3781
-315,-608,-0.555481,49.1058,0.00198517,0.00142719,0.00147678,0.00320908,0.000203278,0.692038,0.00207495,0.018154,909,1632,-0.555471,-49.1058
-308,-608,-0.611694,49.8969,0.00291163,0.00197258,0.0021188,0.00461231,0.000271903,0.676361,0.00298836,0.0185923,916,1632,-0.611688,-49.8968
-301,-608,-0.63092,50.6885,0.00414711,0.00265451,0.00284673,0.00634374,0.00045788,0.657203,0.00408509,0.0120712,923,1632,-0.63091,-50.6885
-294,-608,-0.641724,51.4478,0.00584908,0.00359281,0.00407285,0.00894715,0.00049474,0.650291,0.00580688,0.0113842,930,1632,-0.64173,-51.4478
-287,-608,-0.678528,52.2045,0.00747425,0.00447359,0.00527267,0.0114559,0.000491946,0.646787,0.00747868,0.01088,937,1632,-0.678531,-52.2045
-280,-608,-0.691406,52.9513,0.00927201,0.00550792,0.00667679,0.0143269,0.000452991,0.648023,0.00940394,0.00971883,944,1632,-0.691385,-52.9513
-273,-608,-0.733887,53.7148,0.0112968,0.0064797,0.00819151,0.0174265,0.000349999,0.642412,0.0115028,0.011155,951,1632,-0.733886,-53.7148
-266,-608,-0.735596,54.4928,0.0134532,0.00752641,0.00981563,0.020743,0.000236584,0.638797,0.0137505,0.0120939,958,1632,-0.735616,-54.4928
-259,-608,-0.700684,55.2137,0.0157205,0.0088532,0.0116,0.0243843,0.000189364,0.641505,0.0161935,0.0159371,965,1632,-0.700683,-55.2137
-252,-608,-0.588745,55.9615,0.0179991,0.0101261,0.0133876,0.028017,0.000108243,0.642409,0.018642,0.0294067,972,1632,-0.588748,-55.9616
-245,-608,-0.0244141,57.1133,0.0198807,0.0113548,0.0150731,0.0312821,-4.65643e-05,0.647587,0.0208703,0.0420218,979,1632,-0.0244049,-57.1133
-238,-608,-0.401245,57.8429,0,0,0,0,0,0,0,-1,986,1632,-0.401239,-57.843
-231,-608,-0.508728,58.4554,0,0,0,0,0,0,0,-1,993,1632,-0.508758,-58.4554
-224,-608,0.697327,54.9709,0,0,0,0,0,0,0,-1,1000,1632,0.697303,-54.9709
-217,-608,1.04419,12.8451,0,0,0,0,0,0,0,-1,1007,1632,1.04418,-12.8451
-210,-608,2.75903,15.9414,0,0,0,0,0,0,0,-1,1014,1632,2.75903,-15.9414
-203,-608,2.76776,16.217,0,0,0,0,0,0,0,-1,1021,1632,2.76773,-16.217
-196,-608,1.53955,18.6058,0,0,0,0,0,0,0,-1,1028,1632,1.53959,-18.6058
-189,-608,1.37634,19.119,0,0,0,0,0,0,0,-1,1035,1632,1.37634,-19.1191
-182,-608,2.89221,16.7092,0,0,0,0,0,0,0,-1,1042,1632,2.89224,-16.7093
-175,-608,0.219116,15.1643,0,0,0,0,0,0,0,-1,1049,1632,0.219173,-15.1644
-168,-608,0.000366211,9.48645,0,0,0,0,0,0,0,-1,1056,1632,0.000317105,-9.48648
-161,-608,2.27832,15.4423,0,0,0,0,0,0,0,-1,1063,1632,2.27826,-15.4423
-154,-608,1.3999,16.4037,0,0,0,0,0,0,0,-1,1070,1632,1.39987,-16.4037
-147,-608,2.4386,9.50317,0,0,0,0,0,0,0,-1,1077,1632,2.43858,-9.50313
-140,-608,2.60132,10.8401,0,0,0,0,0,0,0,-1,1084,1632,2.60134,-10.8401
-133,-608,3.2312,12.4738,0,0,0,0,0,0,0,-1,1091,1632,3.23116,-12.4738
-126,-608,3.76465,13.9644,0,0,0,0,0,0,0,-1,1098,1632,3.76466,-13.9644
-119,-608,4.28906,15.4196,0,0,0,0,0,0,0,-1,1105,1632,4.28911,-15.4195
-112,-608,0.745117,10.5587,0,0,0,0,0,0,0,-1,1112,1632,0.745145,-10.5587
-105,-608,-0.252319,1.42419,0,0,0,0,0,0,0,-1,1119,1632,-0.252331,-1.42418
-98,-608,-2.8595,3.0863,0,0,0,0,0,0,0,-1,1126,1632,-2.85948,-3.08625
-91,-608,-3.71948,1.73608,0,0,0,0,0,0,0,-1,1133,1632,-3.7195,-1.73607
-84,-608,0,0,0,0,0,0,0,0,0,-1,1140,1632,0,0
-77,-608,0,0,0,0,0,0,0,0,0,-1,1147,1632,0,0
-70,-608,0,0,0,0,0,0,0,0,0,-1,1154,1632,0,0
-63,-608,0,0,0,0,0,0,0,0,0,-1,1161,1632,0,0
-56,-608,0,0,0,0,0,0,0,0,0,-1,1168,1632,0,0
-49,-608,0,0,0,0,0,0,0,0,0,-1,1175,1632,0,0
-42,-608,0,0,0,0,0,0,0,0,0,-1,1182,1632,0,0
-35,-608,0,0,0,0,0,0,0,0,0,-1,1189,1632,0,0
-28,-608,0,0,0,0,0,0,0,0,0,-1,1196,1632,0,0
-21,-608,0,0,0,0,0,0,0,0,0,-1,1203,1632,0,0
-14,-608,0,0,0,0,0,0,0,0,0,-1,1210,1632,0,0
-7,-608,0,0,0,0,0,0,0,0,0,-1,1217,1632,0,0
0,-608,0,0,0,0,0,0,0,0,0,-1,1224,1632,0,0
7,-608,0,0,0,0,0,0,0,0,0,-1,1231,1632,0,0
14,-608,0,0,0,0,0,0,0,0,0,-1,1238,1632,0,0
21,-608,0,0,0,0,0,0,0,0,0,-1,1245,1632,0,0
28,-608,0,0,0,0,0,0,0,0,0,-1,1252,1632,0,0
35,-608,0,0,0,0,0,0,0,0,0,-1,1259,1632,0,0
42,-608,0,0,0,0,0,0,0,0,0,-1,1266,1632,0,0
49,-608,0,0,0,0,0,0,0,0,0,-1,1273,1632,0,0
56,-608,0,0,0,0,0,0,0,0,0,-1,1280,1632,0,0
63,-608,0,0,0,0,0,0,0,0,0,-1,1287,1632,0,0
70,-608,0,0,0,0,0,0,0,0,0,-1,1294,1632,0,0
77,-608,0,0,0,0,0,0,0,0,0,-1,1301,1632,0,0
84,-608,0,0,0,0,0,0,0,0,0,-1,1308,1632,0,0
91,-608,0,0,0,0,0,0,0,0,0,-1,1315,1632,0,0
98,-608,0,0,0,0,0,0,0,0,0,-1,1322,1632,0,0
105,-608,0,0,0,0,0,0,0,0,0,-1,1329,1632,0,0
112,-608,0,0,0,0,0,0,0,0,0,-1,1336,1632,0,0
119,-608,0,0,0,0,0,0,0,0,0,-1,1343,1632,0,0
126,-608,0,0,0,0,0,0,0,0,0,-1,1350,1632,0,0
133,-608,0,0,0,0,0,0,0,0,0,-1,1357,1632,0,0
140,-608,0,0,0,0,0,0,0,0,0,-1,1364,1632,0,0
147,-608,0,0,0,0,0,0,0,0,0,-1,1371,1632,0,0
154,-608,0,0,0,0,0,0,0,0,0,-1,1378,1632,0,0
161,-608,0,0,0,0,0,0,0,0,0,-1,1385,1632,0,0
168,-608,0,0,0,0,0,0,0,0,0,-1,1392,1632,0,0
175,-608,0,0,0,0,0,0,0,0,0,-1,1399,1632,0,0
182,-608,0,0,0,0,0,0,0,0,0,-1,1406,1632,0,0
189,-608,0,0,0,0,0,0,0,0,0,-1,1413,1632,0,0
196,-608,0,0,0,0,0,0,0,0,0,-1,1420,1632,0,0
203,-608,0,0,0,0,0,0,0,0,0,-1,1427,1632,0,0
210,-608,5.7157,-0.333008,0,0,0,0,0,0,0,-1,1434,1632,5.71566,0.333004
217,-608,4.49402,-0.831787,0,0,0,0,0,0,0,-1,1441,1632,4.49396,0.831738
224,-608,4.18018,-1.11792,0,0,0,0,0,0,0,-1,1448,1632,4.1802,1.11796
231,-608,0.361816,0.825195,0,0,0,0,0,0,0,-1,1455,1632,0.36185,-0.825226
238,-608,2.85388,-0.28833,0,0,0,0,0,0,0,-1,1462,1632,2.85391,0.288282
245,-608,3.87537,4.02173,0,0,0,0,0,0,0,-1,1469,1632,3.87538,-4.02168
252,-608,5.66956,3.5282,0,0,0,0,0,0,0,-1,1476,1632,5.6696,-3.52815
259,-608,7.47437,3.07178,0,0,0,0,0,0,0,-1,1483,1632,7.4744,-3.07172
266,-608,9.46936,2.34766,0,0,0,0,0,0,0,-1,1490,1632,9.46932,-2.34764
273,-608,6.03003,3.34241,0,0,0,0,0,0,0,-1,1497,1632,6.02997,-3.34245
280,-608,5.72461,2.0769,0,0,0,0,0,0,0,-1,1504,1632,5.72457,-2.07688
287,-608,6.20581,3.59338,0,0,0,0,0,0,0,-1,1511,1632,6.20585,-3.59341
294,-608,6.94922,5.17151,0,0,0,0,0,0,0,-1,1518,1632,6.94925,-5.17151
301,-608,7.60083,6.68018,0,0,0,0,0,0,0,-1,1525,1632,7.60086,-6.68013
308,-608,7.64746,9.93848,0,0,0,0,0,0,0,-1,1532,1632,7.64745,-9.93842
315,-608,5.30688,11.2054,0,0,0,0,0,0,0,-1,1539,1632,5.30694,-11.2054
322,-608,5.32617,13.7581,0,0,0,0,0,0,0,-1,1546,1632,5.32613,-13.758
329,-608,7.12231,13.9607,0,0,0,0,0,0,0,-1,1553,1632,7.12231,-13.9607
336,-608,5.48633,7.82446,0,0,0,0,0,0,0,-1,1560,1632,5.48634,-7.82446
343,-608,5.47192,5.61047,0,0,0,0,0,0,0,-1,1567,1632,5.47192,-5.61045
350,-608,17.2754,61.3385,0,0,0,0,0,0,0,-1,1574,1632,17.2754,-61.3385
357,-608,17.7234,60.4229,0,0,0,0,0,0,0,-1,1581,1632,17.7234,-60.4228
364,-608,17.7697,58.984,0,0,0,0,0,0,0,-1,1588,1632,17.7697,-58.984
371,-608,18.053,57.1884,0,0,0,0,0,0,0,-1,1595,1632,18.0529,-57.1883
378,-608,18.3546,55.71,0.0104785,-0.030247,0.00559166,0.0112323,-0.0310008,0.133998,0.025258,0.033504,1602,1632,18.3546,-55.7099
385,-608,18.556,54.7153,0.00930611,-0.0224177,0.00481151,0.0100198,-0.0231314,0.147258,0.0196325,0.0318635,1609,1632,18.556,-54.7153
392,-608,18.5482,53.9855,0.00796923,-0.0155937,0.00400281,0.00863065,-0.0162551,0.163759,0.0145908,0.0225887,1616,1632,18.5482,-53.9855
399,-608,18.5669,53.226,0.00664271,-0.0101427,0.00322327,0.00724039,-0.0107403,0.183343,0.0104465,0.0109821,1623,1632,18.5669,-53.2259
406,-608,18.5842,52.4712,0.00547199,-0.00592728,0.00239049,0.00595299,-0.00640829,0.198564,0.0071384,0.010051,1630,1632,18.5843,-52.4712
413,-608,18.5491,51.7471,0.004779,-0.00122778,0.00143107,0.00510252,-0.0015513,0.222329,0.00401982,0.0114345,1637,1632,18.549,-51.747
420,-608,18.4961,51.0184,0.00401878,0.00157186,0.000601202,0.00415852,0.00143212,0.22837,0.00243937,0.0200669,1644,1632,18.4961,-51.0184
427,-608,18.4709,50.262,0.0024357,0.00213753,0.000271866,0.00259668,0.00197655,0.534596,0.00156589,0.0216084,1651,1632,18.4709,-50.262
434,-608,18.4171,49.5037,0.00209013,0.00185769,-0.000112596,0.00213573,0.00181209,-0.384776,0.00132914,0.0169842,1658,1632,18.4171,-49.5037
441,-608,18.4045,48.7458,0.00210965,0.00154417,-0.000780142,0.0026567,0.000997111,-0.611551,0.00154966,0.0146649,1665,1632,18.4045,-48.7458
448,-608,18.4159,48.0302,0.00214684,0.00101336,-0.00128608,0.00298552,0.000174684,-0.577865,0.00193475,0.0165869,1672,1632,18.4159,-48.0302
455,-608,18.4012,47.1942,0.00209522,0.000565614,-0.00166148,0.00315947,-0.000498636,-0.569698,0.00229069,0.0133155,1679,1632,18.4012,-47.1942
462,-608,18.3318,46.4125,0.00197998,9.03704e-05,-0.00191004,0.00316612,-0.00109577,-0.555718,0.00255555,0.0122331,1686,1632,18.3318,-46.4125
469,-608,18.2725,45.665,0.00182853,-0.000255982,-0.00214695,0.00317284,-0.00160029,-0.559425,0.00280518,0.00909824,1693,1632,18.2724,-45.6651
476,-608,18.2274,44.8811,0.00157079,-0.000608775,-0.00223333,0.00296604,-0.00200402,-0.558412,0.00288733,0.00969969,1700,1632,18.2275,-44.8811
483,-608,18.1871,44.0814,0.00129671,-0.0010811,-0.0023193,0.00271408,-0.00249847,-0.548555,0.00301032,0.00925665,1707,1632,18.1871,-44.0814
490,-608,18.1626,43.2792,0.000873567,-0.00125103,-0.00237763,0.00241541,-0.00279288,-0.575307,0.00300964,0.0127928,1714,1632,18.1626,-43.2792
497,-608,18.1772,42.4269,0.000454451,-0.00131962,-0.00239983,0.00212594,-0.00299111,-0.608374,0.00296837,0.0362023,1721,1632,18.1772,-42.4269
504,-608,18.3829,41.4175,0,0,0,0,0,0,0,-1,1728,1632,18.3829,-41.4175
511,-608,17.9456,41.0684,0,0,0,0,0,0,0,-1,1735,1632,17.9455,-41.0684
518,-608,18.8019,37.4651,0,0,0,0,0,0,0,-1,1742,1632,18.8019,-37.4651
525,-608,11.2109,16.2579,0,0,0,0,0,0,0,-1,1749,1632,11.2109,-16.2579
532,-608,8.27917,11.6693,0,0,0,0,0,0,0,-1,1756,1632,8.27919,-11.6694
539,-608,9.40796,1.43457,0,0,0,0,0,0,0,-1,1763,1632,9.40801,-1.43463
546,-608,9.94031,2.1134,0,0,0,0,0,0,0,-1,1770,1632,9.94031,-2.11346
553,-608,10.363,2.81335,0,0,0,0,0,0,0,-1,1777,1632,10.3631,-2.81333
560,-608,9.23999,4.5636,0,0,0,0,0,0,0,-1,1784,1632,9.24,-4.56354
567,-608,0,0,0,0,0,0,0,0,0,-1,1791,1632,0,0
574,-608,0,0,0,0,0,0,0,0,0,-1,1798,1632,0,0
581,-608,0,0,0,0,0,0,0,0,0,-1,1805,1632,0,0
588,-608,0,0,0,0,0,0,0,0,0,-1,1812,1632,0,0
595,-608,0,0,0,0,0,0,0,0,0,-1,1819,1632,0,0
602,-608,0,0,0,0,0,0,0,0,0,-1,1826,1632,0,0
609,-608,0,0,0,0,0,0,0,0,0,-1,1833,1632,0,0
616,-608,0,0,0,0,0,0,0,0,0,-1,1840,1632,0,0
623,-608,0,0,0,0,0,0,0,0,0,-1,1847,1632,0,0
630,-608,0,0,0,0,0,0,0,0,0,-1,1854,1632,0,0
637,-608,0,0,0,0,0,0,0,0,0,-1,1861,1632,0,0
644,-608,0,0,0,0,0,0,0,0,0,-1,1868,1632,0,0
651,-608,0,0,0,0,0,0,0,0,0,-1,1875,1632,0,0
658,-608,0,0,0,0,0,0,0,0,0,-1,1882,1632,0,0
665,-608,0,0,0,0,0,0,0,0,0,-1,1889,1632,0,0
672,-608,0,0,0,0,0,0,0,0,0,-1,1896,1632,0,0
679,-608,0,0,0,0,0,0,0,0,0,-1,1903,1632,0,0
686,-608,0,0,0,0,0,0,0,0,0,-1,1910,1632,0,0
693,-608,0,0,0,0,0,0,0,0,0,-1,1917,1632,0,0
700,-608,0,0,0,0,0,0,0,0,0,-1,1924,1632,0,0
707,-608,0,0,0,0,0,0,0,0,0,-1,1931,1632,0,0
714,-608,0,0,0,0,0,0,0,0,0,-1,1938,1632,0,0
721,-608,0,0,0,0,0,0,0,0,0,-1,1945,1632,0,0
728,-608,0,0,0,0,0,0,0,0,0,-1,1952,1632,0,0
735,-608,0,0,0,0,0,0,0,0,0,-1,1959,1632,0,0
742,-608,0,0,0,0,0,0,0,0,0,-1,1966,1632,0,0
749,-608,0,0,0,0,0,0,0,0,0,-1,1973,1632,0,0
756,-608,0,0,0,0,0,0,0,0,0,-1,1980,1632,0,0
763,-608,0,0,0,0,0,0,0,0,0,-1,1987,1632,0,0
770,-608,0,0,0,0,0,0,0,0,0,-1,1994,1632,0,0
777,-608,0,0,0,0,0,0,0,0,0,-1,2001,1632,0,0
784,-608,0,0,0,0,0,0,0,0,0,-1,2008,1632,0,0
791,-608,0,0,0,0,0,0,0,0,0,-1,2015,1632,0,0
798,-608,0,0,0,0,0,0,0,0,0,-1,2022,1632,0,0
805,-608,0,0,0,0,0,0,0,0,0,-1,2029,1632,0,0
812,-608,0,0,0,0,0,0,0,0,0,-1,2036,1632,0,0
-700,-615,0,0,0,0,0,0,0,0,0,-1,524,1639,0,0
-693,-615,0,0,0,0,0,0,0,0,0,-1,531,1639,0,0
-686,-615,0,0,0,0,0,0,0,0,0,-1,538,1639,0,0
-679,-615,0,0,0,0,0,0,0,0,0,-1,545,1639,0,0
-672,-615,0,0,0,0,0,0,0,0,0,-1,552,1639,0,0
-665,-615,0,0,0,0,0,0,0,0,0,-1,559,1639,0,0
-658,-615,0,0,0,0,0,0,0,0,0,-1,566,1639,0,0
-651,-615,0,0,0,0,0,0,0,0,0,-1,573,1639,0,0
-644,-615,0,0,0,0,0,0,0,0,0,-1,580,1639,0,0
-637,-615,0,0,0,0,0,0,0,0,0,-1,587,1639,0,0
-630,-615,0,0,0,0,0,0,0,0,0,-1,594,1639,0,0
-623,-615,0,0,0,0,0,0,0,0,0,-1,601,1639,0,0
-616,-615,0,0,0,0,0,0,0,0,0,-1,608,1639,0,0
-609,-615,0,0,0,0,0,0,0,0,0,-1,615,1639,0,0
-602,-615,0,0,0,0,0,0,0,0,0,-1,622,1639,0,0
-595,-615,0,0,0,0,0,0,0,0,0,-1,629,1639,0,0
-588,-615,0,0,0,0,0,0,0,0,0,-1,636,1639,0,0
-581,-615,0,0,0,0,0,0,0,0,0,-1,643,1639,0,0
-574,-615,0,0,0,0,0,0,0,0,0,-1,650,1639,0,0
-567,-615,0,0,0,0,0,0,0,0,0,-1,657,1639,0,0
-560,-615,0,0,0,0,0,0,0,0,0,-1,664,1639,0,0
-553,-615,0,0,0,0,0,0,0,0,0,-1,671,1639,0,0
-546,-615,0,0,0,0,0,0,0,0,0,-1,678,1639,0,0
-539,-615,0,0,0,0,0,0,0,0,0,-1,685,1639,0,0
-532,-615,0,0,0,0,0,0,0,0,0,-1,692,1639,0,0
-525,-615,0,0,0,0,0,0,0,0,0,-1,699,1639,0,0
-518,-615,0,0,0,0,0,0,0,0,0,-1,706,1639,0,0
-511,-615,0,0,0,0,0,0,0,0,0,-1,713,1639,0,0
-504,-615,0,0,0,0,0,0,0,0,0,-1,720,1639,0,0
-497,-615,0,0,0,0,0,0,0,0,0,-1,727,1639,0,0
-490,-615,0,0,0,0,0,0,0,0,0,-1,734,1639,0,0
-483,-615,0,0,0,0,0,0,0,0,0,-1,741,1639,0,0
-476,-615,0,0,0,0,0,0,0,0,0,-1,748,1639,0,0
-469,-615,0,0,0,0,0,0,0,0,0,-1,755,1639,0,0
-462,-615,0,0,0,0,0,0,0,0,0,-1,762,1639,0,0
-455,-615,0,0,0,0,0,0,0,0,0,-1,769,1639,0,0
-448,-615,0,0,0,0,0,0,0,0,0,-1,776,1639,0,0
-441,-615,0,0,0,0,0,0,0,0,0,-1,783,1639,0,0
-434,-615,-7.64508,2.98596,0,0,0,0,0,0,0,-1,790,1639,-7.64505,-2.98594
-427,-615,-9.0011,2.89404,0,0,0,0,0,0,0,-1,797,1639,-9.00107,-2.89399
-420,-615,-8.07568,3.0752,0,0,0,0,0,0,0,-1,804,1639,-8.07569,-3.07514
-413,-615,-7.09149,3.396,0,0,0,0,0,0,0,-1,811,1639,-7.09147,-3.39599
-406,-615,-6.21368,3.7312,0,0,0,0,0,0,0,-1,818,1639,-6.21366,-3.73114
-399,-615,-4.84875,3.91907,0,0,0,0,0,0,0,-1,825,1639,-4.84877,-3.91901
-392,-615,1.7395,13.3127,0,0,0,0,0,0,0,-1,832,1639,1.73953,-13.3128
-385,-615,3.42297,14.9401,0,0,0,0,0,0,0,-1,839,1639,3.42296,-14.94
-378,-615,1.50134,37.1793,0,0,0,0,0,0,0,-1,846,1639,1.50132,-37.1793
-371,-615,0.838196,39.9268,0,0,0,0,0,0,0,-1,853,1639,0.838195,-39.9268
-364,-615,0.52832,43.5266,0,0,0,0,0,0,0,-1,860,1639,0.528343,-43.5266
-357,-615,0.618225,44.5448,-0.000521469,0.00048137,0.00185441,0.00190095,-0.00194105,0.917437,0.00221822,0.0398315,867,1639,0.618214,-44.5448
-350,-615,0.480896,45.3016,-0.000708129,1.5016e-05,0.00129667,0.000999585,-0.0016927,0.921367,0.00157147,0.0381074,874,1639,0.480901,-45.3016
-343,-615,0.38916,45.9921,-0.00056293,-0.00018961,0.000926663,0.000569006,-0.00132155,0.884784,0.00111996,0.0219363,881,1639,0.389165,-45.992
-336,-615,0.369019,46.8079,-0.000294569,-0.000135679,0.000745258,0.000534356,-0.000964604,0.838498,0.000877228,0.0112439,888,1639,0.369011,-46.8079
-329,-615,0.302307,47.6135,-2.48404e-05,0.000123803,0.000702676,0.000756077,-0.000657114,0.838087,0.000816572,0.0123562,895,1639,0.302337,-47.6136
-322,-615,0.268677,48.4159,0.000332506,0.000515578,0.00077231,0.00120176,-0.000353673,0.844384,0.000941473,0.0138887,902,1639,0.268692,-48.4159
-315,-615,0.234131,49.2289,0.000888946,0.000929065,0.00103595,0.00194515,-0.000127136,0.795079,0.00134115,0.0172406,909,1639,0.234112,-49.2289
-308,-615,0.135864,50.0177,0.00166256,0.00133534,0.00148838,0.00299629,1.60735e-06,0.730655,0.00199699,0.025239,916,1639,0.13584,-50.0177
-301,-615,0.151733,50.7389,0.00269994,0.00190942,0.00204095,0.00438355,0.000225808,0.68975,0.00285008,0.0145253,923,1639,0.151712,-50.7389
-294,-615,0.112244,51.4974,0.00411935,0.00265888,0.00298634,0.00646344,0.000314789,0.665489,0.00420795,0.0110761,930,1639,0.11224,-51.4974
-287,-615,0.0635986,52.2468,0.00543804,0.00335959,0.00389764,0.00843262,0.000365013,0.655115,0.00550411,0.00802715,937,1639,0.0635838,-52.2468
-280,-615,0.0612793,52.9863,0.00689527,0.00418496,0.00493916,0.0106618,0.00041842,0.651508,0.00697258,0.0108234,944,1639,0.0613034,-52.9863
-273,-615,0.0157471,53.7455,0.00852285,0.00493308,0.00604051,0.0130295,0.000426434,0.640982,0.00854773,0.013433,951,1639,0.0157405,-53.7455
-266,-615,-0.0380859,54.4811,0.0102015,0.00574214,0.00718485,0.0154947,0.000448958,0.634944,0.0101834,0.0142728,958,1639,-0.0380774,-54.4811
-259,-615,-0.0222778,55.1899,0.0119314,0.00677425,0.00838846,0.0181287,0.000576993,0.636284,0.0118981,0.0147635,965,1639,-0.0222846,-55.19
-252,-615,-0.00854492,55.9631,0.0135983,0.00779526,0.00954716,0.0206751,0.000718457,0.637875,0.0135503,0.0165084,972,1639,-0.00855488,-55.9631
-245,-615,0.107117,56.7969,0.0148957,0.00866465,0.0106019,0.0228304,0.000729944,0.642489,0.0149829,0.0252501,979,1639,0.107111,-56.7968
-238,-615,0.14502,57.546,0.0148282,0.00843748,0.0115159,0.0235839,-0.000318191,0.650066,0.0158297,0.0341673,986,1639,0.145013,-57.546
-231,-615,0.122925,58.2852,0.0148681,0.00820713,0.01209,0.0240779,-0.00100273,0.650995,0.0163964,0.0467006,993,1639,0.122936,-58.2852
-224,-615,0.174316,59.2728,0,0,0,0,0,0,0,-1,1000,1639,0.174306,-59.2728
-217,-615,0.957642,58.5868,0,0,0,0,0,0,0,-1,1007,1639,0.957668,-58.5867
-210,-615,2.48901,18.9324,0,0,0,0,0,0,0,-1,1014,1639,2.48902,-18.9323
-203,-615,2.13684,18.6173,0,0,0,0,0,0,0,-1,1021,1639,2.13683,-18.6173
-196,-615,4.27161,21.3264,0,0,0,0,0,0,0,-1,1028,1639,4.27165,-21.3264
-189,-615,1.1543,59.7356,0,0,0,0,0,0,0,-1,1035,1639,1.15433,-59.7356
-182,-615,2.98364,52.7119,0,0,0,0,0,0,0,-1,1042,1639,2.9836,-52.7119
-175,-615,2.25159,49.2682,0,0,0,0,0,0,0,-1,1049,1639,2.25158,-49.2682
-168,-615,3.85754,15.472,0,0,0,0,0,0,0,-1,1056,1639,3.85757,-15.472
-161,-615,2.14307,46.5156,0,0,0,0,0,0,0,-1,1063,1639,2.14303,-46.5156
-154,-615,1.37329,47.9545,0,0,0,0,0,0,0,-1,1070,1639,1.37327,-47.9545
-147,-615,0.0180664,48.1396,0,0,0,0,0,0,0,-1,1077,1639,0.0180157,-48.1397
-140,-615,3.73401,10.2349,0,0,0,0,0,0,0,-1,1084,1639,3.73402,-10.2348
-133,-615,2.6178,17.45,0,0,0,0,0,0,0,-1,1091,1639,2.61776,-17.4499
-126,-615,4.43408,12.5017,0,0,0,0,0,0,0,-1,1098,1639,4.43403,-12.5018
-119,-615,4.82983,13.9279,0,0,0,0,0,0,0,-1,1105,1639,4.82986,-13.9278
-112,-615,3.65698,14.4874,0,0,0,0,0,0,0,-1,1112,1639,3.65695,-14.4875
-105,-615,0.958496,2.45398,0,0,0,0,0,0,0,-1,1119,1639,0.958452,-2.45398
-98,-615,-0.647705,2.12109,0,0,0,0,0,0,0,-1,1126,1639,-0.647756,-2.12105
-91,-615,-3.07983,2.97375,0,0,0,0,0,0,0,-1,1133,1639,-3.07989,-2.97376
-84,-615,-2.46509,0.703247,0,0,0,0,0,0,0,-1,1140,1639,-2.46505,-0.703273
-77,-615,-3.17859,1.23755,0,0,0,0,0,0,0,-1,1147,1639,-3.17865,-1.23752
-70,-615,-4.03943,1.43335,0,0,0,0,0,0,0,-1,1154,1639,-4.03942,-1.43339
-63,-615,-4.8877,1.45544,0,0,0,0,0,0,0,-1,1161,1639,-4.88766,-1.45549
-56,-615,0,0,0,0,0,0,0,0,0,-1,1168,1639,0,0
-49,-615,0,0,0,0,0,0,0,0,0,-1,1175,1639,0,0
-42,-615,0,0,0,0,0,0,0,0,0,-1,1182,1639,0,0
-35,-615,0,0,0,0,0,0,0,0,0,-1,1189,1639,0,0
-28,-615,0,0,0,0,0,0,0,0,0,-1,1196,1639,0,0
-21,-615,0,0,0,0,0,0,0,0,0,-1,1203,1639,0,0
-14,-615,0,0,0,0,0,0,0,0,0,-1,1210,1639,0,0
-7,-615,0,0,0,0,0,0,0,0,0,-1,1217,1639,0,0
0,-615,0,0,0,0,0,0,0,0,0,-1,1224,1639,0,0
7,-615,0,0,0,0,0,0,0,0,0,-1,1231,1639,0,0
14,-615,0,0,0,0,0,0,0,0,0,-1,1238,1639,0,0
21,-615,0,0,0,0,0,0,0,0,0,-1,1245,1639,0,0
28,-615,0,0,0,0,0,0,0,0,0,-1,1252,1639,0,0
35,-615,0,0,0,0,0,0,0,0,0,-1,1259,1639,0,0
42,-615,0,0,0,0,0,0,0,0,0,-1,1266,1639,0,0
49,-615,0,0,0,0,0,0,0,0,0,-1,1273,1639,0,0
56,-615,0,0,0,0,0,0,0,0,0,-1,1280,1639,0,0
63,-615,0,0,0,0,0,0,0,0,0,-1,1287,1639,0,0
70,-615,0,0,0,0,0,0,0,0,0,-1,1294,1639,0,0
77,-615,0,0,0,0,0,0,0,0,0,-1,1301,1639,0,0
84,-615,0,0,0,0,0,0,0,0,0,-1,1308,1639,0,0
91,-615,0,0,0,0,0,0,0,0,0,-1,1315,1639,0,0
98,-615,0,0,0,0,0,0,0,0,0,-1,1322,1639,0,0
105,-615,0,0,0,0,0,0,0,0,0,-1,1329,1639,0,0
112,-615,0,0,0,0,0,0,0,0,0,-1,1336,1639,0,0
119,-615,0,0,0,0,0,0,0,0,0,-1,1343,1639,0,0
126,-615,0,0,0,0,0,0,0,0,0,-1,1350,1639,0,0
133,-615,0,0,0,0,0,0,0,0,0,-1,1357,1639,0,0
140,-615,0,0,0,0,0,0,0,0,0,-1,1364,1639,0,0
147,-615,0,0,0,0,0,0,0,0,0,-1,1371,1639,0,0
154,-615,0,0,0,0,0,0,0,0,0,-1,1378,1639,0,0
161,-615,0,0,0,0,0,0,0,0,0,-1,1385,1639,0,0
168,-615,0,0,0,0,0,0,0,0,0,-1,1392,1639,0,0
175,-615,5.39648,-2.00879,0,0,0,0,0,0,0,-1,1399,1639,5.3965,2.00881
182,-615,5.65393,-1.51025,0,0,0,0,0,0,0,-1,1406,1639,5.65388,1.51028
189,-615,5.58972,-1.35608,0,0,0,0,0,0,0,-1,1413,1639,5.58967,1.35607
196,-615,5.49915,-0.693604,0,0,0,0,0,0,0,-1,1420,1639,5.4991,0.693602
203,-615,5.33411,-0.226685,0,0,0,0,0,0,0,-1,1427,1639,5.33414,0.226689
210,-615,5.60278,0.108276,0,0,0,0,0,0,0,-1,1434,1639,5.60284,-0.10831
217,-615,6.26331,-0.307373,0,0,0,0,0,0,0,-1,1441,1639,6.26331,0.307372
224,-615,5.45422,-0.333984,0,0,0,0,0,0,0,-1,1448,1639,5.45422,0.333992
231,-615,4.92542,1.80298,0,0,0,0,0,0,0,-1,1455,1639,4.92537,-1.80297
238,-615,4.76355,1.96729,0,0,0,0,0,0,0,-1,1462,1639,4.76357,-1.96734
245,-615,4.08643,3.15906,0,0,0,0,0,0,0,-1,1469,1639,4.08638,-3.159
252,-615,6.37805,3.73889,0,0,0,0,0,0,0,-1,1476,1639,6.37806,-3.73891
259,-615,8.35974,3.16443,0,0,0,0,0,0,0,-1,1483,1639,8.35975,-3.16444
266,-615,10.3414,2.58997,0,0,0,0,0,0,0,-1,1490,1639,10.3414,-2.58996
273,-615,6.57043,1.84766,0,0,0,0,0,0,0,-1,1497,1639,6.5704,-1.84771
280,-615,7.10449,3.23438,0,0,0,0,0,0,0,-1,1504,1639,7.10447,-3.23435
287,-615,7.35779,4.68542,0,0,0,0,0,0,0,-1,1511,1639,7.35776,-4.68546
294,-615,7.63733,6.29114,0,0,0,0,0,0,0,-1,1518,1639,7.63735,-6.29109
301,-615,8.47925,11.452,0,0,0,0,0,0,0,-1,1525,1639,8.47922,-11.452
308,-615,6.8114,10.9059,0,0,0,0,0,0,0,-1,1532,1639,6.81137,-10.9058
315,-615,5.1427,14.7251,0,0,0,0,0,0,0,-1,1539,1639,5.14269,-14.7251
322,-615,7.17981,17.6864,0,0,0,0,0,0,0,-1,1546,1639,7.17985,-17.6864
329,-615,7.62134,20.4354,0,0,0,0,0,0,0,-1,1553,1639,7.62139,-20.4354
336,-615,6.45007,14.1138,0,0,0,0,0,0,0,-1,1560,1639,6.45011,-14.1138
343,-615,2.40491,6.50134,0,0,0,0,0,0,0,-1,1567,1639,2.40489,-6.50137
350,-615,17.6599,58.2178,0,0,0,0,0,0,0,-1,1574,1639,17.6599,-58.2177
357,-615,17.3145,57.802,0,0,0,0,0,0,0,-1,1581,1639,17.3145,-57.802
364,-615,17.6014,57.078,0,0,0,0,0,0,0,-1,1588,1639,17.6014,-57.078
371,-615,17.7417,56.5497,0.011055,-0.0261696,0.00321518,0.0113307,-0.0264452,0.0855284,0.0223843,0.0381246,1595,1639,17.7416,-56.5497
378,-615,17.8622,55.4769,0.0100151,-0.0198758,0.00274768,0.0102656,-0.0201263,0.0909085,0.017852,0.0188815,1602,1639,17.8622,-55.4769
385,-615,17.8558,54.6685,0.00876469,-0.0144519,0.0023688,0.00900391,-0.0146912,0.100649,0.0138111,0.0120183,1609,1639,17.8558,-54.6684
392,-615,17.851,53.962,0.0073837,-0.00975849,0.00197417,0.00760811,-0.0099829,0.11319,0.010187,0.0115555,1616,1639,17.8509,-53.9621
399,-615,17.8293,53.2443,0.00603092,-0.00603291,0.0015624,0.00622999,-0.00623197,0.126726,0.00719492,0.0122224,1623,1639,17.8294,-53.2443
406,-615,17.8252,52.524,0.0048644,-0.00328895,0.00112225,0.00501605,-0.00344059,0.134315,0.00491061,0.012173,1630,1639,17.8252,-52.524
413,-615,17.8068,51.8151,0.00403812,-0.000318837,0.000582791,0.00411473,-0.000395444,0.1307,0.00288402,0.0132237,1637,1639,17.8068,-51.8151
420,-615,17.7664,51.0789,0.00326449,0.00128831,6.82989e-05,0.00326685,0.00128595,0.0345062,0.00190029,0.0143916,1644,1639,17.7663,-51.0788
427,-615,17.7349,50.3036,0.00216824,0.00141231,-0.000188282,0.00221254,0.00136801,-0.231082,0.00128927,0.0166417,1651,1639,17.7349,-50.3036
434,-615,17.6932,49.5411,0.00190701,0.00109264,-0.00053876,0.00217515,0.000824501,-0.461804,0.00126801,0.0160315,1658,1639,17.6933,-49.5412
441,-615,17.6667,48.7871,0.00194422,0.000713761,-0.00108756,0.00257851,7.94701e-05,-0.527992,0.00169314,0.0153486,1665,1639,17.6667,-48.7871
448,-615,17.6355,48.0356,0.00204478,0.000227229,-0.00156055,0.00294188,-0.000669868,-0.52173,0.00221851,0.015855,1672,1639,17.6355,-48.0357
455,-615,17.6167,47.2476,0.00209495,-0.000193942,-0.00195764,0.00321812,-0.00131712,-0.520887,0.00269401,0.0152823,1679,1639,17.6167,-47.2476
462,-615,17.5619,46.4967,0.00205519,-0.000678463,-0.00227412,0.00334163,-0.0019649,-0.514808,0.00309791,0.0152128,1686,1639,17.5619,-46.4967
469,-615,17.5103,45.7017,0.00201451,-0.00104574,-0.00259626,0.00349799,-0.00252923,-0.51912,0.00349477,0.0130702,1693,1639,17.5102,-45.7017
476,-615,17.4761,44.8977,0.00190963,-0.00138206,-0.00276415,0.00348082,-0.00295325,-0.516874,0.00371887,0.0130013,1700,1639,17.4761,-44.8977
483,-615,17.4855,44.0026,0.00181963,-0.00179143,-0.00295887,0.00348034,-0.00345214,-0.511452,0.00400248,0.0314523,1707,1639,17.4855,-44.0026
490,-615,17.4907,43.2108,0,0,0,0,0,0,0,-1,1714,1639,17.4908,-43.2108
497,-615,17.5115,42.2214,0,0,0,0,0,0,0,-1,1721,1639,17.5115,-42.2214
504,-615,16.4989,34.738,0,0,0,0,0,0,0,-1,1728,1639,16.4989,-34.738
511,-615,15.2349,30.2052,0,0,0,0,0,0,0,-1,1735,1639,15.2348,-30.2052
518,-615,13.2416,9.81812,0,0,0,0,0,0,0,-1,1742,1639,13.2416,-9.81813
525,-615,4.37524,3.90491,0,0,0,0,0,0,0,-1,1749,1639,4.37518,-3.90495
532,-615,7.3645,0.848145,0,0,0,0,0,0,0,-1,1756,1639,7.36451,-0.848093
539,-615,12.8112,-0.0476074,0,0,0,0,0,0,0,-1,1763,1639,12.8111,0.0475553
546,-615,8.33813,2.94556,0,0,0,0,0,0,0,-1,1770,1639,8.33813,-2.9455
553,-615,5.82532,-2.04199,0,0,0,0,0,0,0,-1,1777,1639,5.82534,2.04195
560,-615,0,0,0,0,0,0,0,0,0,-1,1784,1639,0,0
567,-615,0,0,0,0,0,0,0,0,0,-1,1791,1639,0,0
574,-615,0,0,0,0,0,0,0,0,0,-1,1798,1639,0,0
581,-615,0,0,0,0,0,0,0,0,0,-1,1805,1639,0,0
588,-615,0,0,0,0,0,0,0,0,0,-1,1812,1639,0,0
595,-615,0,0,0,0,0,0,0,0,0,-1,1819,1639,0,0
602,-615,0,0,0,0,0,0,0,0,0,-1,1826,1639,0,0
609,-615,0,0,0,0,0,0,0,0,0,-1,1833,1639,0,0
616,-615,0,0,0,0,0,0,0,0,0,-1,1840,1639,0,0
623,-615,0,0,0,0,0,0,0,0,0,-1,1847,1639,0,0
630,-615,0,0,0,0,0,0,0,0,0,-1,1854,1639,0,0
637,-615,0,0,0,0,0,0,0,0,0,-1,1861,1639,0,0
644,-615,0,0,0,0,0,0,0,0,0,-1,1868,1639,0,0
651,-615,0,0,0,0,0,0,0,0,0,-1,1875,1639,0,0
658,-615,0,0,0,0,0,0,0,0,0,-1,1882,1639,0,0
665,-615,0,0,0,0,0,0,0,0,0,-1,1889,1639,0,0
672,-615,0,0,0,0,0,0,0,0,0,-1,1896,1639,0,0
679,-615,0,0,0,0,0,0,0,0,0,-1,1903,1639,0,0
686,-615,0,0,0,0,0,0,0,0,0,-1,1910,1639,0,0
693,-615,0,0,0,0,0,0,0,0,0,-1,1917,1639,0,0
700,-615,0,0,0,0,0,0,0,0,0,-1,1924,1639,0,0
707,-615,0,0,0,0,0,0,0,0,0,-1,1931,1639,0,0
714,-615,0,0,0,0,0,0,0,0,0,-1,1938,1639,0,0
721,-615,0,0,0,0,0,0,0,0,0,-1,1945,1639,0,0
728,-615,0,0,0,0,0,0,0,0,0,-1,1952,1639,0,0
735,-615,0,0,0,0,0,0,0,0,0,-1,1959,1639,0,0
742,-615,0,0,0,0,0,0,0,0,0,-1,1966,1639,0,0
749,-615,0,0,0,0,0,0,0,0,0,-1,1973,1639,0,0
756,-615,0,0,0,0,0,0,0,0,0,-1,1980,1639,0,0
763,-615,0,0,0,0,0,0,0,0,0,-1,1987,1639,0,0
770,-615,0,0,0,0,0,0,0,0,0,-1,1994,1639,0,0
777,-615,0,0,0,0,0,0,0,0,0,-1,2001,1639,0,0
784,-615,0,0,0,0,0,0,0,0,0,-1,2008,1639,0,0
791,-615,0,0,0,0,0,0,0,0,0,-1,2015,1639,0,0
798,-615,0,0,0,0,0,0,0,0,0,-1,2022,1639,0,0
805,-615,0,0,0,0,0,0,0,0,0,-1,2029,1639,0,0
812,-615,0,0,0,0,0,0,0,0,0,-1,2036,1639,0,0
-700,-622,0,0,0,0,0,0,0,0,0,-1,524,1646,0,0
-693,-622,0,0,0,0,0,0,0,0,0,-1,531,1646,0,0
-686,-622,0,0,0,0,0,0,0,0,0,-1,538,1646,0,0
-679,-622,0,0,0,0,0,0,0,0,0,-1,545,1646,0,0
-672,-622,0,0,0,0,0,0,0,0,0,-1,552,1646,0,0
-665,-622,0,0,0,0,0,0,0,0,0,-1,559,1646,0,0
-658,-622,0,0,0,0,0,0,0,0,0,-1,566,1646,0,0
-651,-622,0,0,0,0,0,0,0,0,0,-1,573,1646,0,0
-644,-622,0,0,0,0,0,0,0,0,0,-1,580,1646,0,0
-637,-622,0,0,0,0,0,0,0,0,0,-1,587,1646,0,0
-630,-622,0,0,0,0,0,0,0,0,0,-1,594,1646,0,0
-623,-622,0,0,0,0,0,0,0,0,0,-1,601,1646,0,0
-616,-622,0,0,0,0,0,0,0,0,0,-1,608,1646,0,0
-609,-622,0,0,0,0,0,0,0,0,0,-1,615,1646,0,0
-602,-622,0,0,0,0,0,0,0,0,0,-1,622,1646,0,0
-595,-622,0,0,0,0,0,0,0,0,0,-1,629,1646,0,0
-588,-622,0,0,0,0,0,0,0,0,0,-1,636,1646,0,0
-581,-622,0,0,0,0,0,0,0,0,0,-1,643,1646,0,0
-574,-622,0,0,0,0,0,0,0,0,0,-1,650,1646,0,0
-567,-622,0,0,0,0,0,0,0,0,0,-1,657,1646,0,0
-560,-622,0,0,0,0,0,0,0,0,0,-1,664,1646,0,0
-553,-622,0,0,0,0,0,0,0,0,0,-1,671,1646,0,0
-546,-622,0,0,0,0,0,0,0,0,0,-1,678,1646,0,0
-539,-622,0,0,0,0,0,0,0,0,0,-1,685,1646,0,0
-532,-622,0,0,0,0,0,0,0,0,0,-1,692,1646,0,0
-525,-622,0,0,0,0,0,0,0,0,0,-1,699,1646,0,0
-518,-622,0,0,0,0,0,0,0,0,0,-1,706,1646,0,0
-511,-622,0,0,0,0,0,0,0,0,0,-1,713,1646,0,0
-504,-622,0,0,0,0,0,0,0,0,0,-1,720,1646,0,0
-497,-622,0,0,0,0,0,0,0,0,0,-1,727,1646,0,0
-490,-622,0,0,0,0,0,0,0,0,0,-1,734,1646,0,0
-483,-622,0,0,0,0,0,0,0,0,0,-1,741,1646,0,0
-476,-622,0,0,0,0,0,0,0,0,0,-1,748,1646,0,0
-469,-622,0,0,0,0,0,0,0,0,0,-1,755,1646,0,0
-462,-622,0,0,0,0,0,0,0,0,0,-1,762,1646,0,0
-455,-622,0,0,0,0,0,0,0,0,0,-1,769,1646,0,0
-448,-622,0,0,0,0,0,0,0,0,0,-1,776,1646,0,0
-441,-622,0,0,0,0,0,0,0,0,0,-1,783,1646,0,0
-434,-622,0,0,0,0,0,0,0,0,0,-1,790,1646,0,0
-427,-622,-7.62891,3.48096,0,0,0,0,0,0,0,-1,797,1646,-7.62892,-3.48092
-420,-622,-9.35791,1.77185,0,0,0,0,0,0,0,-1,804,1646,-9.35789,-1.77183
-413,-622,-8.46075,1.96777,0,0,0,0,0,0,0,-1,811,1646,-8.46074,-1.96774
-406,-622,-4.44318,2.16858,0,0,0,0,0,0,0,-1,818,1646,-4.44315,-2.16859
-399,-622,-7.06976,1.51001,0,0,0,0,0,0,0,-1,825,1646,-7.06976,-1.51005
-392,-622,3.89551,5.85376,0,0,0,0,0,0,0,-1,832,1646,3.8955,-5.85379
-385,-622,2.00543,14.0448,0,0,0,0,0,0,0,-1,839,1646,2.00544,-14.0448
-378,-622,1.49036,15.3436,0,0,0,0,0,0,0,-1,846,1646,1.49033,-15.3436
-371,-622,1.5274,38.0657,0,0,0,0,0,0,0,-1,853,1646,1.5274,-38.0657
-364,-622,1.17371,40.7305,0,0,0,0,0,0,0,-1,860,1646,1.17371,-40.7304
-357,-622,1.24341,44.3619,0,0,0,0,0,0,0,-1,867,1646,1.24341,-44.362
-350,-622,1.18671,45.3534,0,0,0,0,0,0,0,-1,874,1646,1.18673,-45.3533
-343,-622,1.04987,46.1167,-0.0010078,-0.000184391,0.000809976,0.000312509,-0.0015047,1.02053,0.00112191,0.0316085,881,1646,1.04986,-46.1167
-336,-622,1.1333,46.8411,-0.000875263,-0.000171199,0.000513003,9.89413e-05,-0.0011454,1.08611,0.000798628,0.0098992,888,1646,1.1333,-46.8411
-329,-622,1.06842,47.6337,-0.000773223,0.000122446,0.000378926,0.000261247,-0.000912024,1.21967,0.000711275,0.00845859,895,1646,1.06844,-47.6336
-322,-622,1.03778,48.4369,-0.000569184,0.000440183,0.000355297,0.000552704,-0.000681706,1.26409,0.000713983,0.0102727,902,1646,1.03776,-48.4369
-315,-622,1.00891,49.2518,-0.000179691,0.00075763,0.000467894,0.000951214,-0.000373275,1.17851,0.000788587,0.0142532,909,1646,1.00893,-49.2518
-308,-622,0.976318,50.0276,0.000437954,0.00105068,0.000748912,0.00155347,-6.48365e-05,0.979551,0.00105792,0.0146028,916,1646,0.976327,-50.0276
-301,-622,0.919312,50.7689,0.00128659,0.00152365,0.00115765,0.00256882,0.000241418,0.836413,0.00163802,0.0140613,923,1646,0.919316,-50.7689
-294,-622,0.860779,51.5265,0.00245628,0.00207849,0.00187754,0.0041544,0.000380365,0.735263,0.00265192,0.0106348,930,1646,0.860774,-51.5265
-287,-622,0.82782,52.26,0.00354018,0.0025923,0.00259783,0.00570695,0.000425532,0.695172,0.00367102,0.00799542,937,1646,0.827804,-52.26
-280,-622,0.793762,53.001,0.00474243,0.00319534,0.00340687,0.00746247,0.000475301,0.673764,0.00482436,0.0100526,944,1646,0.793756,-53.0009
-273,-622,0.775635,53.738,0.00609145,0.0037124,0.00426458,0.00932929,0.000474561,0.64939,0.00606753,0.0170925,951,1646,0.775658,-53.7381
-266,-622,0.720886,54.4623,0.00745463,0.00427388,0.00514233,0.0112469,0.000481616,0.635428,0.00734266,0.0165983,958,1646,0.72091,-54.4622
-259,-622,0.708557,55.2211,0.00883308,0.00499715,0.00600356,0.0132176,0.000612628,0.630787,0.00861479,0.0133461,965,1646,0.708536,-55.2211
-252,-622,0.706787,55.9366,0.0101087,0.00574382,0.00679328,0.0150615,0.000791006,0.629975,0.00978797,0.0130754,972,1646,0.706762,-55.9366
-245,-622,0.746033,56.6575,0.0110815,0.00629863,0.00747154,0.016535,0.00084515,0.630513,0.0107527,0.0117008,979,1646,0.74605,-56.6575
-238,-622,0.733582,57.3622,0.0110009,0.00594005,0.00800108,0.0168622,7.88011e-05,0.632244,0.0112153,0.0139837,986,1646,0.733555,-57.3622
-231,-622,0.763428,58.1354,0.0109141,0.00570808,0.00815631,0.0168727,-0.000250503,0.630936,0.0113329,0.020617,993,1646,0.763417,-58.1353
-224,-622,0.837952,58.7457,0.00997947,0.00527498,0.00825777,0.0162135,-0.000959032,0.646647,0.0111424,0.0333536,1000,1646,0.837948,-58.7458
-217,-622,0.931885,59.3723,0,0,0,0,0,0,0,-1,1007,1646,0.931887,-59.3723
-210,-622,1.24841,59.7146,0,0,0,0,0,0,0,-1,1014,1646,1.24841,-59.7146
-203,-622,4.21375,20.9574,0,0,0,0,0,0,0,-1,1021,1646,4.21375,-20.9574
-196,-622,3.13123,59.4995,0,0,0,0,0,0,0,-1,1028,1646,3.13118,-59.4996
-189,-622,1.16345,61.4103,0,0,0,0,0,0,0,-1,1035,1646,1.16348,-61.4102
-182,-622,0.649902,62.8046,0,0,0,0,0,0,0,-1,1042,1646,0.649933,-62.8046
-175,-622,3.61438,53.5428,0,0,0,0,0,0,0,-1,1049,1646,3.61438,-53.5428
-168,-622,3.44849,53.4453,0,0,0,0,0,0,0,-1,1056,1646,3.44848,-53.4453
-161,-622,2.79761,52.5291,0,0,0,0,0,0,0,-1,1063,1646,2.79756,-52.529
-154,-622,2.00879,52.2384,0,0,0,0,0,0,0,-1,1070,1646,2.00874,-52.2384
-147,-622,0.939453,52.2694,0,0,0,0,0,0,0,-1,1077,1646,0.939511,-52.2694
-140,-622,0.546997,48.6783,0,0,0,0,0,0,0,-1,1084,1646,0.547022,-48.6784
-133,-622,3.09644,17.677,0,0,0,0,0,0,0,-1,1091,1646,3.09638,-17.677
-126,-622,3.5061,19.5251,0,0,0,0,0,0,0,-1,1098,1646,3.50616,-19.5252
-119,-622,4.06384,13.1715,0,0,0,0,0,0,0,-1,1105,1646,4.06379,-13.1716
-112,-622,4.33276,14.6605,0,0,0,0,0,0,0,-1,1112,1646,4.33281,-14.6605
-105,-622,0.306519,4.38159,0,0,0,0,0,0,0,-1,1119,1646,0.306536,-4.38159
-98,-622,-0.510376,3.5033,0,0,0,0,0,0,0,-1,1126,1646,-0.510393,-3.50324
-91,-622,-1.146,0.975952,0,0,0,0,0,0,0,-1,1133,1646,-1.14599,-0.97597
-84,-622,-2.04895,1.31787,0,0,0,0,0,0,0,-1,1140,1646,-2.0489,-1.31781
-77,-622,-1.80627,0.332275,0,0,0,0,0,0,0,-1,1147,1646,-1.80622,-0.33223
-70,-622,-3.65588,2.28149,0,0,0,0,0,0,0,-1,1154,1646,-3.65589,-2.28155
-63,-622,-2.49683,1.27087,0,0,0,0,0,0,0,-1,1161,1646,-2.49679,-1.27093
-56,-622,-2.44238,-0.575562,0,0,0,0,0,0,0,-1,1168,1646,-2.44242,0.575508
-49,-622,-2.41089,1.38818,0,0,0,0,0,0,0,-1,1175,1646,-2.41088,-1.38815
-42,-622,-2.71497,2.85242,0,0,0,0,0,0,0,-1,1182,1646,-2.71491,-2.85247
-35,-622,-3.0177,4.25842,0,0,0,0,0,0,0,-1,1189,1646,-3.01773,-4.25838
-28,-622,-0.896606,0.678833,0,0,0,0,0,0,0,-1,1196,1646,-0.89661,-0.678835
-21,-622,16.4141,36.2849,0,0,0,0,0,0,0,-1,1203,1646,16.4141,-36.285
-14,-622,-4.54675,49.5179,0,0,0,0,0,0,0,-1,1210,1646,-4.54671,-49.5179
-7,-622,-3.02295,48.9022,0,0,0,0,0,0,0,-1,1217,1646,-3.0229,-48.9022
0,-622,0,0,0,0,0,0,0,0,0,-1,1224,1646,0,0
7,-622,0,0,0,0,0,0,0,0,0,-1,1231,1646,0,0
14,-622,0,0,0,0,0,0,0,0,0,-1,1238,1646,0,0
21,-622,0,0,0,0,0,0,0,0,0,-1,1245,1646,0,0
28,-622,0,0,0,0,0,0,0,0,0,-1,1252,1646,0,0
35,-622,0,0,0,0,0,0,0,0,0,-1,1259,1646,0,0
42,-622,0,0,0,0,0,0,0,0,0,-1,1266,1646,0,0
49,-622,0,0,0,0,0,0,0,0,0,-1,1273,1646,0,0
56,-622,0,0,0,0,0,0,0,0,0,-1,1280,1646,0,0
63,-622,0,0,0,0,0,0,0,0,0,-1,1287,1646,0,0
70,-622,0,0,0,0,0,0,0,0,0,-1,1294,1646,0,0
77,-622,0,0,0,0,0,0,0,0,0,-1,1301,1646,0,0
84,-622,0,0,0,0,0,0,0,0,0,-1,1308,1646,0,0
91,-622,0,0,0,0,0,0,0,0,0,-1,1315,1646,0,0
98,-622,0,0,0,0,0,0,0,0,0,-1,1322,1646,0,0
105,-622,0,0,0,0,0,0,0,0,0,-1,1329,1646,0,0
112,-622,0,0,0,0,0,0,0,0,0,-1,1336,1646,0,0
119,-622,0,0,0,0,0,0,0,0,0,-1,1343,1646,0,0
126,-622,-1.66663,61.772,-0.127486,0.100843,-0.0786347,0.125304,-0.151947,-1.26922,0.160317,0.0420918,1350,1646,-1.66668,-61.7719
133,-622,-1.98743,61.8077,0,0,0,0,0,0,0,-1,1357,1646,-1.98748,-61.8077
140,-622,-2.01062,61.723,0,0,0,0,0,0,0,-1,1364,1646,-2.01061,-61.723
147,-622,-2.06384,61.6449,0,0,0,0,0,0,0,-1,1371,1646,-2.0638,-61.6448
154,-622,-1.13794,69.184,0,0,0,0,0,0,0,-1,1378,1646,-1.13799,-69.184
161,-622,10.6884,6.46448,0,0,0,0,0,0,0,-1,1385,1646,10.6883,-6.46442
168,-622,12.2402,5.18091,0,0,0,0,0,0,0,-1,1392,1646,12.2403,-5.1809
175,-622,5.64355,-1.77075,0,0,0,0,0,0,0,-1,1399,1646,5.64351,1.77077
182,-622,5.88586,-1.32251,0,0,0,0,0,0,0,-1,1406,1646,5.88587,1.32256
189,-622,5.97986,-1.18005,0,0,0,0,0,0,0,-1,1413,1646,5.97986,1.18003
196,-622,5.85022,-0.244507,0,0,0,0,0,0,0,-1,1420,1646,5.85026,0.244478
203,-622,5.25159,0.138794,0,0,0,0,0,0,0,-1,1427,1646,5.25162,-0.138822
210,-622,6.66833,0.0397949,0,0,0,0,0,0,0,-1,1434,1646,6.6684,-0.0398278
217,-622,6.12061,0.0506592,0,0,0,0,0,0,0,-1,1441,1646,6.12058,-0.0507181
224,-622,5.57275,0.0616455,0,0,0,0,0,0,0,-1,1448,1646,5.57276,-0.0616084
231,-622,5.31348,1.3949,0,0,0,0,0,0,0,-1,1455,1646,5.31342,-1.39495
238,-622,3.76477,2.90686,0,0,0,0,0,0,0,-1,1462,1646,3.7648,-2.90686
245,-622,5.13794,2.67993,0,0,0,0,0,0,0,-1,1469,1646,5.13796,-2.67992
252,-622,6.66528,2.53992,0,0,0,0,0,0,0,-1,1476,1646,6.66522,-2.53991
259,-622,8.93787,3.31458,0,0,0,0,0,0,0,-1,1483,1646,8.93791,-3.31454
266,-622,5.72644,3.11926,0,0,0,0,0,0,0,-1,1490,1646,5.72647,-3.1192
273,-622,7.28076,3.61218,0,0,0,0,0,0,0,-1,1497,1646,7.28071,-3.61212
280,-622,8.43127,4.4447,0,0,0,0,0,0,0,-1,1504,1646,8.43123,-4.44467
287,-622,8.60315,5.94617,0,0,0,0,0,0,0,-1,1511,1646,8.60319,-5.94622
294,-622,7.62756,11.5143,0,0,0,0,0,0,0,-1,1518,1646,7.62762,-11.5143
301,-622,7.36548,11.6569,0,0,0,0,0,0,0,-1,1525,1646,7.36549,-11.6569
308,-622,7.10339,11.7994,0,0,0,0,0,0,0,-1,1532,1646,7.10335,-11.7995
315,-622,8.28687,16.5842,0,0,0,0,0,0,0,-1,1539,1646,8.28689,-16.5843
322,-622,7.43689,20.5786,0,0,0,0,0,0,0,-1,1546,1646,7.43685,-20.5786
329,-622,9.76477,26.4202,0,0,0,0,0,0,0,-1,1553,1646,9.7648,-26.4202
336,-622,10.4526,28.8552,0,0,0,0,0,0,0,-1,1560,1646,10.4526,-28.8552
343,-622,16.9185,58.6677,0,0,0,0,0,0,0,-1,1567,1646,16.9185,-58.6677
350,-622,17.2539,58.3256,0,0,0,0,0,0,0,-1,1574,1646,17.254,-58.3256
357,-622,16.9714,57.6775,0.0110977,-0.0250624,0.00209337,0.0112185,-0.0251832,0.0576349,0.0215259,0.0386993,1581,1646,16.9714,-57.6775
364,-622,17.0568,56.9518,0.0106197,-0.0206116,0.00137669,0.0106802,-0.0206722,0.0439669,0.0184052,0.0336448,1588,1646,17.0568,-56.9518
371,-622,17.1525,56.2197,0.00984937,-0.0162914,0.00105851,0.00989216,-0.0163342,0.0404046,0.0152933,0.0213826,1595,1646,17.1525,-56.2197
378,-622,17.1721,55.443,0.00876761,-0.0121765,0.000894151,0.00880571,-0.0122146,0.0425889,0.0121892,0.0129722,1602,1646,17.1722,-55.443
385,-622,17.1415,54.7147,0.00759278,-0.00865908,0.000771635,0.00762933,-0.00869563,0.0473378,0.00943192,0.0102751,1609,1646,17.1414,-54.7147
392,-622,17.1179,54.0239,0.00632324,-0.00561158,0.00062072,0.00635543,-0.00564377,0.0518229,0.0069318,0.011495,1616,1646,17.1179,-54.0239
399,-622,17.0807,53.2839,0.00508361,-0.0031912,0.000419792,0.00510486,-0.00321244,0.0505582,0.00484325,0.0117272,1623,1646,17.0807,-53.2839
406,-622,17.069,52.5452,0.00404198,-0.00151765,0.000213142,0.00405014,-0.00152581,0.0382625,0.00332743,0.0157899,1630,1646,17.0689,-52.5451
413,-622,17.0563,51.8291,0.0032623,0.000179728,-8.98386e-05,0.00326491,0.000177112,-0.0291112,0.00212004,0.0167315,1637,1646,17.0563,-51.8291
420,-622,17.0148,51.1141,0.00258597,0.00093655,-0.000416177,0.00268503,0.000837491,-0.233674,0.00158634,0.0158078,1644,1646,17.0148,-51.1141
427,-622,16.9908,50.3364,0.00191989,0.000759215,-0.000655447,0.00221499,0.000464108,-0.423052,0.00134884,0.0131855,1651,1646,16.9908,-50.3364
434,-622,16.9651,49.5719,0.00178167,0.000403927,-0.00100253,0.00230919,-0.000123597,-0.48438,0.00158227,0.0140973,1658,1646,16.9651,-49.5719
441,-622,16.9156,48.8221,0.00187307,-4.22956e-05,-0.00145855,0.00266025,-0.000829467,-0.494897,0.00210518,0.0155455,1665,1646,16.9156,-48.8221
448,-622,16.8734,48.0764,0.00206874,-0.000505872,-0.00190228,0.00307835,-0.00151548,-0.487934,0.00270293,0.0147509,1672,1646,16.8734,-48.0765
455,-622,16.8466,47.3099,0.00226025,-0.000922492,-0.00231998,0.00348219,-0.00214444,-0.484784,0.003279,0.0169276,1679,1646,16.8465,-47.31
462,-622,16.8062,46.5427,0.00236117,-0.00143738,-0.00271505,0.00377531,-0.00285152,-0.48019,0.00383838,0.0174786,1686,1646,16.8062,-46.5427
469,-622,16.7252,45.7307,0.00250893,-0.00182283,-0.00315906,0.00417329,-0.00348719,-0.484897,0.00442868,0.0197624,1693,1646,16.7252,-45.7308
476,-622,16.8333,44.9315,0.00263029,-0.00216994,-0.00343462,0.0044203,-0.00395995,-0.480437,0.00484077,0.0401661,1700,1646,16.8333,-44.9315
483,-622,16.9584,44.0048,0,0,0,0,0,0,0,-1,1707,1646,16.9583,-44.0047
490,-622,15.8815,36.627,0,0,0,0,0,0,0,-1,1714,1646,15.8814,-36.6269
497,-622,14.9666,32.1024,0,0,0,0,0,0,0,-1,1721,1646,14.9665,-32.1024
504,-622,10.8306,19.8021,0,0,0,0,0,0,0,-1,1728,1646,10.8306,-19.8022
511,-622,5.29004,4.14587,0,0,0,0,0,0,0,-1,1735,1646,5.29008,-4.14589
518,-622,5.6001,1.55359,0,0,0,0,0,0,0,-1,1742,1646,5.60015,-1.5536
525,-622,5.83093,2.01807,0,0,0,0,0,0,0,-1,1749,1646,5.83097,-2.01802
532,-622,5.44202,0.57373,0,0,0,0,0,0,0,-1,1756,1646,5.44196,-0.573705
539,-622,9.32129,1.06116,0,0,0,0,0,0,0,-1,1763,1646,9.32131,-1.0612
546,-622,6.50977,-3.45618,0,0,0,0,0,0,0,-1,1770,1646,6.50981,3.4562
553,-622,0,0,0,0,0,0,0,0,0,-1,1777,1646,0,0
560,-622,0,0,0,0,0,0,0,0,0,-1,1784,1646,0,0
567,-622,0,0,0,0,0,0,0,0,0,-1,1791,1646,0,0
574,-622,0,0,0,0,0,0,0,0,0,-1,1798,1646,0,0
581,-622,0,0,0,0,0,0,0,0,0,-1,1805,1646,0,0
588,-622,0,0,0,0,0,0,0,0,0,-1,1812,1646,0,0
595,-622,0,0,0,0,0,0,0,0,0,-1,1819,1646,0,0
602,-622,0,0,0,0,0,0,0,0,0,-1,1826,1646,0,0
609,-622,0,0,0,0,0,0,0,0,0,-1,1833,1646,0,0
616,-622,0,0,0,0,0,0,0,0,0,-1,1840,1646,0,0
623,-622,0,0,0,0,0,0,0,0,0,-1,1847,1646,0,0
630,-622,0,0,0,0,0,0,0,0,0,-1,1854,1646,0,0
637,-622,0,0,0,0,0,0,0,0,0,-1,1861,1646,0,0
644,-622,0,0,0,0,0,0,0,0,0,-1,1868,1646,0,0
651,-622,0,0,0,0,0,0,0,0,0,-1,1875,1646,0,0
658,-622,0,0,0,0,0,0,0,0,0,-1,1882,1646,0,0
665,-622,0,0,0,0,0,0,0,0,0,-1,1889,1646,0,0
672,-622,0,0,0,0,0,0,0,0,0,-1,1896,1646,0,0
679,-622,0,0,0,0,0,0,0,0,0,-1,1903,1646,0,0
686,-622,0,0,0,0,0,0,0,0,0,-1,1910,1646,0,0
693,-622,0,0,0,0,0,0,0,0,0,-1,1917,1646,0,0
700,-622,0,0,0,0,0,0,0,0,0,-1,1924,1646,0,0
707,-622,0,0,0,0,0,0,0,0,0,-1,1931,1646,0,0
714,-622,0,0,0,0,0,0,0,0,0,-1,1938,1646,0,0
721,-622,0,0,0,0,0,0,0,0,0,-1,1945,1646,0,0
728,-622,0,0,0,0,0,0,0,0,0,-1,1952,1646,0,0
735,-622,0,0,0,0,0,0,0,0,0,-1,1959,1646,0,0
742,-622,0,0,0,0,0,0,0,0,0,-1,1966,1646,0,0
749,-622,0,0,0,0,0,0,0,0,0,-1,1973,1646,0,0
756,-622,0,0,0,0,0,0,0,0,0,-1,1980,1646,0,0
763,-622,0,0,0,0,0,0,0,0,0,-1,1987,1646,0,0
770,-622,0,0,0,0,0,0,0,0,0,-1,1994,1646,0,0
777,-622,0,0,0,0,0,0,0,0,0,-1,2001,1646,0,0
784,-622,0,0,0,0,0,0,0,0,0,-1,2008,1646,0,0
791,-622,0,0,0,0,0,0,0,0,0,-1,2015,1646,0,0
798,-622,0,0,0,0,0,0,0,0,0,-1,2022,1646,0,0
805,-622,0,0,0,0,0,0,0,0,0,-1,2029,1646,0,0
812,-622,0,0,0,0,0,0,0,0,0,-1,2036,1646,0,0
-700,-629,0,0,0,0,0,0,0,0,0,-1,524,1653,0,0
-693,-629,0,0,0,0,0,0,0,0,0,-1,531,1653,0,0
-686,-629,0,0,0,0,0,0,0,0,0,-1,538,1653,0,0
-679,-629,0,0,0,0,0,0,0,0,0,-1,545,1653,0,0
-672,-629,0,0,0,0,0,0,0,0,0,-1,552,1653,0,0
-665,-629,0,0,0,0,0,0,0,0,0,-1,559,1653,0,0
-658,-629,0,0,0,0,0,0,0,0,0,-1,566,1653,0,0
-651,-629,0,0,0,0,0,0,0,0,0,-1,573,1653,0,0
-644,-629,0,0,0,0,0,0,0,0,0,-1,580,1653,0,0
-637,-629,0,0,0,0,0,0,0,0,0,-1,587,1653,0,0
-630,-629,0,0,0,0,0,0,0,0,0,-1,594,1653,0,0
-623,-629,0,0,0,0,0,0,0,0,0,-1,601,1653,0,0
-616,-629,0,0,0,0,0,0,0,0,0,-1,608,1653,0,0
-609,-629,0,0,0,0,0,0,0,0,0,-1,615,1653,0,0
-602,-629,0,0,0,0,0,0,0,0,0,-1,622,1653,0,0
-595,-629,0,0,0,0,0,0,0,0,0,-1,629,1653,0,0
-588,-629,0,0,0,0,0,0,0,0,0,-1,636,1653,0,0
-581,-629,0,0,0,0,0,0,0,0,0,-1,643,1653,0,0
-574,-629,0,0,0,0,0,0,0,0,0,-1,650,1653,0,0
-567,-629,0,0,0,0,0,0,0,0,0,-1,657,1653,0,0
-560,-629,0,0,0,0,0,0,0,0,0,-1,664,1653,0,0
-553,-629,0,0,0,0,0,0,0,0,0,-1,671,1653,0,0
-546,-629,0,0,0,0,0,0,0,0,0,-1,678,1653,0,0
-539,-629,0,0,0,0,0,0,0,0,0,-1,685,1653,0,0
-532,-629,0,0,0,0,0,0,0,0,0,-1,692,1653,0,0
-525,-629,0,0,0,0,0,0,0,0,0,-1,699,1653,0,0
-518,-629,0,0,0,0,0,0,0,0,0,-1,706,1653,0,0
-511,-629,0,0,0,0,0,0,0,0,0,-1,713,1653,0,0
-504,-629,0,0,0,0,0,0,0,0,0,-1,720,1653,0,0
-497,-629,0,0,0,0,0,0,0,0,0,-1,727,1653,0,0
-490,-629,0,0,0,0,0,0,0,0,0,-1,734,1653,0,0
-483,-629,0,0,0,0,0,0,0,0,0,-1,741,1653,0,0
-476,-629,0,0,0,0,0,0,0,0,0,-1,748,1653,0,0
-469,-629,0,0,0,0,0,0,0,0,0,-1,755,1653,0,0
-462,-629,0,0,0,0,0,0,0,0,0,-1,762,1653,0,0
-455,-629,0,0,0,0,0,0,0,0,0,-1,769,1653,0,0
-448,-629,0,0,0,0,0,0,0,0,0,-1,776,1653,0,0
-441,-629,0,0,0,0,0,0,0,0,0,-1,783,1653,0,0
-434,-629,0,0,0,0,0,0,0,0,0,-1,790,1653,0,0
-427,-629,0,0,0,0,0,0,0,0,0,-1,797,1653,0,0
-420,-629,-3.87103,3.37634,0,0,0,0,0,0,0,-1,804,1653,-3.87101,-3.37633
-413,-629,-5.69751,1.33582,0,0,0,0,0,0,0,-1,811,1653,-5.69754,-1.3358
-406,-629,2.85406,6.01501,0,0,0,0,0,0,0,-1,818,1653,2.85405,-6.01507
-399,-629,-0.455627,10.8687,0,0,0,0,0,0,0,-1,825,1653,-0.455625,-10.8687
-392,-629,1.15369,11.1295,0,0,0,0,0,0,0,-1,832,1653,1.1537,-11.1295
-385,-629,1.81976,11.6935,0,0,0,0,0,0,0,-1,839,1653,1.81975,-11.6935
-378,-629,2.19452,14.7941,0,0,0,0,0,0,0,-1,846,1653,2.19451,-14.7941
-371,-629,3.60114,14.7299,0,0,0,0,0,0,0,-1,853,1653,3.60113,-14.7299
-364,-629,3.26898,21.0801,0,0,0,0,0,0,0,-1,860,1653,3.26895,-21.08
-357,-629,4.38782,16.3444,0,0,0,0,0,0,0,-1,867,1653,4.38783,-16.3443
-350,-629,1.65582,45.3806,0,0,0,0,0,0,0,-1,874,1653,1.6558,-45.3807
-343,-629,1.8324,46.1676,-0.00151141,-3.88233e-05,0.000645714,0.000204207,-0.00175444,1.21082,0.0012433,0.0472294,881,1653,1.83238,-46.1676
-336,-629,1.87579,46.9039,-0.00134289,7.53726e-05,0.000130899,8.73528e-05,-0.00135487,1.47953,0.000933726,0.0207477,888,1653,1.87577,-46.9039
-329,-629,1.86053,47.6969,-0.0012971,0.000586304,-0.00024416,0.000617441,-0.00132824,-1.44395,0.00114806,0.0123667,895,1653,1.86051,-47.6969
-322,-629,1.81952,48.481,-0.00115067,0.000888003,-0.000395518,0.000962047,-0.00122471,-1.38573,0.00126556,0.0123569,902,1653,1.81951,-48.4809
-315,-629,1.75238,49.2758,-0.000859119,0.00117086,-0.000451667,0.00126682,-0.000955078,-1.36145,0.00128702,0.0159629,909,1653,1.75237,-49.2758
-308,-629,1.71954,50.0558,-0.000356991,0.00140881,-0.000355905,0.00147785,-0.000426027,-1.3792,0.00115376,0.0131139,916,1653,1.71955,-50.0557
-301,-629,1.68494,50.8328,0.000324358,0.00181046,-9.71195e-05,0.00181678,0.000318038,-1.50581,0.00112032,0.011503,923,1653,1.68495,-50.8328
-294,-629,1.64465,51.5787,0.00125097,0.00219269,0.00042131,0.00235366,0.00109,1.20584,0.00136012,0.0123068,930,1653,1.64465,-51.5787
-287,-629,1.59357,52.3135,0.00211486,0.00252255,0.00101501,0.00335399,0.00128343,0.884495,0.00195412,0.00988906,937,1653,1.59356,-52.3135
-280,-629,1.5553,53.0626,0.00306448,0.00289686,0.00170551,0.00468824,0.0012731,0.760846,0.00279934,0.0103583,944,1653,1.55528,-53.0626
-273,-629,1.51294,53.7697,0.00412711,0.0031658,0.00246254,0.00615547,0.00113745,0.689017,0.00378195,0.0156584,951,1653,1.51297,-53.7696
-266,-629,1.47174,54.5015,0.00519625,0.00343139,0.00324623,0.00767785,0.000949788,0.652689,0.00483318,0.0161759,958,1653,1.47176,-54.5015
-259,-629,1.45526,55.2627,0.00628006,0.00379664,0.00399069,0.00921776,0.000858944,0.63457,0.00587981,0.0152708,965,1653,1.45525,-55.2627
-252,-629,1.44592,55.9844,0.00724581,0.00420913,0.00465811,0.0106268,0.000828152,0.62785,0.00682524,0.0117504,972,1653,1.44593,-55.9844
-245,-629,1.45325,56.707,0.00796728,0.00443855,0.00521341,0.0117068,0.000699046,0.622234,0.00758226,0.00885555,979,1653,1.45324,-56.7071
-238,-629,1.4364,57.4099,0.00792954,0.00398966,0.0055919,0.0118883,3.08566e-05,0.616044,0.0079153,0.011978,986,1653,1.43637,-57.4099
-231,-629,1.38452,58.0962,0.00790955,0.00376302,0.00556105,0.0117712,-9.86694e-05,0.606969,0.00788059,0.0154325,993,1653,1.3845,-58.0962
-224,-629,1.46149,58.8516,0.00727585,0.00349745,0.00534056,0.0110515,-0.000278211,0.615394,0.00746214,0.0177919,1000,1653,1.46151,-58.8516
-217,-629,1.40485,59.4512,0.0061575,0.00247099,0.00519861,0.00982997,-0.00120147,0.61503,0.00698831,0.0287944,1007,1653,1.40485,-59.4511
-210,-629,1.24792,60.4821,0,0,0,0,0,0,0,-1,1014,1653,1.24791,-60.482
-203,-629,1.61859,60.8651,0,0,0,0,0,0,0,-1,1021,1653,1.6186,-60.8651
-196,-629,1.99963,61.3971,0,0,0,0,0,0,0,-1,1028,1653,1.99959,-61.3971
-189,-629,1.59424,61.6759,-0.0034889,-0.0069403,0.00291357,-0.00182832,-0.00860089,0.51803,0.00523207,0.0446967,1035,1653,1.59424,-61.6759
-182,-629,1.06787,62.7684,0,0,0,0,0,0,0,-1,1042,1653,1.06789,-62.7684
-175,-629,0.658936,63.6069,0,0,0,0,0,0,0,-1,1049,1653,0.658909,-63.6069
-168,-629,3.94775,55.7037,0,0,0,0,0,0,0,-1,1056,1653,3.94774,-55.7038
-161,-629,3.2146,53.0543,0,0,0,0,0,0,0,-1,1063,1653,3.21462,-53.0543
-154,-629,2.30042,52.7101,0,0,0,0,0,0,0,-1,1070,1653,2.30043,-52.7101
-147,-629,1.22363,52.6086,0,0,0,0,0,0,0,-1,1077,1653,1.22368,-52.6087
-140,-629,3.68201,55.7941,0,0,0,0,0,0,0,-1,1084,1653,3.68206,-55.7941
-133,-629,1.99792,57.769,0,0,0,0,0,0,0,-1,1091,1653,1.99792,-57.769
-126,-629,4.01025,19.5328,0,0,0,0,0,0,0,-1,1098,1653,4.01022,-19.5328
-119,-629,4.94177,13.5525,0,0,0,0,0,0,0,-1,1105,1653,4.94172,-13.5525
-112,-629,5.63123,15.9187,0,0,0,0,0,0,0,-1,1112,1653,5.63118,-15.9187
-105,-629,2.15881,4.38342,0,0,0,0,0,0,0,-1,1119,1653,2.15878,-4.38347
-98,-629,0.825806,4.19385,0,0,0,0,0,0,0,-1,1126,1653,0.825779,-4.1939
-91,-629,-0.452271,3.64465,0,0,0,0,0,0,0,-1,1133,1653,-0.452278,-3.6446
-84,-629,-2.6084,0.466797,0,0,0,0,0,0,0,-1,1140,1653,-2.6084,-0.466786
-77,-629,-3.50903,2.10706,0,0,0,0,0,0,0,-1,1147,1653,-3.509,-2.10707
-70,-629,-1.20886,2.52502,0,0,0,0,0,0,0,-1,1154,1653,-1.20886,-2.525
-63,-629,-0.960693,4.30212,0,0,0,0,0,0,0,-1,1161,1653,-0.960691,-4.30215
-56,-629,-1.31934,5.64343,0,0,0,0,0,0,0,-1,1168,1653,-1.31928,-5.6434
-49,-629,-2.15662,2.57458,0,0,0,0,0,0,0,-1,1175,1653,-2.15656,-2.57459
-42,-629,-2.46326,3.91467,0,0,0,0,0,0,0,-1,1182,1653,-2.4633,-3.91466
-35,-629,-2.67261,5.24292,0,0,0,0,0,0,0,-1,1189,1653,-2.67257,-5.24298
-28,-629,-0.402954,-0.866577,0,0,0,0,0,0,0,-1,1196,1653,-0.402943,0.866612
-21,-629,3.45508,27.0596,0,0,0,0,0,0,0,-1,1203,1653,3.45508,-27.0596
-14,-629,-2.63892,51.2357,0,0,0,0,0,0,0,-1,1210,1653,-2.63893,-51.2357
-7,-629,6.04773,72.0507,0,0,0,0,0,0,0,-1,1217,1653,6.04778,-72.0507
0,-629,6.38708,71.3102,0,0,0,0,0,0,0,-1,1224,1653,6.38707,-71.3102
7,-629,6.70569,70.5621,0.0580685,-0.0498294,-0.0414088,0.0721282,-0.0638891,-0.327321,0.0785776,0.0446051,1231,1653,6.70573,-70.5621
14,-629,7.13013,69.941,0.0455854,-0.0445496,-0.0507279,0.0683736,-0.0673378,-0.422209,0.0783538,0.0445701,1238,1653,7.13016,-69.9411
21,-629,7.53149,69.2872,0.0337131,-0.0379129,-0.0613884,0.0689712,-0.073171,-0.521342,0.0820778,0.0466815,1245,1653,7.53145,-69.2872
28,-629,7.78638,68.6494,0.0219862,-0.0304408,-0.0727331,0.0730854,-0.08154,-0.61244,0.0893175,0.0481333,1252,1653,7.78635,-68.6494
35,-629,7.55859,67.5544,0.0107055,-0.0241431,-0.0834648,0.0785453,-0.091983,-0.682495,0.0985564,0.0467722,1259,1653,7.55864,-67.5545
42,-629,7.82825,66.7061,0,0,0,0,0,0,0,-1,1266,1653,7.82826,-66.7061
49,-629,8.06299,65.7236,-0.0117228,-0.00884353,-0.102154,0.0918807,-0.112447,-0.792444,0.118168,0.0476913,1273,1653,8.063,-65.7236
56,-629,7.8717,64.963,-0.0214931,-0.000315204,-0.11208,0.101675,-0.123483,-0.832497,0.130198,0.0460101,1280,1653,7.87173,-64.963
63,-629,7.74792,64.27,-0.0323297,0.00921821,-0.120135,0.110362,-0.133474,-0.871012,0.14099,0.0441191,1287,1653,7.74791,-64.27
70,-629,7.74121,63.3335,-0.0432473,0.0193041,-0.12414,0.116048,-0.139991,-0.908799,0.14804,0.0443197,1294,1653,7.74124,-63.3335
77,-629,7.33704,62.4153,-0.0514169,0.0294647,-0.124332,0.119768,-0.14172,-0.942634,0.151147,0.0451814,1301,1653,7.33703,-62.4152
84,-629,7.09424,61.1353,-0.0615712,0.0390297,-0.122861,0.121488,-0.14403,-0.979694,0.153481,0.042424,1308,1653,7.09426,-61.1353
91,-629,6.70654,60.6053,-0.07328,0.051716,-0.119096,0.123716,-0.14528,-1.02703,0.155471,0.04028,1315,1653,6.70658,-60.6054
98,-629,5.89087,59.906,-0.0862892,0.0638889,-0.112565,0.124111,-0.146512,-1.07954,0.156423,0.0435515,1322,1653,5.89083,-59.9061
105,-629,5.34387,59.3892,0,0,0,0,0,0,0,-1,1329,1653,5.3439,-59.3891
112,-629,9.03149,72.4143,0,0,0,0,0,0,0,-1,1336,1653,9.03147,-72.4144
119,-629,-0.0137939,61.3837,0,0,0,0,0,0,0,-1,1343,1653,-0.013853,-61.3836
126,-629,-0.481689,61.452,0,0,0,0,0,0,0,-1,1350,1653,-0.48169,-61.452
133,-629,-0.859497,63.3657,0,0,0,0,0,0,0,-1,1357,1653,-0.859521,-63.3657
140,-629,-2.19812,63.7004,0,0,0,0,0,0,0,-1,1364,1653,-2.19807,-63.7005
147,-629,-3.48816,64.3943,0,0,0,0,0,0,0,-1,1371,1653,-3.48821,-64.3943
154,-629,6.41516,53.151,0,0,0,0,0,0,0,-1,1378,1653,6.41517,-53.151
161,-629,10.5461,6.83752,0,0,0,0,0,0,0,-1,1385,1653,10.5461,-6.83758
168,-629,12.0059,5.56348,0,0,0,0,0,0,0,-1,1392,1653,12.0059,-5.56352
175,-629,5.84485,-1.78845,0,0,0,0,0,0,0,-1,1399,1653,5.84479,1.7884
182,-629,5.99036,-1.27783,0,0,0,0,0,0,0,-1,1406,1653,5.99041,1.27778
189,-629,5.97668,-0.748535,0,0,0,0,0,0,0,-1,1413,1653,5.97671,0.748544
196,-629,4.52869,9.24695,0,0,0,0,0,0,0,-1,1420,1653,4.52869,-9.2469
203,-629,3.75085,6.88037,0,0,0,0,0,0,0,-1,1427,1653,3.75087,-6.88032
210,-629,3.5907,6.52637,0,0,0,0,0,0,0,-1,1434,1653,3.59067,-6.52642
217,-629,2.4585,4.84448,0,0,0,0,0,0,0,-1,1441,1653,2.45855,-4.84448
224,-629,1.31982,3.68481,0,0,0,0,0,0,0,-1,1448,1653,1.31986,-3.68487
231,-629,3.63025,1.73499,0,0,0,0,0,0,0,-1,1455,1653,3.6303,-1.735
238,-629,4.26428,2.11255,0,0,0,0,0,0,0,-1,1462,1653,4.26429,-2.11253
245,-629,5.61816,1.95361,0,0,0,0,0,0,0,-1,1469,1653,5.61815,-1.95359
252,-629,7.27136,2.18982,0,0,0,0,0,0,0,-1,1476,1653,7.27131,-2.18985
259,-629,8.67334,2.18628,0,0,0,0,0,0,0,-1,1483,1653,8.6733,-2.18633
266,-629,6.86475,3.72058,0,0,0,0,0,0,0,-1,1490,1653,6.86479,-3.72063
273,-629,7.9021,3.8717,0,0,0,0,0,0,0,-1,1497,1653,7.90205,-3.87171
280,-629,9.70837,4.39087,0,0,0,0,0,0,0,-1,1504,1653,9.7084,-4.39082
287,-629,9.82947,7.19348,0,0,0,0,0,0,0,-1,1511,1653,9.8295,-7.19347
294,-629,6.56555,11.6359,0,0,0,0,0,0,0,-1,1518,1653,6.5656,-11.6358
301,-629,13.903,44.4862,0,0,0,0,0,0,0,-1,1525,1653,13.903,-44.4862
308,-629,6.08264,12.1423,0,0,0,0,0,0,0,-1,1532,1653,6.08263,-12.1423
315,-629,6.82043,18.2764,0,0,0,0,0,0,0,-1,1539,1653,6.82049,-18.2764
322,-629,14.1931,43.8071,0,0,0,0,0,0,0,-1,1546,1653,14.1931,-43.8071
329,-629,16.235,60.2185,0,0,0,0,0,0,0,-1,1553,1653,16.235,-60.2185
336,-629,16.0109,59.4808,0,0,0,0,0,0,0,-1,1560,1653,16.0109,-59.4809
343,-629,16.4467,58.9998,0,0,0,0,0,0,0,-1,1567,1653,16.4467,-58.9997
350,-629,16.4998,58.2966,0.0123479,-0.0158225,5.1929e-05,0.012348,-0.0158226,0.00184338,0.0163055,0.0363945,1574,1653,16.4998,-58.2966
357,-629,16.5337,57.5299,0.0114173,-0.01306,-0.000581186,0.0114311,-0.0130737,-0.0237261,0.0141585,0.0179363,1581,1653,16.5337,-57.5299
364,-629,16.4772,56.8657,0.0104329,-0.0106558,-0.000843784,0.0104666,-0.0106895,-0.039926,0.0122147,0.015238,1588,1653,16.4771,-56.8657
371,-629,16.4476,56.1627,0.00930974,-0.00830417,-0.000794353,0.00934549,-0.00833992,-0.0449764,0.0102162,0.0130127,1595,1653,16.4477,-56.1628
378,-629,16.4335,55.4366,0.00801563,-0.00599806,-0.000656426,0.00804632,-0.00602874,-0.0467055,0.00815402,0.0116047,1602,1653,16.4334,-55.4366
385,-629,16.4183,54.7573,0.00674831,-0.00405736,-0.000532393,0.00677448,-0.00408352,-0.0491112,0.00633272,0.0135748,1609,1653,16.4183,-54.7573
392,-629,16.3882,54.0518,0.00545845,-0.00236295,-0.000476525,0.00548737,-0.00239188,-0.060627,0.00466464,0.0118527,1616,1653,16.3881,-54.0517
399,-629,16.3684,53.3066,0.00423715,-0.00101607,-0.000511021,0.0042864,-0.00106532,-0.0960776,0.00327105,0.0120223,1623,1653,16.3684,-53.3066
406,-629,16.3478,52.5808,0.00325653,-0.000208628,-0.000532315,0.00333646,-0.000288558,-0.149042,0.00232647,0.0160126,1630,1653,16.3477,-52.5808
413,-629,16.3035,51.8734,0.0025218,0.000476577,-0.00067272,0.00272323,0.000275143,-0.290935,0.00173108,0.0245486,1637,1653,16.3035,-51.8734
420,-629,16.2471,51.147,0.00197331,0.0006042,-0.000895329,0.0024158,0.00016171,-0.459013,0.00155943,0.0223031,1644,1653,16.2471,-51.147
427,-629,16.2562,50.3934,0.00168711,0.000241031,-0.00116039,0.00233129,-0.000403145,-0.506781,0.00170454,0.016216,1651,1653,16.2563,-50.3935
434,-629,16.2406,49.6379,0.0017085,-0.000143236,-0.00153581,0.00257594,-0.00101067,-0.51414,0.00213545,0.0144825,1658,1653,16.2406,-49.6379
441,-629,16.1775,48.8727,0.00190028,-0.000657874,-0.00193761,0.00294293,-0.00170052,-0.493666,0.00271269,0.0168847,1665,1653,16.1775,-48.8727
448,-629,16.1239,48.1096,0.00223813,-0.00112616,-0.00237538,0.00346666,-0.00235469,-0.477308,0.00338133,0.0166126,1672,1653,16.1239,-48.1096
455,-629,16.0712,47.3239,0.00263683,-0.00155192,-0.00283371,0.00406614,-0.00298123,-0.467156,0.00408484,0.0161952,1679,1653,16.0711,-47.3239
462,-629,16.0662,46.6104,0.00297472,-0.00211701,-0.00333577,0.00462514,-0.00376743,-0.45945,0.00485388,0.0219995,1686,1653,16.0662,-46.6103
469,-629,16.0381,45.7938,0.00340249,-0.00255916,-0.00395296,0.00537254,-0.00452921,-0.462346,0.00572369,0.0359796,1693,1653,16.0381,-45.7938
476,-629,16.1376,44.9684,0,0,0,0,0,0,0,-1,1700,1653,16.1376,-44.9684
483,-629,14.0381,30.967,0,0,0,0,0,0,0,-1,1707,1653,14.0381,-30.9671
490,-629,13.9072,28.8588,0,0,0,0,0,0,0,-1,1714,1653,13.9072,-28.8587
497,-629,10.3662,19.8605,0,0,0,0,0,0,0,-1,1721,1653,10.3662,-19.8605
504,-629,7.89453,15.5316,0,0,0,0,0,0,0,-1,1728,1653,7.89447,-15.5316
511,-629,6.29138,3.40295,0,0,0,0,0,0,0,-1,1735,1653,6.29137,-3.403
518,-629,5.84387,1.41858,0,0,0,0,0,0,0,-1,1742,1653,5.84391,-1.4186
525,-629,6.4729,1.02319,0,0,0,0,0,0,0,-1,1749,1653,6.47284,-1.02316
532,-629,6.86511,0.903687,0,0,0,0,0,0,0,-1,1756,1653,6.86514,-0.903691
539,-629,6.60803,0.746704,0,0,0,0,0,0,0,-1,1763,1653,6.60809,-0.746691
546,-629,0,0,0,0,0,0,0,0,0,-1,1770,1653,0,0
553,-629,0,0,0,0,0,0,0,0,0,-1,1777,1653,0,0
560,-629,0,0,0,0,0,0,0,0,0,-1,1784,1653,0,0
567,-629,0,0,0,0,0,0,0,0,0,-1,1791,1653,0,0
574,-629,0,0,0,0,0,0,0,0,0,-1,1798,1653,0,0
581,-629,0,0,0,0,0,0,0,0,0,-1,1805,1653,0,0
588,-629,0,0,0,0,0,0,0,0,0,-1,1812,1653,0,0
595,-629,0,0,0,0,0,0,0,0,0,-1,1819,1653,0,0
602,-629,0,0,0,0,0,0,0,0,0,-1,1826,1653,0,0
609,-629,0,0,0,0,0,0,0,0,0,-1,1833,1653,0,0
616,-629,0,0,0,0,0,0,0,0,0,-1,1840,1653,0,0
623,-629,0,0,0,0,0,0,0,0,0,-1,1847,1653,0,0
630,-629,0,0,0,0,0,0,0,0,0,-1,1854,1653,0,0
637,-629,0,0,0,0,0,0,0,0,0,-1,1861,1653,0,0
644,-629,0,0,0,0,0,0,0,0,0,-1,1868,1653,0,0
651,-629,0,0,0,0,0,0,0,0,0,-1,1875,1653,0,0
658,-629,0,0,0,0,0,0,0,0,0,-1,1882,1653,0,0
665,-629,0,0,0,0,0,0,0,0,0,-1,1889,1653,0,0
672,-629,0,0,0,0,0,0,0,0,0,-1,1896,1653,0,0
679,-629,0,0,0,0,0,0,0,0,0,-1,1903,1653,0,0
686,-629,0,0,0,0,0,0,0,0,0,-1,1910,1653,0,0
693,-629,0,0,0,0,0,0,0,0,0,-1,1917,1653,0,0
700,-629,0,0,0,0,0,0,0,0,0,-1,1924,1653,0,0
707,-629,0,0,0,0,0,0,0,0,0,-1,1931,1653,0,0
714,-629,0,0,0,0,0,0,0,0,0,-1,1938,1653,0,0
721,-629,0,0,0,0,0,0,0,0,0,-1,1945,1653,0,0
728,-629,0,0,0,0,0,0,0,0,0,-1,1952,1653,0,0
735,-629,0,0,0,0,0,0,0,0,0,-1,1959,1653,0,0
742,-629,0,0,0,0,0,0,0,0,0,-1,1966,1653,0,0
749,-629,0,0,0,0,0,0,0,0,0,-1,1973,1653,0,0
756,-629,0,0,0,0,0,0,0,0,0,-1,1980,1653,0,0
763,-629,0,0,0,0,0,0,0,0,0,-1,1987,1653,0,0
770,-629,0,0,0,0,0,0,0,0,0,-1,1994,1653,0,0
777,-629,0,0,0,0,0,0,0,0,0,-1,2001,1653,0,0
784,-629,0,0,0,0,0,0,0,0,0,-1,2008,1653,0,0
791,-629,0,0,0,0,0,0,0,0,0,-1,2015,1653,0,0
798,-629,0,0,0,0,0,0,0,0,0,-1,2022,1653,0,0
805,-629,0,0,0,0,0,0,0,0,0,-1,2029,1653,0,0
812,-629,0,0,0,0,0,0,0,0,0,-1,2036,1653,0,0
-700,-636,0,0,0,0,0,0,0,0,0,-1,524,1660,0,0
-693,-636,0,0,0,0,0,0,0,0,0,-1,531,1660,0,0
-686,-636,0,0,0,0,0,0,0,0,0,-1,538,1660,0,0
-679,-636,0,0,0,0,0,0,0,0,0,-1,545,1660,0,0
-672,-636,0,0,0,0,0,0,0,0,0,-1,552,1660,0,0
-665,-636,0,0,0,0,0,0,0,0,0,-1,559,1660,0,0
-658,-636,0,0,0,0,0,0,0,0,0,-1,566,1660,0,0
-651,-636,0,0,0,0,0,0,0,0,0,-1,573,1660,0,0
-644,-636,0,0,0,0,0,0,0,0,0,-1,580,1660,0,0
-637,-636,0,0,0,0,0,0,0,0,0,-1,587,1660,0,0
-630,-636,0,0,0,0,0,0,0,0,0,-1,594,1660,0,0
-623,-636,0,0,0,0,0,0,0,0,0,-1,601,1660,0,0
-616,-636,0,0,0,0,0,0,0,0,0,-1,608,1660,0,0
-609,-636,0,0,0,0,0,0,0,0,0,-1,615,1660,0,0
-602,-636,0,0,0,0,0,0,0,0,0,-1,622,1660,0,0
-595,-636,0,0,0,0,0,0,0,0,0,-1,629,1660,0,0
-588,-636,0,0,0,0,0,0,0,0,0,-1,636,1660,0,0
-581,-636,0,0,0,0,0,0,0,0,0,-1,643,1660,0,0
-574,-636,0,0,0,0,0,0,0,0,0,-1,650,1660,0,0
-567,-636,0,0,0,0,0,0,0,0,0,-1,657,1660,0,0
-560,-636,0,0,0,0,0,0,0,0,0,-1,664,1660,0,0
-553,-636,0,0,0,0,0,0,0,0,0,-1,671,1660,0,0
-546,-636,0,0,0,0,0,0,0,0,0,-1,678,1660,0,0
-539,-636,0,0,0,0,0,0,0,0,0,-1,685,1660,0,0
-532,-636,0,0,0,0,0,0,0,0,0,-1,692,1660,0,0
-525,-636,0,0,0,0,0,0,0,0,0,-1,699,1660,0,0
-518,-636,0,0,0,0,0,0,0,0,0,-1,706,1660,0,0
-511,-636,0,0,0,0,0,0,0,0,0,-1,713,1660,0,0
-504,-636,0,0,0,0,0,0,0,0,0,-1,720,1660,0,0
-497,-636,0,0,0,0,0,0,0,0,0,-1,727,1660,0,0
-490,-636,0,0,0,0,0,0,0,0,0,-1,734,1660,0,0
-483,-636,0,0,0,0,0,0,0,0,0,-1,741,1660,0,0
-476,-636,0,0,0,0,0,0,0,0,0,-1,748,1660,0,0
-469,-636,0,0,0,0,0,0,0,0,0,-1,755,1660,0,0
-462,-636,0,0,0,0,0,0,0,0,0,-1,762,1660,0,0
-455,-636,0,0,0,0,0,0,0,0,0,-1,769,1660,0,0
-448,-636,0,0,0,0,0,0,0,0,0,-1,776,1660,0,0
-441,-636,0,0,0,0,0,0,0,0,0,-1,783,1660,0,0
-434,-636,0,0,0,0,0,0,0,0,0,-1,790,1660,0,0
-427,-636,0,0,0,0,0,0,0,0,0,-1,797,1660,0,0
-420,-636,0,0,0,0,0,0,0,0,0,-1,804,1660,0,0
-413,-636,0,0,0,0,0,0,0,0,0,-1,811,1660,0,0
-406,-636,-0.591125,10.6943,0,0,0,0,0,0,0,-1,818,1660,-0.59115,-10.6943
-399,-636,0.0766602,11.2408,0,0,0,0,0,0,0,-1,825,1660,0.076685,-11.2409
-392,-636,0.75946,11.9233,0,0,0,0,0,0,0,-1,832,1660,0.759481,-11.9233
-385,-636,1.68878,12.517,0,0,0,0,0,0,0,-1,839,1660,1.6888,-12.5169
-378,-636,2.22107,13.0013,0,0,0,0,0,0,0,-1,846,1660,2.22107,-13.0014
-371,-636,2.52185,11.9684,0,0,0,0,0,0,0,-1,853,1660,2.52184,-11.9684
-364,-636,4.51947,14.8503,0,0,0,0,0,0,0,-1,860,1660,4.51949,-14.8504
-357,-636,4.55682,15.8809,0,0,0,0,0,0,0,-1,867,1660,4.55681,-15.8808
-350,-636,2.57788,36.7095,0,0,0,0,0,0,0,-1,874,1660,2.57785,-36.7094
-343,-636,2.63861,46.2482,0,0,0,0,0,0,0,-1,881,1660,2.63861,-46.2482
-336,-636,2.6004,46.9607,-0.00145359,0.00101364,-0.000422622,0.00108403,-0.00152398,-1.40577,0.00151286,0.0379074,888,1660,2.60041,-46.9607
-329,-636,2.63452,47.7545,-0.00124127,0.00192116,-0.00137194,0.00243338,-0.00175349,-1.21347,0.00242789,0.0200631,895,1660,2.63453,-47.7545
-322,-636,2.57892,48.5099,-0.00109227,0.0021913,-0.00175572,0.00295326,-0.00185424,-1.16134,0.00279968,0.0132365,902,1660,2.57893,-48.5099
-315,-636,2.49921,49.2955,-0.000831242,0.00242752,-0.00205279,0.00341898,-0.00182271,-1.12085,0.00307271,0.0140941,909,1660,2.49922,-49.2955
-308,-636,2.46906,50.1,-0.000389752,0.00261559,-0.00217666,0.00375789,-0.00153205,-1.08751,0.00314298,0.0118795,916,1660,2.46904,-50.1
-301,-636,2.42932,50.8816,0.000174616,0.00295143,-0.00207526,0.00405989,-0.000933847,-1.08022,0.00306566,0.0117407,923,1660,2.42932,-50.8815
-294,-636,2.36212,51.6598,0.000894005,0.00317689,-0.0017249,0.00410382,-3.29274e-05,-1.07769,0.00274692,0.0151011,930,1660,2.3621,-51.6598
-287,-636,2.33154,52.3687,0.0015444,0.00333605,-0.00119199,0.00393131,0.000949139,-1.10764,0.00236875,0.0139445,937,1660,2.33156,-52.3686
-280,-636,2.30872,53.1012,0.00222205,0.00348003,-0.000519578,0.00366688,0.0020352,-1.22558,0.00212134,0.0126768,944,1660,2.30872,-53.1012
-273,-636,2.25513,53.8265,0.00296609,0.0034936,0.000268469,0.0036062,0.00285349,1.17367,0.00219665,0.0131406,951,1660,2.25512,-53.8265
-266,-636,2.22083,54.5581,0.00370957,0.00344525,0.00111464,0.00469985,0.00245497,0.726391,0.00271437,0.0145746,958,1660,2.22084,-54.5581
-259,-636,2.21216,55.3063,0.0044588,0.00343554,0.00192166,0.00593578,0.00195857,0.655294,0.00349246,0.0162891,965,1660,2.21216,-55.3063
-252,-636,2.18848,56.0275,0.00508216,0.00349584,0.00266053,0.00706524,0.00151276,0.640531,0.00429563,0.0126098,972,1660,2.18846,-56.0275
-245,-636,2.17041,56.7633,0.00552502,0.00338239,0.00325171,0.00787735,0.00103006,0.626267,0.00494411,0.0117812,979,1660,2.17044,-56.7633
-238,-636,2.16113,57.4623,0.00546139,0.0028461,0.00368548,0.00806433,0.000243153,0.614922,0.00529703,0.0133802,986,1660,2.16113,-57.4623
-231,-636,2.14941,58.1464,0.00553194,0.00250158,0.00373218,0.00804478,-1.12597e-05,0.592574,0.00536695,0.0125845,993,1660,2.14942,-58.1463
-224,-636,2.13776,58.8182,0.00526908,0.00221145,0.0034648,0.00752736,-4.68316e-05,0.577625,0.00503392,0.0110073,1000,1660,2.13774,-58.8182
-217,-636,2.09015,59.557,0.004619,0.00137439,0.00328601,0.00666136,-0.000667968,0.5561,0.00467948,0.018325,1007,1660,2.09016,-59.557
-210,-636,2.08478,60.2032,0.00377885,5.90556e-05,0.00284586,0.00531868,-0.00148078,0.495967,0.00412886,0.029165,1014,1660,2.08475,-60.2032
-203,-636,2.09253,60.8529,0,0,0,0,0,0,0,-1,1021,1660,2.09255,-60.8529
-196,-636,2.32886,61.3693,0.00146953,-0.00319846,0.00223685,0.00236834,-0.00409727,0.382074,0.00377715,0.0334095,1028,1660,2.32886,-61.3693
-189,-636,2.21204,61.9248,-0.0008335,-0.00526056,0.00147282,-0.000388288,-0.00570577,0.293553,0.00368125,0.0383488,1035,1660,2.21203,-61.9248
-182,-636,2.17944,62.9688,0,0,0,0,0,0,0,-1,1042,1660,2.17945,-62.9688
-175,-636,2.82703,58.9026,0,0,0,0,0,0,0,-1,1049,1660,2.82706,-58.9026
-168,-636,3.87,56.0028,0,0,0,0,0,0,0,-1,1056,1660,3.87004,-56.0028
-161,-636,4.54553,56.2565,0,0,0,0,0,0,0,-1,1063,1660,4.5455,-56.2564
-154,-636,2.33289,62.5505,0,0,0,0,0,0,0,-1,1070,1660,2.33283,-62.5505
-147,-636,4.22656,55.8413,0,0,0,0,0,0,0,-1,1077,1660,4.22662,-55.8413
-140,-636,3.20886,57.1307,0,0,0,0,0,0,0,-1,1084,1660,3.20882,-57.1307
-133,-636,2.82764,57.9807,0,0,0,0,0,0,0,-1,1091,1660,2.82766,-57.9807
-126,-636,2.44653,58.8307,0,0,0,0,0,0,0,-1,1098,1660,2.44649,-58.8307
-119,-636,1.8667,13.8916,0,0,0,0,0,0,0,-1,1105,1660,1.86668,-13.8916
-112,-636,-1.24963,9.7998,0,0,0,0,0,0,0,-1,1112,1660,-1.24968,-9.79978
-105,-636,3.51624,4.72791,0,0,0,0,0,0,0,-1,1119,1660,3.51618,-4.7279
-98,-636,1.54504,5.11914,0,0,0,0,0,0,0,-1,1126,1660,1.54503,-5.11912
-91,-636,-1.87964,-2.25012,0,0,0,0,0,0,0,-1,1133,1660,-1.87966,2.25016
-84,-636,-2.84143,0.133667,0,0,0,0,0,0,0,-1,1140,1660,-2.84144,-0.133701
-77,-636,-3.57349,2.45935,0,0,0,0,0,0,0,-1,1147,1660,-3.57345,-2.45939
-70,-636,-4.23682,4.82312,0,0,0,0,0,0,0,-1,1154,1660,-4.23681,-4.82307
-63,-636,-2.21033,6.97168,0,0,0,0,0,0,0,-1,1161,1660,-2.21034,-6.97165
-56,-636,-2.51917,8.80359,0,0,0,0,0,0,0,-1,1168,1660,-2.51916,-8.80361
-49,-636,-3.13,10.4113,0,0,0,0,0,0,0,-1,1175,1660,-3.12996,-10.4112
-42,-636,-2.27771,4.90173,0,0,0,0,0,0,0,-1,1182,1660,-2.27775,-4.90173
-35,-636,-2.27698,5.89685,0,0,0,0,0,0,0,-1,1189,1660,-2.27695,-5.89686
-28,-636,-1.70654,4.83936,0,0,0,0,0,0,0,-1,1196,1660,-1.70656,-4.8393
-21,-636,4.24683,27.7834,0,0,0,0,0,0,0,-1,1203,1660,4.24687,-27.7835
-14,-636,1.07642,73.9216,0,0,0,0,0,0,0,-1,1210,1660,1.07639,-73.9217
-7,-636,2.99561,72.5746,0,0,0,0,0,0,0,-1,1217,1660,2.99558,-72.5746
0,-636,6.29004,71.4331,0,0,0,0,0,0,0,-1,1224,1660,6.29,-71.4331
7,-636,6.85913,70.7809,0.0584276,-0.0498595,-0.0385631,0.0707569,-0.0621888,-0.309446,0.0768094,0.0471875,1231,1660,6.85915,-70.7809
14,-636,7.33972,70.1702,0.0486363,-0.0429155,-0.0487656,0.0697447,-0.0640239,-0.408505,0.0772549,0.0449951,1238,1660,7.33971,-70.1701
21,-636,7.42847,69.326,0.0391952,-0.0343496,-0.0603311,0.0730772,-0.0682316,-0.511707,0.0816007,0.0449873,1245,1660,7.42849,-69.3261
28,-636,7.50977,68.4788,0.0298551,-0.024905,-0.0724922,0.0799656,-0.0750155,-0.604832,0.0894936,0.0468578,1252,1660,7.50972,-68.4788
35,-636,7.65588,67.635,0.020954,-0.0163332,-0.0840405,0.088394,-0.0837732,-0.676245,0.0994127,0.0465541,1259,1660,7.65587,-67.6351
42,-636,7.87744,66.7975,0,0,0,0,0,0,0,-1,1266,1660,7.87748,-66.7975
49,-636,9.67664,65.8733,0.0029943,0.00232128,-0.104165,0.106823,-0.101508,-0.783783,0.120293,0.0450672,1273,1660,9.67661,-65.8733
56,-636,8.85315,65.8706,-0.00480722,0.0113147,-0.11355,0.11709,-0.110582,-0.820834,0.131464,0.0439125,1280,1660,8.85313,-65.8706
63,-636,8.60107,65.3105,-0.0144951,0.0201632,-0.120141,0.124219,-0.118551,-0.857024,0.140176,0.044147,1287,1660,8.60107,-65.3105
70,-636,8.54895,63.2767,-0.0250496,0.0293203,-0.122984,0.128088,-0.123817,-0.894171,0.145445,0.0446263,1294,1660,8.54899,-63.2768
77,-636,8.39368,62.0905,-0.0343899,0.0378124,-0.122209,0.129141,-0.125718,-0.929016,0.147147,0.0444423,1301,1660,8.39372,-62.0905
84,-636,8.08325,61.0216,-0.0458344,0.0454431,-0.119134,0.127381,-0.127772,-0.96832,0.147313,0.0432152,1308,1660,8.08329,-61.0216
91,-636,7.55811,60.0426,-0.0586017,0.055288,-0.11381,0.125605,-0.128918,-1.01736,0.146953,0.0428874,1315,1660,7.55812,-60.0426
98,-636,6.85852,59.4613,-0.0727051,0.0643398,-0.106093,0.122115,-0.13048,-1.07213,0.145862,0.0462337,1322,1660,6.85851,-59.4613
105,-636,6.34204,58.9447,0,0,0,0,0,0,0,-1,1329,1660,6.34204,-58.9447
112,-636,2.00244,60.7488,0,0,0,0,0,0,0,-1,1336,1660,2.00246,-60.7487
119,-636,1.79382,60.976,-0.116452,0.0954007,-0.0803758,0.122443,-0.143494,-1.24624,0.153699,0.0493738,1343,1660,1.79379,-60.9759
126,-636,0.969604,61.1354,-0.132007,0.105215,-0.0695266,0.124091,-0.150882,-1.3057,0.159007,0.0466413,1350,1660,0.969597,-61.1353
133,-636,0.466553,62.5723,0,0,0,0,0,0,0,-1,1357,1660,0.466595,-62.5723
140,-636,-0.901367,63.0902,-0.157929,0.131153,-0.0509025,0.139854,-0.16663,-1.40149,0.177174,0.0465688,1364,1660,-0.901319,-63.0902
147,-636,-2.19702,63.7792,0,0,0,0,0,0,0,-1,1371,1660,-2.19698,-63.7792
154,-636,-3.49182,64.4309,0,0,0,0,0,0,0,-1,1378,1660,-3.49186,-64.4309
161,-636,10.2961,7.13025,0,0,0,0,0,0,0,-1,1385,1660,10.2961,-7.13021
168,-636,11.7659,5.83899,0,0,0,0,0,0,0,-1,1392,1660,11.7658,-5.83899
175,-636,5.94592,-1.72888,0,0,0,0,0,0,0,-1,1399,1660,5.94598,1.72886
182,-636,5.93994,-1.11938,0,0,0,0,0,0,0,-1,1406,1660,5.93998,1.11936
189,-636,5.32544,11.9595,0,0,0,0,0,0,0,-1,1413,1660,5.32542,-11.9595
196,-636,5.3623,9.38025,0,0,0,0,0,0,0,-1,1420,1660,5.36225,-9.38027
203,-636,5.18542,9.02429,0,0,0,0,0,0,0,-1,1427,1660,5.18547,-9.0243
210,-636,4.09167,7.17041,0,0,0,0,0,0,0,-1,1434,1660,4.09173,-7.17041
217,-636,2.94897,5.28992,0,0,0,0,0,0,0,-1,1441,1660,2.94899,-5.28991
224,-636,1.49194,3.63916,0,0,0,0,0,0,0,-1,1448,1660,1.49197,-3.63918
231,-636,0.17749,2.24854,0,0,0,0,0,0,0,-1,1455,1660,0.177501,-2.24855
238,-636,-0.764648,1.00598,0,0,0,0,0,0,0,-1,1462,1660,-0.764704,-1.00595
245,-636,6.21204,1.18005,0,0,0,0,0,0,0,-1,1469,1660,6.21206,-1.18001
252,-636,7.70251,0.865723,0,0,0,0,0,0,0,-1,1476,1660,7.7025,-0.865692
259,-636,9.03601,0.787231,0,0,0,0,0,0,0,-1,1483,1660,9.03598,-0.787243
266,-636,10.1071,3.24109,0,0,0,0,0,0,0,-1,1490,1660,10.1071,-3.24103
273,-636,8.48535,5.02466,0,0,0,0,0,0,0,-1,1497,1660,8.48533,-5.02472
280,-636,11.908,32.0698,0,0,0,0,0,0,0,-1,1504,1660,11.9079,-32.0698
287,-636,12.1218,36.4158,0,0,0,0,0,0,0,-1,1511,1660,12.1218,-36.4158
294,-636,13.3706,44.9711,0,0,0,0,0,0,0,-1,1518,1660,13.3706,-44.9711
301,-636,15.8788,62.1716,0,0,0,0,0,0,0,-1,1525,1660,15.8788,-62.1716
308,-636,16.0231,62.2197,0,0,0,0,0,0,0,-1,1532,1660,16.0231,-62.2197
315,-636,15.8252,61.7161,0,0,0,0,0,0,0,-1,1539,1660,15.8252,-61.716
322,-636,15.6466,60.8872,0,0,0,0,0,0,0,-1,1546,1660,15.6466,-60.8872
329,-636,15.661,60.2705,0.0130017,-0.00978584,-6.0867e-05,0.0130019,-0.00978601,-0.00267104,0.0132002,0.0409871,1553,1660,15.661,-60.2705
336,-636,15.5336,59.6396,0.0124682,-0.00902561,-0.000663472,0.0124886,-0.00904607,-0.030829,0.0124859,0.0352471,1560,1660,15.5335,-59.6397
343,-636,15.6713,58.9332,0.011744,-0.00791381,-0.00111563,0.0118072,-0.00797693,-0.0565107,0.0114935,0.0303434,1567,1660,15.6713,-58.9332
350,-636,15.7618,58.2404,0.0109303,-0.00669414,-0.00149338,0.0110559,-0.00681979,-0.0839362,0.0104167,0.0143967,1574,1660,15.7619,-58.2404
357,-636,15.7805,57.5513,0.00992855,-0.00528516,-0.0018631,0.0101534,-0.00550999,-0.120098,0.00917476,0.0109874,1581,1660,15.7805,-57.5513
364,-636,15.7823,56.8566,0.00888974,-0.00419971,-0.00191934,0.00916538,-0.00447534,-0.142634,0.00802914,0.0112148,1588,1660,15.7823,-56.8566
371,-636,15.7446,56.1775,0.00777371,-0.00311855,-0.0017214,0.00803928,-0.00338412,-0.15307,0.00677539,0.0102523,1595,1660,15.7446,-56.1775
378,-636,15.7302,55.4707,0.00654969,-0.00199257,-0.00146713,0.00679464,-0.00223752,-0.165436,0.00543147,0.0107187,1602,1660,15.7302,-55.4707
385,-636,15.715,54.7538,0.00539323,-0.00108655,-0.00125323,0.00562716,-0.00132049,-0.184543,0.00426037,0.0168656,1609,1660,15.7149,-54.7537
392,-636,15.673,54.0416,0.00424675,-0.000293708,-0.00112591,0.00451061,-0.000557568,-0.230199,0.00320911,0.0173075,1616,1660,15.6729,-54.0416
399,-636,15.6311,53.3423,0.00317035,0.000340176,-0.00110619,0.0035514,-4.08788e-05,-0.331745,0.00238135,0.0127564,1623,1660,15.6311,-53.3422
406,-636,15.6189,52.6393,0.00235285,0.000592536,-0.00106156,0.00285168,9.37096e-05,-0.439277,0.00187066,0.0150011,1630,1660,15.6189,-52.6393
413,-636,15.6042,51.8784,0.00181289,0.00063167,-0.00118159,0.00254325,-9.8695e-05,-0.553637,0.00172934,0.0238183,1637,1660,15.6043,-51.8784
420,-636,15.5416,51.1423,0.0014857,0.000403086,-0.00140776,0.00245264,-0.000563853,-0.601854,0.00185188,0.0247632,1644,1660,15.5416,-51.1423
427,-636,15.5356,50.4497,0.00153386,-7.2652e-05,-0.00173403,0.00264164,-0.00118044,-0.568497,0.00225979,0.0171122,1651,1660,15.5357,-50.4497
434,-636,15.5023,49.6855,0.00174985,-0.000484615,-0.00216442,0.00306837,-0.00180314,-0.547144,0.00284401,0.0163287,1658,1660,15.5023,-49.6856
441,-636,15.4435,48.9211,0.00208974,-0.00107684,-0.00254611,0.0035047,-0.00249179,-0.507234,0.0034785,0.0135027,1665,1660,15.4435,-48.9211
448,-636,15.4169,48.1481,0.00260988,-0.00160311,-0.00298287,0.00415507,-0.0031483,-0.477961,0.00422994,0.0157581,1672,1660,15.4169,-48.148
455,-636,15.3571,47.35,0.00328356,-0.00205984,-0.00348019,0.00499931,-0.00377559,-0.458036,0.00508258,0.0183516,1679,1660,15.3571,-47.35
462,-636,15.2511,46.5756,0.00395708,-0.0027262,-0.00407312,0.00588392,-0.00465304,-0.441866,0.00609734,0.0292316,1686,1660,15.2511,-46.5756
469,-636,15.3075,45.7001,0,0,0,0,0,0,0,-1,1693,1660,15.3075,-45.7
476,-636,15.9541,44.7776,0,0,0,0,0,0,0,-1,1700,1660,15.9541,-44.7775
483,-636,11.3833,24.3958,0,0,0,0,0,0,0,-1,1707,1660,11.3833,-24.3957
490,-636,10.8951,23.9569,0,0,0,0,0,0,0,-1,1714,1660,10.8951,-23.9569
497,-636,9.55579,18.0111,0,0,0,0,0,0,0,-1,1721,1660,9.55574,-18.0111
504,-636,6.26428,19.4268,0,0,0,0,0,0,0,-1,1728,1660,6.26433,-19.4268
511,-636,5.65466,9.23218,0,0,0,0,0,0,0,-1,1735,1660,5.65461,-9.23216
518,-636,6.72791,1.07605,0,0,0,0,0,0,0,-1,1742,1660,6.7279,-1.0761
525,-636,7.04309,0.93335,0,0,0,0,0,0,0,-1,1749,1660,7.04308,-0.933298
532,-636,0,0,0,0,0,0,0,0,0,-1,1756,1660,0,0
539,-636,0,0,0,0,0,0,0,0,0,-1,1763,1660,0,0
546,-636,0,0,0,0,0,0,0,0,0,-1,1770,1660,0,0
553,-636,0,0,0,0,0,0,0,0,0,-1,1777,1660,0,0
560,-636,0,0,0,0,0,0,0,0,0,-1,1784,1660,0,0
567,-636,0,0,0,0,0,0,0,0,0,-1,1791,1660,0,0
574,-636,0,0,0,0,0,0,0,0,0,-1,1798,1660,0,0
581,-636,0,0,0,0,0,0,0,0,0,-1,1805,1660,0,0
588,-636,0,0,0,0,0,0,0,0,0,-1,1812,1660,0,0
595,-636,0,0,0,0,0,0,0,0,0,-1,1819,1660,0,0
602,-636,0,0,0,0,0,0,0,0,0,-1,1826,1660,0,0
609,-636,0,0,0,0,0,0,0,0,0,-1,1833,1660,0,0
616,-636,0,0,0,0,0,0,0,0,0,-1,1840,1660,0,0
623,-636,0,0,0,0,0,0,0,0,0,-1,1847,1660,0,0
630,-636,0,0,0,0,0,0,0,0,0,-1,1854,1660,0,0
637,-636,0,0,0,0,0,0,0,0,0,-1,1861,1660,0,0
644,-636,0,0,0,0,0,0,0,0,0,-1,1868,1660,0,0
651,-636,0,0,0,0,0,0,0,0,0,-1,1875,1660,0,0
658,-636,0,0,0,0,0,0,0,0,0,-1,1882,1660,0,0
665,-636,0,0,0,0,0,0,0,0,0,-1,1889,1660,0,0
672,-636,0,0,0,0,0,0,0,0,0,-1,1896,1660,0,0
679,-636,0,0,0,0,0,0,0,0,0,-1,1903,1660,0,0
686,-636,0,0,0,0,0,0,0,0,0,-1,1910,1660,0,0
693,-636,0,0,0,0,0,0,0,0,0,-1,1917,1660,0,0
700,-636,0,0,0,0,0,0,0,0,0,-1,1924,1660,0,0
707,-636,0,0,0,0,0,0,0,0,0,-1,1931,1660,0,0
714,-636,0,0,0,0,0,0,0,0,0,-1,1938,1660,0,0
721,-636,0,0,0,0,0,0,0,0,0,-1,1945,1660,0,0
728,-636,0,0,0,0,0,0,0,0,0,-1,1952,1660,0,0
735,-636,0,0,0,0,0,0,0,0,0,-1,1959,1660,0,0
742,-636,0,0,0,0,0,0,0,0,0,-1,1966,1660,0,0
749,-636,0,0,0,0,0,0,0,0,0,-1,1973,1660,0,0
756,-636,0,0,0,0,0,0,0,0,0,-1,1980,1660,0,0
763,-636,0,0,0,0,0,0,0,0,0,-1,1987,1660,0,0
770,-636,0,0,0,0,0,0,0,0,0,-1,1994,1660,0,0
777,-636,0,0,0,0,0,0,0,0,0,-1,2001,1660,0,0
784,-636,0,0,0,0,0,0,0,0,0,-1,2008,1660,0,0
791,-636,0,0,0,0,0,0,0,0,0,-1,2015,1660,0,0
798,-636,0,0,0,0,0,0,0,0,0,-1,2022,1660,0,0
805,-636,0,0,0,0,0,0,0,0,0,-1,2029,1660,0,0
812,-636,0,0,0,0,0,0,0,0,0,-1,2036,1660,0,0
-700,-643,0,0,0,0,0,0,0,0,0,-1,524,1667,0,0
-693,-643,0,0,0,0,0,0,0,0,0,-1,531,1667,0,0
-686,-643,0,0,0,0,0,0,0,0,0,-1,538,1667,0,0
-679,-643,0,0,0,0,0,0,0,0,0,-1,545,1667,0,0
-672,-643,0,0,0,0,0,0,0,0,0,-1,552,1667,0,0
-665,-643,0,0,0,0,0,0,0,0,0,-1,559,1667,0,0
-658,-643,0,0,0,0,0,0,0,0,0,-1,566,1667,0,0
-651,-643,0,0,0,0,0,0,0,0,0,-1,573,1667,0,0
-644,-643,0,0,0,0,0,0,0,0,0,-1,580,1667,0,0
-637,-643,0,0,0,0,0,0,0,0,0,-1,587,1667,0,0
-630,-643,0,0,0,0,0,0,0,0,0,-1,594,1667,0,0
-623,-643,0,0,0,0,0,0,0,0,0,-1,601,1667,0,0
-616,-643,0,0,0,0,0,0,0,0,0,-1,608,1667,0,0
-609,-643,0,0,0,0,0,0,0,0,0,-1,615,1667,0,0
-602,-643,0,0,0,0,0,0,0,0,0,-1,622,1667,0,0
-595,-643,0,0,0,0,0,0,0,0,0,-1,629,1667,0,0
-588,-643,0,0,0,0,0,0,0,0,0,-1,636,1667,0,0
-581,-643,0,0,0,0,0,0,0,0,0,-1,643,1667,0,0
-574,-643,0,0,0,0,0,0,0,0,0,-1,650,1667,0,0
-567,-643,0,0,0,0,0,0,0,0,0,-1,657,1667,0,0
-560,-643,0,0,0,0,0,0,0,0,0,-1,664,1667,0,0
-553,-643,0,0,0,0,0,0,0,0,0,-1,671,1667,0,0
-546,-643,0,0,0,0,0,0,0,0,0,-1,678,1667,0,0
-539,-643,0,0,0,0,0,0,0,0,0,-1,685,1667,0,0
-532,-643,0,0,0,0,0,0,0,0,0,-1,692,1667,0,0
-525,-643,0,0,0,0,0,0,0,0,0,-1,699,1667,0,0
-518,-643,0,0,0,0,0,0,0,0,0,-1,706,1667,0,0
-511,-643,0,0,0,0,0,0,0,0,0,-1,713,1667,0,0
-504,-643,0,0,0,0,0,0,0,0,0,-1,720,1667,0,0
-497,-643,0,0,0,0,0,0,0,0,0,-1,727,1667,0,0
-490,-643,0,0,0,0,0,0,0,0,0,-1,734,1667,0,0
-483,-643,0,0,0,0,0,0,0,0,0,-1,741,1667,0,0
-476,-643,0,0,0,0,0,0,0,0,0,-1,748,1667,0,0
-469,-643,0,0,0,0,0,0,0,0,0,-1,755,1667,0,0
-462,-643,0,0,0,0,0,0,0,0,0,-1,762,1667,0,0
-455,-643,0,0,0,0,0,0,0,0,0,-1,769,1667,0,0
-448,-643,0,0,0,0,0,0,0,0,0,-1,776,1667,0,0
-441,-643,0,0,0,0,0,0,0,0,0,-1,783,1667,0,0
-434,-643,0,0,0,0,0,0,0,0,0,-1,790,1667,0,0
-427,-643,0,0,0,0,0,0,0,0,0,-1,797,1667,0,0
-420,-643,0,0,0,0,0,0,0,0,0,-1,804,1667,0,0
-413,-643,0,0,0,0,0,0,0,0,0,-1,811,1667,0,0
-406,-643,0,0,0,0,0,0,0,0,0,-1,818,1667,0,0
-399,-643,0.589417,11.6465,0,0,0,0,0,0,0,-1,825,1667,0.58939,-11.6465
-392,-643,0.865295,12.6523,0,0,0,0,0,0,0,-1,832,1667,0.865315,-12.6523
-385,-643,1.72968,13.2692,0,0,0,0,0,0,0,-1,839,1667,1.72967,-13.2692
-378,-643,2.66522,13.8193,0,0,0,0,0,0,0,-1,846,1667,2.66524,-13.8193
-371,-643,0.466125,3.35095,0,0,0,0,0,0,0,-1,853,1667,0.466148,-3.351
-364,-643,1.69513,9.922,0,0,0,0,0,0,0,-1,860,1667,1.69511,-9.92205
-357,-643,1.14227,10.8429,0,0,0,0,0,0,0,-1,867,1667,1.14228,-10.8429
-350,-643,4.48804,36.1799,0,0,0,0,0,0,0,-1,874,1667,4.48801,-36.1799
-343,-643,3.39917,46.0266,0,0,0,0,0,0,0,-1,881,1667,3.3992,-46.0266
-336,-643,3.45593,47.0707,0,0,0,0,0,0,0,-1,888,1667,3.45591,-47.0707
-329,-643,3.40802,47.7726,-0.00132881,0.00364808,-0.00243632,0.00464217,-0.0023229,-1.18339,0.00409492,0.0423245,895,1667,3.40802,-47.7726
-322,-643,3.35864,48.5637,-0.00113619,0.00384327,-0.00307998,0.00531397,-0.00260689,-1.12531,0.00466129,0.0301216,902,1667,3.35862,-48.5638
-315,-643,3.24481,49.3545,-0.000883209,0.00397466,-0.00363914,0.00592101,-0.00282955,-1.07967,0.00515616,0.0184018,909,1667,3.24481,-49.3545
-308,-643,3.22467,50.1268,-0.000487232,0.00405124,-0.00399437,0.00637596,-0.00281195,-1.04372,0.00543604,0.0125337,916,1667,3.22467,-50.1268
-301,-643,3.17273,50.9098,-1.563e-05,0.00426474,-0.00406492,0.00671847,-0.00246935,-1.02771,0.00549043,0.0144228,923,1667,3.1727,-50.9098
-294,-643,3.10553,51.6667,0.000539832,0.00431082,-0.00388485,0.00674356,-0.00189291,-1.01133,0.00524187,0.0133221,930,1667,3.10552,-51.6668
-287,-643,3.07855,52.3782,0.00102635,0.00431432,-0.00339946,0.00644645,-0.00110577,-1.01062,0.00470969,0.0113577,937,1667,3.07854,-52.3782
-280,-643,3.06049,53.1301,0.00147845,0.00425841,-0.00273254,0.00593418,-0.000197321,-1.02068,0.00402351,0.0151972,944,1667,3.06051,-53.1301
-273,-643,3.01251,53.8845,0.00196377,0.00408044,-0.00189072,0.00518887,0.000855329,-1.04055,0.00321232,0.0130644,951,1667,3.01253,-53.8846
-266,-643,2.95703,54.6268,0.00247049,0.00380981,-0.000957875,0.00430889,0.0019714,-1.09046,0.00249073,0.012972,958,1667,2.95706,-54.6268
-259,-643,2.92743,55.3584,0.00298935,0.00354324,-6.61659e-05,0.00355104,0.00298156,-1.45354,0.00220221,0.0137783,965,1667,2.92744,-55.3584
-252,-643,2.90509,56.0868,0.00338672,0.00336248,0.000771507,0.0041462,0.002603,0.777545,0.00241974,0.0153088,972,1667,2.90512,-56.0867
-245,-643,2.86157,56.7999,0.00366258,0.00304232,0.00144535,0.0048307,0.0018742,0.679715,0.00281224,0.0138363,979,1667,2.86155,-56.7999
-238,-643,2.88806,57.4799,0.00361157,0.00249984,0.00200539,0.00513671,0.000974705,0.6502,0.00315024,0.0165272,986,1667,2.88806,-57.4799
-231,-643,2.84985,58.1785,0.00369511,0.00198756,0.00227465,0.00527094,0.000411729,0.605863,0.00338507,0.0117483,993,1667,2.84985,-58.1784
-224,-643,2.83014,58.843,0.00364404,0.00148367,0.00219849,0.00501338,0.000114335,0.557055,0.0033048,0.0104435,1000,1667,2.83012,-58.843
-217,-643,2.79785,59.4747,0.00337502,0.000771163,0.00201411,0.00447135,-0.000325172,0.498477,0.00309499,0.009949,1007,1667,2.79784,-59.4747
-210,-643,2.78326,60.1752,0.00303049,-0.000312509,0.00163043,0.00369399,-0.000976004,0.38648,0.00284437,0.013661,1014,1667,2.78327,-60.1752
-203,-643,2.77393,60.8971,0.00269266,-0.00166415,0.00122231,0.00301215,-0.00198364,0.255663,0.00290462,0.0167446,1021,1667,2.77391,-60.8971
-196,-643,2.78271,61.516,0.00202352,-0.00280992,0.00107025,0.0022499,-0.0030363,0.208447,0.00306322,0.0170635,1028,1667,2.78268,-61.516
-189,-643,2.89209,62.1327,0.000780382,-0.0041067,0.00055619,0.000842882,-0.0041692,0.111902,0.00309888,0.0232059,1035,1667,2.89208,-62.1327
-182,-643,2.8678,62.7604,0.00010359,-0.00414693,0.000539302,0.000170949,-0.00421429,0.124256,0.00286821,0.0408051,1042,1667,2.86777,-62.7604
-175,-643,2.8175,63.4474,0,0,0,0,0,0,0,-1,1049,1667,2.81751,-63.4474
-168,-643,3.16687,64.0874,0,0,0,0,0,0,0,-1,1056,1667,3.1669,-64.0874
-161,-643,2.87976,64.3138,0,0,0,0,0,0,0,-1,1063,1667,2.87972,-64.3139
-154,-643,2.99609,64.7715,0,0,0,0,0,0,0,-1,1070,1667,2.99608,-64.7715
-147,-643,3.10205,65.7598,0,0,0,0,0,0,0,-1,1077,1667,3.10201,-65.7597
-140,-643,2.89575,66.303,0,0,0,0,0,0,0,-1,1084,1667,2.8957,-66.303
-133,-643,2.32495,61.5938,0,0,0,0,0,0,0,-1,1091,1667,2.32497,-61.5937
-126,-643,3.28662,58.6659,0,0,0,0,0,0,0,-1,1098,1667,3.28657,-58.6658
-119,-643,3.76282,14.1458,0,0,0,0,0,0,0,-1,1105,1667,3.76283,-14.1458
-112,-643,3.81458,16.2069,0,0,0,0,0,0,0,-1,1112,1667,3.81463,-16.2069
-105,-643,-2.23413,10.0996,0,0,0,0,0,0,0,-1,1119,1667,-2.23415,-10.0996
-98,-643,3.11035,4.68066,0,0,0,0,0,0,0,-1,1126,1667,3.11041,-4.68071
-91,-643,-1.74146,-2.5885,0,0,0,0,0,0,0,-1,1133,1667,-1.74146,2.58856
-84,-643,-3.07446,-0.199341,0,0,0,0,0,0,0,-1,1140,1667,-3.07449,0.199383
-77,-643,-3.63794,2.81165,0,0,0,0,0,0,0,-1,1147,1667,-3.63791,-2.8117
-70,-643,-3.36938,4.45203,0,0,0,0,0,0,0,-1,1154,1667,-3.36941,-4.452
-63,-643,-3.67822,6.26855,0,0,0,0,0,0,0,-1,1161,1667,-3.67823,-6.26856
-56,-643,-3.95142,8.1073,0,0,0,0,0,0,0,-1,1168,1667,-3.95139,-8.10732
-49,-643,-4.23535,9.90552,0,0,0,0,0,0,0,-1,1175,1667,-4.23537,-9.90557
-42,-643,-4.25195,10.7059,0,0,0,0,0,0,0,-1,1182,1667,-4.25192,-10.706
-35,-643,-4.10986,11.6588,0,0,0,0,0,0,0,-1,1189,1667,-4.10982,-11.6589
-28,-643,-1.38513,5.604,0,0,0,0,0,0,0,-1,1196,1667,-1.3851,-5.60403
-21,-643,1.36926,74.2463,0,0,0,0,0,0,0,-1,1203,1667,1.36928,-74.2463
-14,-643,2.56445,73.3704,0,0,0,0,0,0,0,-1,1210,1667,2.56439,-73.3703
-7,-643,5.96814,72.2656,0,0,0,0,0,0,0,-1,1217,1667,5.96811,-72.2656
0,-643,6.4884,71.637,0.0637368,-0.0521579,-0.0312092,0.0716067,-0.0600278,-0.247016,0.0760971,0.0497115,1224,1667,6.48842,-71.6369
7,-643,7.02539,71.0126,0.0582687,-0.0465396,-0.038663,0.0709876,-0.0592586,-0.317819,0.0752993,0.0454977,1231,1667,7.02543,-71.0126
14,-643,7.68201,70.5979,0,0,0,0,0,0,0,-1,1238,1667,7.68206,-70.5979
21,-643,7.8916,70.3444,0,0,0,0,0,0,0,-1,1245,1667,7.89165,-70.3444
28,-643,8.31921,69.4564,0,0,0,0,0,0,0,-1,1252,1667,8.31922,-69.4565
35,-643,7.77295,67.6755,0,0,0,0,0,0,0,-1,1259,1667,7.77289,-67.6756
42,-643,8.00562,66.856,0,0,0,0,0,0,0,-1,1266,1667,8.00562,-66.8559
49,-643,7.17773,67.4557,0,0,0,0,0,0,0,-1,1273,1667,7.17775,-67.4557
56,-643,9.49902,65.3634,0.0117904,0.0219938,-0.113904,0.13091,-0.097126,-0.807778,0.132138,0.0452441,1280,1667,9.49902,-65.3634
63,-643,9.53271,64.6821,0.0034902,0.0295066,-0.118791,0.135999,-0.103002,-0.839934,0.138425,0.0477555,1287,1667,9.53277,-64.6822
70,-643,9.55579,63.8376,0,0,0,0,0,0,0,-1,1294,1667,9.55581,-63.8377
77,-643,9.52466,61.7358,0,0,0,0,0,0,0,-1,1301,1667,9.52471,-61.7358
84,-643,10.1646,61.0426,0,0,0,0,0,0,0,-1,1308,1667,10.1645,-61.0425
91,-643,8.44165,59.7278,0,0,0,0,0,0,0,-1,1315,1667,8.44167,-59.7278
98,-643,7.85718,59.106,0,0,0,0,0,0,0,-1,1322,1667,7.8572,-59.1059
105,-643,7.38892,58.63,0,0,0,0,0,0,0,-1,1329,1667,7.38886,-58.63
112,-643,4.07813,60.1243,-0.0894333,0.077238,-0.0796716,0.109195,-0.12139,-1.18933,0.133191,0.0479866,1336,1667,4.07816,-60.1243
119,-643,3.4165,60.6124,-0.106971,0.0863423,-0.0692794,0.108606,-0.129235,-1.25985,0.13749,0.0465454,1343,1667,3.41654,-60.6124
126,-643,2.5647,60.858,-0.124578,0.0960093,-0.0584185,0.110525,-0.139094,-1.32725,0.144432,0.0454016,1350,1667,2.56468,-60.8581
133,-643,1.65894,61.7269,0,0,0,0,0,0,0,-1,1357,1667,1.65899,-61.7269
140,-643,0.339233,62.4469,0,0,0,0,0,0,0,-1,1364,1667,0.339232,-62.4469
147,-643,-0.954834,63.0814,0,0,0,0,0,0,0,-1,1371,1667,-0.954781,-63.0815
154,-643,-0.207397,72.3346,0,0,0,0,0,0,0,-1,1378,1667,-0.207457,-72.3345
161,-643,5.57935,26.2754,0,0,0,0,0,0,0,-1,1385,1667,5.57931,-26.2754
168,-643,10.5563,10.9818,0,0,0,0,0,0,0,-1,1392,1667,10.5562,-10.9819
175,-643,5.88525,-1.1698,0,0,0,0,0,0,0,-1,1399,1667,5.88526,1.16977
182,-643,5.80945,-0.418701,0,0,0,0,0,0,0,-1,1406,1667,5.80949,0.418712
189,-643,5.42297,12.9208,0,0,0,0,0,0,0,-1,1413,1667,5.42298,-12.9208
196,-643,5.51953,11.2415,0,0,0,0,0,0,0,-1,1420,1667,5.51948,-11.2414
203,-643,5.60828,9.82153,0,0,0,0,0,0,0,-1,1427,1667,5.60833,-9.82148
210,-643,4.73218,7.58728,0,0,0,0,0,0,0,-1,1434,1667,4.73222,-7.58728
217,-643,3.8031,5.28955,0,0,0,0,0,0,0,-1,1441,1667,3.80305,-5.28955
224,-643,2.96436,2.97095,0,0,0,0,0,0,0,-1,1448,1667,2.96432,-2.97095
231,-643,2.13403,1.08472,0,0,0,0,0,0,0,-1,1455,1667,2.13403,-1.08467
238,-643,1.18152,-0.261963,0,0,0,0,0,0,0,-1,1462,1667,1.18152,0.26192
245,-643,-0.157471,-1.79016,0,0,0,0,0,0,0,-1,1469,1667,-0.157517,1.7901
252,-643,8.08789,0.0202637,0,0,0,0,0,0,0,-1,1476,1667,8.08791,-0.0203056
259,-643,9.02979,-0.46936,0,0,0,0,0,0,0,-1,1483,1667,9.02974,0.46933
266,-643,4.55066,5.17554,0,0,0,0,0,0,0,-1,1490,1667,4.55063,-5.17556
273,-643,10.74,31.432,0,0,0,0,0,0,0,-1,1497,1667,10.7399,-31.4319
280,-643,12.1675,42.5023,0,0,0,0,0,0,0,-1,1504,1667,12.1675,-42.5023
287,-643,12.9725,46.299,0,0,0,0,0,0,0,-1,1511,1667,12.9725,-46.299
294,-643,14.8975,62.8789,0,0,0,0,0,0,0,-1,1518,1667,14.8975,-62.8789
301,-643,15.0579,62.4218,0.00949896,-0.00283264,0.00546521,0.0115724,-0.00490612,0.362618,0.00976995,0.0462061,1525,1667,15.0579,-62.4218
308,-643,15.1742,62.0901,0.00919069,-0.00450815,0.00396668,0.0102564,-0.00557385,0.262465,0.00927191,0.0375148,1532,1667,15.1742,-62.0901
315,-643,15.1035,61.5454,0.0090304,-0.0053442,0.00269155,0.00951785,-0.00583165,0.179161,0.00894681,0.0301714,1539,1667,15.1035,-61.5454
322,-643,15.0706,60.8849,0.00906944,-0.00500987,0.00138043,0.00920351,-0.00514394,0.0968181,0.0083933,0.0193175,1546,1667,15.0706,-60.8849
329,-643,15.0822,60.2087,0.00885171,-0.00451517,0.000196677,0.00885461,-0.00451806,0.0147095,0.00785486,0.0138899,1553,1667,15.0821,-60.2088
336,-643,15.0491,59.595,0.00837308,-0.00402823,-0.000372694,0.00838427,-0.00403942,-0.0300167,0.00731758,0.0128209,1560,1667,15.0491,-59.595
343,-643,15.0646,58.9673,0.00776516,-0.00335037,-0.000809935,0.00782386,-0.00340907,-0.0723558,0.00665021,0.0150654,1567,1667,15.0645,-58.9673
350,-643,15.0742,58.274,0.00713485,-0.00261708,-0.00120535,0.00728162,-0.00276386,-0.121172,0.00599208,0.0136888,1574,1667,15.0742,-58.2741
357,-643,15.0671,57.5924,0.0064383,-0.00174613,-0.0015869,0.00673522,-0.00204305,-0.184966,0.00530398,0.0110988,1581,1667,15.0671,-57.5924
364,-643,15.0731,56.9042,0.00574323,-0.00116082,-0.00170401,0.0061409,-0.00155849,-0.229268,0.00470036,0.00991011,1588,1667,15.0732,-56.9041
371,-643,15.0518,56.2239,0.00501557,-0.000586792,-0.00161696,0.00544876,-0.00101998,-0.261758,0.00401591,0.00891184,1595,1667,15.0518,-56.2239
378,-643,15.0228,55.526,0.00421365,2.94554e-05,-0.00148134,0.004685,-0.000441893,-0.30806,0.00328056,0.0114493,1602,1667,15.0228,-55.526
385,-643,15.0105,54.8116,0.00346355,0.000457463,-0.00137415,0.00399703,-7.60173e-05,-0.370315,0.00269038,0.018327,1609,1667,15.0105,-54.8117
392,-643,14.957,54.0919,0.00272484,0.000827704,-0.00136654,0.00343977,0.000112774,-0.482008,0.00225653,0.0184825,1616,1667,14.957,-54.0919
399,-643,14.9022,53.416,0.00200993,0.00110317,-0.00144717,0.00307308,4.00161e-05,-0.633597,0.00203551,0.0148627,1623,1667,14.9022,-53.416
406,-643,14.9036,52.6636,0.00149772,0.00106475,-0.00145574,0.00275298,-0.000190514,-0.711583,0.00190201,0.0138122,1630,1667,14.9036,-52.6635
413,-643,14.902,51.8828,0.00126009,0.00072002,-0.00166488,0.00267669,-0.000696578,-0.705,0.00205636,0.0209256,1637,1667,14.902,-51.8828
420,-643,14.8408,51.1835,0.00118573,0.000246454,-0.00195157,0.00272338,-0.00129119,-0.66732,0.00236647,0.0202692,1644,1667,14.8408,-51.1835
427,-643,14.8019,50.4899,0.00144303,-0.000298886,-0.00235643,0.00308431,-0.00194017,-0.60838,0.00292585,0.0166689,1651,1667,14.8019,-50.4898
434,-643,14.7587,49.7378,0.00183419,-0.000796693,-0.00284659,0.00365459,-0.00261709,-0.568958,0.00363743,0.0180563,1658,1667,14.7587,-49.7378
441,-643,14.7194,48.9506,0.00232908,-0.00154304,-0.00318526,0.00412051,-0.00333448,-0.512324,0.00431211,0.0177343,1665,1667,14.7193,-48.9505
448,-643,14.7079,48.1525,0.00304005,-0.00225416,-0.00355251,0.00482324,-0.00403734,-0.465207,0.00512236,0.023896,1672,1667,14.7079,-48.1524
455,-643,14.5624,47.493,0.00402357,-0.00290734,-0.00397818,0.00583403,-0.0047178,-0.427085,0.00610345,0.0290991,1679,1667,14.5624,-47.4931
462,-643,14.7615,46.8054,0.00510173,-0.00391891,-0.00447404,0.00694436,-0.00576154,-0.39068,0.00734635,0.040933,1686,1667,14.7614,-46.8054
469,-643,14.9797,46.028,0,0,0,0,0,0,0,-1,1693,1667,14.9797,-46.0279
476,-643,10.5598,24.5066,0,0,0,0,0,0,0,-1,1700,1667,10.5598,-24.5065
483,-643,10.4502,24.3062,0,0,0,0,0,0,0,-1,1707,1667,10.4502,-24.3062
490,-643,10.6885,24.1522,0,0,0,0,0,0,0,-1,1714,1667,10.6884,-24.1522
497,-643,10.9073,23.9465,0,0,0,0,0,0,0,-1,1721,1667,10.9074,-23.9465
504,-643,8.05591,19.0656,0,0,0,0,0,0,0,-1,1728,1667,8.0559,-19.0655
511,-643,7.74719,18.1564,0,0,0,0,0,0,0,-1,1735,1667,7.74724,-18.1563
518,-643,7.40564,0.922607,0,0,0,0,0,0,0,-1,1742,1667,7.4057,-0.922598
525,-643,0,0,0,0,0,0,0,0,0,-1,1749,1667,0,0
532,-643,0,0,0,0,0,0,0,0,0,-1,1756,1667,0,0
539,-643,0,0,0,0,0,0,0,0,0,-1,1763,1667,0,0
546,-643,0,0,0,0,0,0,0,0,0,-1,1770,1667,0,0
553,-643,0,0,0,0,0,0,0,0,0,-1,1777,1667,0,0
560,-643,0,0,0,0,0,0,0,0,0,-1,1784,1667,0,0
567,-643,0,0,0,0,0,0,0,0,0,-1,1791,1667,0,0
574,-643,0,0,0,0,0,0,0,0,0,-1,1798,1667,0,0
581,-643,0,0,0,0,0,0,0,0,0,-1,1805,1667,0,0
588,-643,0,0,0,0,0,0,0,0,0,-1,1812,1667,0,0
595,-643,0,0,0,0,0,0,0,0,0,-1,1819,1667,0,0
602,-643,0,0,0,0,0,0,0,0,0,-1,1826,1667,0,0
609,-643,0,0,0,0,0,0,0,0,0,-1,1833,1667,0,0
616,-643,0,0,0,0,0,0,0,0,0,-1,1840,1667,0,0
623,-643,0,0,0,0,0,0,0,0,0,-1,1847,1667,0,0
630,-643,0,0,0,0,0,0,0,0,0,-1,1854,1667,0,0
637,-643,0,0,0,0,0,0,0,0,0,-1,1861,1667,0,0
644,-643,0,0,0,0,0,0,0,0,0,-1,1868,1667,0,0
651,-643,0,0,0,0,0,0,0,0,0,-1,1875,1667,0,0
658,-643,0,0,0,0,0,0,0,0,0,-1,1882,1667,0,0
665,-643,0,0,0,0,0,0,0,0,0,-1,1889,1667,0,0
672,-643,0,0,0,0,0,0,0,0,0,-1,1896,1667,0,0
679,-643,0,0,0,0,0,0,0,0,0,-1,1903,1667,0,0
686,-643,0,0,0,0,0,0,0,0,0,-1,1910,1667,0,0
693,-643,0,0,0,0,0,0,0,0,0,-1,1917,1667,0,0
700,-643,0,0,0,0,0,0,0,0,0,-1,1924,1667,0,0
707,-643,0,0,0,0,0,0,0,0,0,-1,1931,1667,0,0
714,-643,0,0,0,0,0,0,0,0,0,-1,1938,1667,0,0
721,-643,0,0,0,0,0,0,0,0,0,-1,1945,1667,0,0
728,-643,0,0,0,0,0,0,0,0,0,-1,1952,1667,0,0
735,-643,0,0,0,0,0,0,0,0,0,-1,1959,1667,0,0
742,-643,0,0,0,0,0,0,0,0,0,-1,1966,1667,0,0
749,-643,0,0,0,0,0,0,0,0,0,-1,1973,1667,0,0
756,-643,0,0,0,0,0,0,0,0,0,-1,1980,1667,0,0
763,-643,0,0,0,0,0,0,0,0,0,-1,1987,1667,0,0
770,-643,0,0,0,0,0,0,0,0,0,-1,1994,1667,0,0
777,-643,0,0,0,0,0,0,0,0,0,-1,2001,1667,0,0
784,-643,0,0,0,0,0,0,0,0,0,-1,2008,1667,0,0
791,-643,0,0,0,0,0,0,0,0,0,-1,2015,1667,0,0
798,-643,0,0,0,0,0,0,0,0,0,-1,2022,1667,0,0
805,-643,0,0,0,0,0,0,0,0,0,-1,2029,1667,0,0
812,-643,0,0,0,0,0,0,0,0,0,-1,2036,1667,0,0
-700,-650,0,0,0,0,0,0,0,0,0,-1,524,1674,0,0
-693,-650,0,0,0,0,0,0,0,0,0,-1,531,1674,0,0
-686,-650,0,0,0,0,0,0,0,0,0,-1,538,1674,0,0
-679,-650,0,0,0,0,0,0,0,0,0,-1,545,1674,0,0
-672,-650,0,0,0,0,0,0,0,0,0,-1,552,1674,0,0
-665,-650,0,0,0,0,0,0,0,0,0,-1,559,1674,0,0
-658,-650,0,0,0,0,0,0,0,0,0,-1,566,1674,0,0
-651,-650,0,0,0,0,0,0,0,0,0,-1,573,1674,0,0
-644,-650,0,0,0,0,0,0,0,0,0,-1,580,1674,0,0
-637,-650,0,0,0,0,0,0,0,0,0,-1,587,1674,0,0
-630,-650,0,0,0,0,0,0,0,0,0,-1,594,1674,0,0
-623,-650,0,0,0,0,0,0,0,0,0,-1,601,1674,0,0
-616,-650,0,0,0,0,0,0,0,0,0,-1,608,1674,0,0
-609,-650,0,0,0,0,0,0,0,0,0,-1,615,1674,0,0
-602,-650,0,0,0,0,0,0,0,0,0,-1,622,1674,0,0
-595,-650,0,0,0,0,0,0,0,0,0,-1,629,1674,0,0
-588,-650,0,0,0,0,0,0,0,0,0,-1,636,1674,0,0
-581,-650,0,0,0,0,0,0,0,0,0,-1,643,1674,0,0
-574,-650,0,0,0,0,0,0,0,0,0,-1,650,1674,0,0
-567,-650,0,0,0,0,0,0,0,0,0,-1,657,1674,0,0
-560,-650,0,0,0,0,0,0,0,0,0,-1,664,1674,0,0
-553,-650,0,0,0,0,0,0,0,0,0,-1,671,1674,0,0
-546,-650,0,0,0,0,0,0,0,0,0,-1,678,1674,0,0
-539,-650,0,0,0,0,0,0,0,0,0,-1,685,1674,0,0
-532,-650,0,0,0,0,0,0,0,0,0,-1,692,1674,0,0
-525,-650,0,0,0,0,0,0,0,0,0,-1,699,1674,0,0
-518,-650,0,0,0,0,0,0,0,0,0,-1,706,1674,0,0
-511,-650,0,0,0,0,0,0,0,0,0,-1,713,1674,0,0
-504,-650,0,0,0,0,0,0,0,0,0,-1,720,1674,0,0
-497,-650,0,0,0,0,0,0,0,0,0,-1,727,1674,0,0
-490,-650,0,0,0,0,0,0,0,0,0,-1,734,1674,0,0
-483,-650,0,0,0,0,0,0,0,0,0,-1,741,1674,0,0
-476,-650,0,0,0,0,0,0,0,0,0,-1,748,1674,0,0
-469,-650,0,0,0,0,0,0,0,0,0,-1,755,1674,0,0
-462,-650,0,0,0,0,0,0,0,0,0,-1,762,1674,0,0
-455,-650,0,0,0,0,0,0,0,0,0,-1,769,1674,0,0
-448,-650,0,0,0,0,0,0,0,0,0,-1,776,1674,0,0
-441,-650,0,0,0,0,0,0,0,0,0,-1,783,1674,0,0
-434,-650,0,0,0,0,0,0,0,0,0,-1,790,1674,0,0
-427,-650,0,0,0,0,0,0,0,0,0,-1,797,1674,0,0
-420,-650,0,0,0,0,0,0,0,0,0,-1,804,1674,0,0
-413,-650,0,0,0,0,0,0,0,0,0,-1,811,1674,0,0
-406,-650,0,0,0,0,0,0,0,0,0,-1,818,1674,0,0
-399,-650,0,0,0,0,0,0,0,0,0,-1,825,1674,0,0
-392,-650,5.44415,6.85669,0,0,0,0,0,0,0,-1,832,1674,5.44414,-6.85674
-385,-650,1.74451,14.0183,0,0,0,0,0,0,0,-1,839,1674,1.74453,-14.0183
-378,-650,0.997986,4.11108,0,0,0,0,0,0,0,-1,846,1674,0.998006,-4.11113
-371,-650,-1.80096,3.78625,0,0,0,0,0,0,0,-1,853,1674,-1.80094,-3.78625
-364,-650,-2.95679,2.57507,0,0,0,0,0,0,0,-1,860,1674,-2.95681,-2.57506
-357,-650,5.76074,34.531,0,0,0,0,0,0,0,-1,867,1674,5.76077,-34.531
-350,-650,5.11011,35.4972,0,0,0,0,0,0,0,-1,874,1674,5.1101,-35.4971
-343,-650,5.20538,37.4165,0,0,0,0,0,0,0,-1,881,1674,5.20538,-37.4166
-336,-650,4.07892,46.8629,0,0,0,0,0,0,0,-1,888,1674,4.07892,-46.863
-329,-650,4.18976,47.7871,0,0,0,0,0,0,0,-1,895,1674,4.18977,-47.7871
-322,-650,4.30469,48.516,-0.000470029,0.00607413,-0.00517619,0.00892573,-0.00332163,-1.06726,0.00731361,0.0464221,902,1674,4.30467,-48.516
-315,-650,4.11908,49.2721,-8.97137e-05,0.00627583,-0.00594641,0.00983767,-0.00365156,-1.03112,0.00805637,0.0399161,909,1674,4.1191,-49.2721
-308,-650,3.99786,50.1383,0.000249778,0.00635796,-0.00648438,0.0104715,-0.00386374,-1.00548,0.00856451,0.0233619,916,1674,3.99789,-50.1383
-301,-650,3.91425,50.918,0.000554878,0.00648474,-0.00671932,0.0108642,-0.00382458,-0.993177,0.00879923,0.012622,923,1674,3.91425,-50.918
-294,-650,3.8446,51.6689,0.000855553,0.00635675,-0.00667095,0.0108219,-0.00360962,-0.980941,0.00867196,0.0106882,930,1674,3.84462,-51.6689
-287,-650,3.80768,52.4084,0.00108264,0.00617195,-0.00616728,0.0102989,-0.00304433,-0.981061,0.00807435,0.0142439,937,1674,3.80768,-52.4085
-280,-650,3.77441,53.1697,0.00122002,0.00585987,-0.00541802,0.00943375,-0.00235387,-0.987682,0.00720315,0.0159664,944,1674,3.77439,-53.1697
-273,-650,3.73346,53.9496,0.00139163,0.00542122,-0.00439654,0.00824264,-0.00142978,-1.00025,0.00602847,0.0145616,951,1674,3.73343,-53.9495
-266,-650,3.66119,54.6707,0.00161989,0.00485794,-0.00326277,0.00688129,-0.000403462,-1.0157,0.00472776,0.0122694,958,1674,3.66117,-54.6707
-259,-650,3.638,55.374,0.00188898,0.00428623,-0.00217417,0.00557029,0.000604918,-1.03732,0.00352921,0.0162014,965,1674,3.638,-55.374
-252,-650,3.60229,56.0958,0.00205529,0.00381523,-0.00113084,0.00436814,0.00150238,-1.11604,0.00256257,0.0150931,972,1674,3.6023,-56.0958
-245,-650,3.5636,56.7928,0.00215676,0.00327876,-0.000287286,0.00334804,0.00208748,-1.33416,0.00195254,0.0131976,979,1674,3.56359,-56.7928
-238,-650,3.54535,57.5065,0.00208052,0.00271318,0.000499967,0.00298849,0.00180521,1.06746,0.00173781,0.0135667,986,1674,3.54536,-57.5064
-231,-650,3.48395,58.239,0.00212855,0.00197454,0.00110066,0.00315489,0.0009482,0.750472,0.00186916,0.0188518,993,1674,3.48392,-58.2391
-224,-650,3.4715,58.9238,0.0021889,0.00122578,0.00131931,0.00311179,0.00030289,0.610407,0.0019813,0.0164477,1000,1674,3.4715,-58.9239
-217,-650,3.47656,59.5352,0.00217515,0.00062207,0.00117369,0.00280594,-8.71916e-06,0.493148,0.00187354,0.0112325,1007,1674,3.47658,-59.5352
-210,-650,3.48315,60.1771,0.00214439,-0.000283786,0.000889263,0.00243523,-0.000574622,0.316088,0.0018451,0.0109218,1014,1674,3.48316,-60.1771
-203,-650,3.49927,60.8374,0.0021277,-0.00138249,0.000592806,0.00222511,-0.0014799,0.162866,0.00215347,0.014924,1021,1674,3.49925,-60.8375
-196,-650,3.47498,61.486,0.00189173,-0.00228737,0.000430779,0.00193567,-0.00233131,0.101655,0.00246707,0.0136556,1028,1674,3.47499,-61.486
-189,-650,3.48035,62.1305,0.00128682,-0.00315459,6.18975e-05,0.00128768,-0.00315546,0.0139328,0.00263972,0.0125246,1035,1674,3.48035,-62.1306
-182,-650,3.5448,62.8102,0.00102445,-0.00298963,-3.67338e-05,0.00102479,-0.00298997,-0.00915019,0.00240871,0.0164215,1042,1674,3.54478,-62.8101
-175,-650,3.53821,63.3352,0.00088915,-0.00312092,5.75216e-06,0.000889159,-0.00312093,0.00143442,0.00243181,0.0297334,1049,1674,3.53816,-63.3352
-168,-650,3.54382,63.9125,0.000708358,-0.00247309,0.000198945,0.00072075,-0.00248549,0.0622097,0.00194234,0.0350169,1056,1674,3.54384,-63.9125
-161,-650,3.495,64.3484,0.000633536,-0.00119848,0.000494419,0.000758451,-0.0013234,0.247471,0.00121662,0.0423288,1063,1674,3.49498,-64.3484
-154,-650,3.59058,64.8867,0.000391161,0.000771841,0.000831968,0.00143496,-0.000271962,0.897854,0.001059,0.039775,1070,1674,3.59052,-64.8867
-147,-650,3.66309,65.6981,1.30274e-05,0.00351016,0.00124807,0.00390988,-0.000386697,1.26084,0.00274458,0.0453586,1077,1674,3.66312,-65.6981
-140,-650,3.4342,66.4408,-0.000620283,0.00680093,0.00159961,0.00713103,-0.000950388,1.36729,0.00510042,0.0477941,1084,1674,3.43424,-66.4407
-133,-650,3.17981,67.5325,0,0,0,0,0,0,0,-1,1091,1674,3.17976,-67.5325
-126,-650,3.67334,62.924,0,0,0,0,0,0,0,-1,1098,1674,3.67329,-62.924
-119,-650,5.16663,20.6232,0,0,0,0,0,0,0,-1,1105,1674,5.16665,-20.6232
-112,-650,3.86292,14.4513,0,0,0,0,0,0,0,-1,1112,1674,3.8629,-14.4513
-105,-650,7.92102,38.1313,0,0,0,0,0,0,0,-1,1119,1674,7.92104,-38.1314
-98,-650,3.3761,6.78003,0,0,0,0,0,0,0,-1,1126,1674,3.37611,-6.78009
-91,-650,3.66809,7.04443,0,0,0,0,0,0,0,-1,1133,1674,3.66806,-7.04439
-84,-650,-3.82666,-1.59521,0,0,0,0,0,0,0,-1,1140,1674,-3.82661,1.59517
-77,-650,-4.70557,1.90198,0,0,0,0,0,0,0,-1,1147,1674,-4.7056,-1.90194
-70,-650,-4.88171,3.81653,0,0,0,0,0,0,0,-1,1154,1674,-4.88176,-3.81651
-63,-650,-5.14612,5.56543,0,0,0,0,0,0,0,-1,1161,1674,-5.14612,-5.56547
-56,-650,-5.38367,7.41101,0,0,0,0,0,0,0,-1,1168,1674,-5.38361,-7.41102
-49,-650,-5.11316,8.23706,0,0,0,0,0,0,0,-1,1175,1674,-5.11317,-8.23708
-42,-650,-4.99487,9.6792,0,0,0,0,0,0,0,-1,1182,1674,-4.99484,-9.67921
-35,-650,-4.77771,11.3369,0,0,0,0,0,0,0,-1,1189,1674,-4.77769,-11.3369
-28,-650,-4.1936,13.1501,0,0,0,0,0,0,0,-1,1196,1674,-4.19358,-13.1501
-21,-650,7.52466,48.5822,0,0,0,0,0,0,0,-1,1203,1674,7.52469,-48.5821
-14,-650,3.28076,71.3094,0,0,0,0,0,0,0,-1,1210,1674,3.28082,-71.3094
-7,-650,6.16663,72.4296,0,0,0,0,0,0,0,-1,1217,1674,6.16666,-72.4296
0,-650,6.70923,71.8193,0.0575139,-0.0449079,-0.0311182,0.0662271,-0.0536211,-0.273012,0.0693218,0.0466182,1224,1674,6.70923,-71.8194
7,-650,7.27405,71.2134,0.054347,-0.0404041,-0.0372449,0.0672344,-0.0532915,-0.333124,0.0697407,0.0453922,1231,1674,7.27403,-71.2134
14,-650,7.87512,70.6646,0.0499729,-0.0326438,-0.0464578,0.0708313,-0.0535022,-0.422001,0.072016,0.0435796,1238,1674,7.87515,-70.6645
21,-650,8.42603,70.0924,0.0451798,-0.0226824,-0.0575442,0.0780518,-0.0555544,-0.51901,0.0775013,0.0455208,1245,1674,8.42605,-70.0924
28,-650,8.89917,69.225,0.0402178,-0.0117435,-0.069455,0.0883923,-0.0599181,-0.606423,0.0861514,0.0457696,1252,1674,8.8992,-69.2249
35,-650,8.948,68.4755,0.0355936,-0.00115521,-0.0810204,0.100297,-0.0658586,-0.673891,0.0966144,0.0436994,1259,1674,8.94795,-68.4754
42,-650,8.56494,67.8268,0.0304753,0.00962823,-0.0917323,0.112374,-0.0722708,-0.728826,0.10744,0.0413052,1266,1674,8.56497,-67.8267
49,-650,8.47974,66.8068,0.0251227,0.0185805,-0.100115,0.12202,-0.0783173,-0.769067,0.116579,0.0474356,1273,1674,8.47971,-66.8068
56,-650,8.7793,65.5574,0,0,0,0,0,0,0,-1,1280,1674,8.77928,-65.5574
63,-650,10.1985,64.308,0.0136979,0.0320045,-0.110368,0.133599,-0.0878961,-0.82677,0.128784,0.047683,1287,1674,10.1985,-64.308
70,-650,10.5206,63.0161,0.00478804,0.0382898,-0.111316,0.134108,-0.0910304,-0.860078,0.130775,0.0478849,1294,1674,10.5206,-63.0162
77,-650,10.5465,61.7107,-0.00511742,0.0425809,-0.10896,0.130271,-0.0928074,-0.893139,0.129398,0.0426591,1301,1674,10.5465,-61.7106
84,-650,10.8911,60.6746,-0.0167007,0.0463526,-0.104161,0.123653,-0.0940012,-0.932352,0.126051,0.0481411,1308,1674,10.8911,-60.6746
91,-650,11.1035,59.3815,0,0,0,0,0,0,0,-1,1315,1674,11.1035,-59.3814
98,-650,9.12671,58.7795,0,0,0,0,0,0,0,-1,1322,1674,9.12674,-58.7796
105,-650,8.12646,58.662,0,0,0,0,0,0,0,-1,1329,1674,8.12652,-58.662
112,-650,6.12219,59.5281,-0.0746396,0.0653875,-0.069014,0.0936838,-0.102936,-1.18169,0.11356,0.0439586,1336,1674,6.12215,-59.528
119,-650,5.23657,60.0679,-0.0915352,0.0728712,-0.0593974,0.092085,-0.110749,-1.25794,0.117271,0.0435022,1343,1674,5.23653,-60.0679
126,-650,4.23157,60.5919,-0.107514,0.0813564,-0.0503779,0.0939536,-0.120111,-1.32577,0.123898,0.0478804,1350,1674,4.23163,-60.5919
133,-650,2.94055,61.1459,-0.120598,0.09144,-0.0439226,0.100178,-0.129336,-1.37441,0.132866,0.0472376,1357,1674,2.94056,-61.1459
140,-650,1.65161,61.7272,-0.127228,0.102652,-0.0423053,0.11019,-0.134766,-1.39446,0.141663,0.0473231,1364,1674,1.65166,-61.7272
147,-650,0.218384,62.5913,0,0,0,0,0,0,0,-1,1371,1674,0.218392,-62.5913
154,-650,-0.926758,63.2802,0,0,0,0,0,0,0,-1,1378,1674,-0.926785,-63.2801
161,-650,4.09106,30.3021,0,0,0,0,0,0,0,-1,1385,1674,4.09104,-30.3021
168,-650,11.2113,7.87231,0,0,0,0,0,0,0,-1,1392,1674,11.2113,-7.87236
175,-650,5.62537,-0.230713,0,0,0,0,0,0,0,-1,1399,1674,5.62538,0.230745
182,-650,5.56006,0.421631,0,0,0,0,0,0,0,-1,1406,1674,5.56,-0.421652
189,-650,4.81543,11.0654,0,0,0,0,0,0,0,-1,1413,1674,4.81542,-11.0654
196,-650,5.39575,11.9077,0,0,0,0,0,0,0,-1,1420,1674,5.39575,-11.9078
203,-650,3.93628,11.8215,0,0,0,0,0,0,0,-1,1427,1674,3.93624,-11.8216
210,-650,5.40955,8.08594,0,0,0,0,0,0,0,-1,1434,1674,5.40958,-8.086
217,-650,5.12451,4.69739,0,0,0,0,0,0,0,-1,1441,1674,5.12451,-4.69738
224,-650,4.79041,1.45813,0,0,0,0,0,0,0,-1,1448,1674,4.79046,-1.45816
231,-650,4.04102,-0.642212,0,0,0,0,0,0,0,-1,1455,1674,4.04101,0.642209
238,-650,3.23022,-1.43396,0,0,0,0,0,0,0,-1,1462,1674,3.23023,1.43394
245,-650,1.65894,-2.55042,0,0,0,0,0,0,0,-1,1469,1674,1.65889,2.55036
252,-650,8.75342,0.355103,0,0,0,0,0,0,0,-1,1476,1674,8.75337,-0.355147
259,-650,5.61255,3.17566,0,0,0,0,0,0,0,-1,1483,1674,5.61257,-3.17572
266,-650,4.00403,6.10229,0,0,0,0,0,0,0,-1,1490,1674,4.00401,-6.10225
273,-650,11.9524,42.7109,0,0,0,0,0,0,0,-1,1497,1674,11.9524,-42.7109
280,-650,12.3011,46.7283,0,0,0,0,0,0,0,-1,1504,1674,12.3011,-46.7283
287,-650,14.0593,62.3341,0,0,0,0,0,0,0,-1,1511,1674,14.0593,-62.334
294,-650,14.4701,63.2085,0,0,0,0,0,0,0,-1,1518,1674,14.4702,-63.2085
301,-650,14.3044,62.6835,0.00827486,-0.00220477,0.00369976,0.0094494,-0.00337931,0.3074,0.00767806,0.0379979,1525,1674,14.3045,-62.6835
308,-650,14.3861,62.1313,0.00754038,-0.00215312,0.00285755,0.00832004,-0.00293279,0.266362,0.00674044,0.0212253,1532,1674,14.3861,-62.1314
315,-650,14.4194,61.531,0.00689074,-0.00191626,0.00200774,0.00732685,-0.00235237,0.213892,0.00582911,0.0136729,1539,1674,14.4194,-61.531
322,-650,14.4032,60.918,0.00641396,-0.00120275,0.00100506,0.00654435,-0.00133314,0.129013,0.00486851,0.0126601,1546,1674,14.4032,-60.9179
329,-650,14.4274,60.2194,0.00601531,-0.000616887,7.81192e-05,0.00601623,-0.000617807,0.0117766,0.00423182,0.0180326,1553,1674,14.4274,-60.2193
336,-650,14.4222,59.6248,0.00557195,-0.000102431,-0.000533462,0.00562167,-0.000152148,-0.0929273,0.00379951,0.0160269,1560,1674,14.4222,-59.6248
343,-650,14.4408,58.9844,0.00504537,0.0003867,-0.00102259,0.00525995,0.000172124,-0.206836,0.00345069,0.0152322,1567,1674,14.4408,-58.9844
350,-650,14.4117,58.2832,0.00454759,0.000816908,-0.00147282,0.00505895,0.00030555,-0.334175,0.00327553,0.0169739,1574,1674,14.4118,-58.2832
357,-650,14.3767,57.6074,0.00404893,0.00131337,-0.00188356,0.00500895,0.000353355,-0.471361,0.00322797,0.0139217,1581,1674,14.3767,-57.6074
364,-650,14.3779,56.932,0.00357476,0.00148027,-0.00204123,0.00482171,0.00023332,-0.548384,0.00313959,0.0107454,1588,1674,14.3779,-56.932
371,-650,14.3358,56.2236,0.00310485,0.00159339,-0.00201534,0.0045015,0.000196742,-0.606018,0.00293762,0.0131192,1595,1674,14.3358,-56.2236
378,-650,14.3036,55.5337,0.00259229,0.00172268,-0.0019239,0.0041299,0.000185067,-0.674265,0.0026937,0.0136044,1602,1674,14.3036,-55.5337
385,-650,14.2936,54.8458,0.00211934,0.00166859,-0.00183228,0.00374006,4.78708e-05,-0.724204,0.00247757,0.0159723,1609,1674,14.2935,-54.8459
392,-650,14.2433,54.1432,0.00165525,0.00163165,-0.00183618,0.00347967,-0.000192762,-0.782185,0.00238663,0.0202281,1616,1674,14.2433,-54.1432
399,-650,14.214,53.4596,0.00118274,0.00156195,-0.0019046,0.00328636,-0.000541676,-0.835011,0.002392,0.0176638,1623,1674,14.214,-53.4596
406,-650,14.2018,52.7098,0.00087152,0.00126993,-0.00184614,0.00292758,-0.000786132,-0.839142,0.00225981,0.0163515,1630,1674,14.2018,-52.7098
413,-650,14.1763,51.9457,0.000830732,0.000688624,-0.00204612,0.00280703,-0.00128768,-0.768042,0.00241772,0.0170261,1637,1674,14.1763,-51.9457
420,-650,14.1029,51.2578,0.000898151,0.00013097,-0.00232361,0.00286962,-0.0018405,-0.703594,0.00274094,0.016869,1644,1674,14.1029,-51.2578
427,-650,14.0583,50.5627,0.00128226,-0.000329044,-0.0027986,0.00338886,-0.00243565,-0.645249,0.00337776,0.0160809,1651,1674,14.0584,-50.5627
434,-650,13.994,49.8114,0.00187125,-0.000865376,-0.00333697,0.00410955,-0.00310368,-0.59083,0.00417803,0.0248486,1658,1674,13.994,-49.8114
441,-650,14.0321,48.915,0.00260386,-0.00170497,-0.00376251,0.00478512,-0.00388622,-0.525384,0.00501536,0.0464895,1665,1674,14.0321,-48.9151
448,-650,13.9727,47.9821,0,0,0,0,0,0,0,-1,1672,1674,13.9726,-47.9821
455,-650,13.2238,47.9375,0,0,0,0,0,0,0,-1,1679,1674,13.2238,-47.9376
462,-650,14.3673,46.9957,0,0,0,0,0,0,0,-1,1686,1674,14.3674,-46.9957
469,-650,11.3628,29.8889,0,0,0,0,0,0,0,-1,1693,1674,11.3628,-29.8889
476,-650,10.9189,27.1289,0,0,0,0,0,0,0,-1,1700,1674,10.919,-27.1289
483,-650,10.2426,24.5127,0,0,0,0,0,0,0,-1,1707,1674,10.2425,-24.5127
490,-650,10.4818,24.3475,0,0,0,0,0,0,0,-1,1714,1674,10.4818,-24.3475
497,-650,10.4985,20.1362,0,0,0,0,0,0,0,-1,1721,1674,10.4986,-20.1362
504,-650,9.69458,18.7721,0,0,0,0,0,0,0,-1,1728,1674,9.6946,-18.772
511,-650,9.37158,17.7506,0,0,0,0,0,0,0,-1,1735,1674,9.37159,-17.7506
518,-650,0,0,0,0,0,0,0,0,0,-1,1742,1674,0,0
525,-650,0,0,0,0,0,0,0,0,0,-1,1749,1674,0,0
532,-650,0,0,0,0,0,0,0,0,0,-1,1756,1674,0,0
539,-650,0,0,0,0,0,0,0,0,0,-1,1763,1674,0,0
546,-650,0,0,0,0,0,0,0,0,0,-1,1770,1674,0,0
553,-650,0,0,0,0,0,0,0,0,0,-1,1777,1674,0,0
560,-650,0,0,0,0,0,0,0,0,0,-1,1784,1674,0,0
567,-650,0,0,0,0,0,0,0,0,0,-1,1791,1674,0,0
574,-650,0,0,0,0,0,0,0,0,0,-1,1798,1674,0,0
581,-650,0,0,0,0,0,0,0,0,0,-1,1805,1674,0,0
588,-650,0,0,0,0,0,0,0,0,0,-1,1812,1674,0,0
595,-650,0,0,0,0,0,0,0,0,0,-1,1819,1674,0,0
602,-650,0,0,0,0,0,0,0,0,0,-1,1826,1674,0,0
609,-650,0,0,0,0,0,0,0,0,0,-1,1833,1674,0,0
616,-650,0,0,0,0,0,0,0,0,0,-1,1840,1674,0,0
623,-650,0,0,0,0,0,0,0,0,0,-1,1847,1674,0,0
630,-650,0,0,0,0,0,0,0,0,0,-1,1854,1674,0,0
637,-650,0,0,0,0,0,0,0,0,0,-1,1861,1674,0,0
644,-650,0,0,0,0,0,0,0,0,0,-1,1868,1674,0,0
651,-650,0,0,0,0,0,0,0,0,0,-1,1875,1674,0,0
658,-650,0,0,0,0,0,0,0,0,0,-1,1882,1674,0,0
665,-650,0,0,0,0,0,0,0,0,0,-1,1889,1674,0,0
672,-650,0,0,0,0,0,0,0,0,0,-1,1896,1674,0,0
679,-650,0,0,0,0,0,0,0,0,0,-1,1903,1674,0,0
686,-650,0,0,0,0,0,0,0,0,0,-1,1910,1674,0,0
693,-650,0,0,0,0,0,0,0,0,0,-1,1917,1674,0,0
700,-650,0,0,0,0,0,0,0,0,0,-1,1924,1674,0,0
707,-650,0,0,0,0,0,0,0,0,0,-1,1931,1674,0,0
714,-650,0,0,0,0,0,0,0,0,0,-1,1938,1674,0,0
721,-650,0,0,0,0,0,0,0,0,0,-1,1945,1674,0,0
728,-650,0,0,0,0,0,0,0,0,0,-1,1952,1674,0,0
735,-650,0,0,0,0,0,0,0,0,0,-1,1959,1674,0,0
742,-650,0,0,0,0,0,0,0,0,0,-1,1966,1674,0,0
749,-650,0,0,0,0,0,0,0,0,0,-1,1973,1674,0,0
756,-650,0,0,0,0,0,0,0,0,0,-1,1980,1674,0,0
763,-650,0,0,0,0,0,0,0,0,0,-1,1987,1674,0,0
770,-650,0,0,0,0,0,0,0,0,0,-1,1994,1674,0,0
777,-650,0,0,0,0,0,0,0,0,0,-1,2001,1674,0,0
784,-650,0,0,0,0,0,0,0,0,0,-1,2008,1674,0,0
791,-650,0,0,0,0,0,0,0,0,0,-1,2015,1674,0,0
798,-650,0,0,0,0,0,0,0,0,0,-1,2022,1674,0,0
805,-650,0,0,0,0,0,0,0,0,0,-1,2029,1674,0,0
812,-650,0,0,0,0,0,0,0,0,0,-1,2036,1674,0,0
-700,-657,0,0,0,0,0,0,0,0,0,-1,524,1681,0,0
-693,-657,0,0,0,0,0,0,0,0,0,-1,531,1681,0,0
-686,-657,0,0,0,0,0,0,0,0,0,-1,538,1681,0,0
-679,-657,0,0,0,0,0,0,0,0,0,-1,545,1681,0,0
-672,-657,0,0,0,0,0,0,0,0,0,-1,552,1681,0,0
-665,-657,0,0,0,0,0,0,0,0,0,-1,559,1681,0,0
-658,-657,0,0,0,0,0,0,0,0,0,-1,566,1681,0,0
-651,-657,0,0,0,0,0,0,0,0,0,-1,573,1681,0,0
-644,-657,0,0,0,0,0,0,0,0,0,-1,580,1681,0,0
-637,-657,0,0,0,0,0,0,0,0,0,-1,587,1681,0,0
-630,-657,0,0,0,0,0,0,0,0,0,-1,594,1681,0,0
-623,-657,0,0,0,0,0,0,0,0,0,-1,601,1681,0,0
-616,-657,0,0,0,0,0,0,0,0,0,-1,608,1681,0,0
-609,-657,0,0,0,0,0,0,0,0,0,-1,615,1681,0,0
-602,-657,0,0,0,0,0,0,0,0,0,-1,622,1681,0,0
-595,-657,0,0,0,0,0,0,0,0,0,-1,629,1681,0,0
-588,-657,0,0,0,0,0,0,0,0,0,-1,636,1681,0,0
-581,-657,0,0,0,0,0,0,0,0,0,-1,643,1681,0,0
-574,-657,0,0,0,0,0,0,0,0,0,-1,650,1681,0,0
-567,-657,0,0,0,0,0,0,0,0,0,-1,657,1681,0,0
-560,-657,0,0,0,0,0,0,0,0,0,-1,664,1681,0,0
-553,-657,0,0,0,0,0,0,0,0,0,-1,671,1681,0,0
-546,-657,0,0,0,0,0,0,0,0,0,-1,678,1681,0,0
-539,-657,0,0,0,0,0,0,0,0,0,-1,685,1681,0,0
-532,-657,0,0,0,0,0,0,0,0,0,-1,692,1681,0,0
-525,-657,0,0,0,0,0,0,0,0,0,-1,699,1681,0,0
-518,-657,0,0,0,0,0,0,0,0,0,-1,706,1681,0,0
-511,-657,0,0,0,0,0,0,0,0,0,-1,713,1681,0,0
-504,-657,0,0,0,0,0,0,0,0,0,-1,720,1681,0,0
-497,-657,0,0,0,0,0,0,0,0,0,-1,727,1681,0,0
-490,-657,0,0,0,0,0,0,0,0,0,-1,734,1681,0,0
-483,-657,0,0,0,0,0,0,0,0,0,-1,741,1681,0,0
-476,-657,0,0,0,0,0,0,0,0,0,-1,748,1681,0,0
-469,-657,0,0,0,0,0,0,0,0,0,-1,755,1681,0,0
-462,-657,0,0,0,0,0,0,0,0,0,-1,762,1681,0,0
-455,-657,0,0,0,0,0,0,0,0,0,-1,769,1681,0,0
-448,-657,0,0,0,0,0,0,0,0,0,-1,776,1681,0,0
-441,-657,0,0,0,0,0,0,0,0,0,-1,783,1681,0,0
-434,-657,0,0,0,0,0,0,0,0,0,-1,790,1681,0,0
-427,-657,0,0,0,0,0,0,0,0,0,-1,797,1681,0,0
-420,-657,0,0,0,0,0,0,0,0,0,-1,804,1681,0,0
-413,-657,0,0,0,0,0,0,0,0,0,-1,811,1681,0,0
-406,-657,0,0,0,0,0,0,0,0,0,-1,818,1681,0,0
-399,-657,0,0,0,0,0,0,0,0,0,-1,825,1681,0,0
-392,-657,0,0,0,0,0,0,0,0,0,-1,832,1681,0,0
-385,-657,1.09814,6.18896,0,0,0,0,0,0,0,-1,839,1681,1.09814,-6.18894
-378,-657,0.31488,4.46753,0,0,0,0,0,0,0,-1,846,1681,0.31487,-4.46755
-371,-657,-0.519043,2.69421,0,0,0,0,0,0,0,-1,853,1681,-0.519064,-2.69422
-364,-657,-3.42017,4.18323,0,0,0,0,0,0,0,-1,860,1681,-3.42019,-4.18319
-357,-657,5.03418,34.7598,0,0,0,0,0,0,0,-1,867,1681,5.03417,-34.7597
-350,-657,4.23431,35.8203,0,0,0,0,0,0,0,-1,874,1681,4.23429,-35.8203
-343,-657,3.60156,36.754,0,0,0,0,0,0,0,-1,881,1681,3.60154,-36.754
-336,-657,3.67853,40.0931,0,0,0,0,0,0,0,-1,888,1681,3.67851,-40.0932
-329,-657,5.24097,48.452,0,0,0,0,0,0,0,-1,895,1681,5.24094,-48.452
-322,-657,5.21826,48.5081,0,0,0,0,0,0,0,-1,902,1681,5.21825,-48.5081
-315,-657,5.02771,49.2064,0.0014675,0.00932557,-0.00948474,0.0156629,-0.0048698,-0.981762,0.0123884,0.0455053,909,1681,5.02774,-49.2065
-308,-657,4.71796,50.1732,0.00182184,0.00956349,-0.0102333,0.0166336,-0.00524829,-0.96621,0.0131912,0.0416337,916,1681,4.71795,-50.1732
-301,-657,4.65558,50.9071,0.00200791,0.00968937,-0.0105738,0.0170984,-0.00540112,-0.959604,0.0135627,0.0307285,923,1681,4.65559,-50.9071
-294,-657,4.56085,51.7057,0.0020779,0.00943641,-0.0105338,0.016915,-0.0054007,-0.953415,0.0134435,0.0171234,930,1681,4.56083,-51.7056
-287,-657,4.51044,52.4685,0.00203194,0.00906556,-0.00984076,0.015999,-0.00490153,-0.957012,0.0126212,0.0122446,937,1681,4.51041,-52.4685
-280,-657,4.46893,53.2324,0.00181363,0.00845126,-0.00881054,0.0145473,-0.00428245,-0.965522,0.0113971,0.0143149,944,1681,4.46892,-53.2325
-273,-657,4.43463,53.9846,0.00160677,0.00767302,-0.00739853,0.012636,-0.00335624,-0.979931,0.00973751,0.0106605,951,1681,4.43463,-53.9846
-266,-657,4.37183,54.6788,0.0014705,0.00672049,-0.00586175,0.0105182,-0.00232717,-0.995917,0.00790289,0.0154903,958,1681,4.37182,-54.6788
-259,-657,4.34888,55.3846,0.00141296,0.00576675,-0.00438889,0.00848896,-0.00130924,-1.01562,0.00614241,0.0199331,965,1681,4.34888,-55.3847
-252,-657,4.28418,56.1013,0.00128545,0.00491328,-0.00296993,0.00657942,-0.000380692,-1.05954,0.00451853,0.0144117,972,1681,4.28419,-56.1013
-245,-657,4.25024,56.8199,0.00114792,0.00409694,-0.00183645,0.00497758,0.000267283,-1.12366,0.00323298,0.0163447,979,1681,4.25026,-56.82
-238,-657,4.23944,57.5735,0.00096055,0.00345472,-0.000707197,0.00364129,0.000773987,-1.31287,0.00221507,0.0209374,986,1681,4.23942,-57.5735
-231,-657,4.20721,58.2831,0.000894372,0.00241299,0.000335886,0.00248397,0.000823398,1.36256,0.00146102,0.0226418,993,1681,4.20724,-58.283
-224,-657,4.15076,58.9596,0.000994646,0.00137337,0.0009345,0.0021375,0.000230514,0.885361,0.00135471,0.018435,1000,1681,4.15073,-58.9596
-217,-657,4.14758,59.6138,0.00115488,0.000867611,0.000838175,0.00186164,0.000160851,0.700541,0.0011911,0.0114866,1007,1681,4.14759,-59.6138
-210,-657,4.14838,60.2413,0.0013372,0.000117355,0.000630628,0.0016046,-0.000150047,0.401045,0.00112309,0.0119961,1014,1681,4.14839,-60.2413
-203,-657,4.14453,60.8859,0.00154266,-0.000789986,0.00040373,0.00161056,-0.000857886,0.166624,0.00144707,0.0138218,1021,1681,4.14449,-60.8859
-196,-657,4.12732,61.5372,0.00160508,-0.00153693,0.000243774,0.00162388,-0.00155573,0.0769714,0.00183589,0.0138099,1028,1681,4.12734,-61.5372
-189,-657,4.12134,62.1771,0.00141505,-0.00216825,-4.83445e-05,0.00141571,-0.0021689,-0.0134883,0.00208475,0.0100676,1035,1681,4.12133,-62.1772
-182,-657,4.12305,62.7883,0.00142301,-0.00197702,-0.000206314,0.00143548,-0.00198949,-0.0603849,0.00198601,0.00911061,1042,1681,4.12305,-62.7884
-175,-657,4.13208,63.3944,0.00158123,-0.00197798,-0.000231559,0.00159623,-0.00199298,-0.0646956,0.00207645,0.0122648,1049,1681,4.13212,-63.3944
-168,-657,4.09619,64.0085,0.00165997,-0.00146059,-0.000179874,0.00167031,-0.00147093,-0.0573883,0.00181481,0.0172766,1056,1681,4.09624,-64.0085
-161,-657,4.14807,64.6095,0.00173689,-0.000465796,-4.92508e-05,0.00173799,-0.000466897,-0.0223445,0.00134165,0.0180409,1063,1681,4.14808,-64.6095
-154,-657,4.24646,65.1171,0.00172195,0.0010708,0.000136998,0.00174959,0.00104315,0.199151,0.00101635,0.0164965,1070,1681,4.24649,-65.1171
-147,-657,4.26221,65.6919,0.00165781,0.00305814,0.000417438,0.00317313,0.00154282,1.30199,0.00183224,0.0249146,1077,1681,4.26215,-65.6919
-140,-657,4.17004,66.5254,0.00143892,0.00534156,0.000639054,0.00544354,0.00133694,1.41255,0.00327562,0.0380658,1084,1681,4.17007,-66.5254
-133,-657,3.98901,67.3036,0.00158595,0.00824018,0.000792175,0.00833318,0.00149295,1.45392,0.00513073,0.0488803,1091,1681,3.98904,-67.3036
-126,-657,3.89404,68.2012,0,0,0,0,0,0,0,-1,1098,1681,3.89405,-68.2012
-119,-657,5.64758,54.4952,0,0,0,0,0,0,0,-1,1105,1681,5.64753,-54.4952
-112,-657,6.24219,42.9092,0,0,0,0,0,0,0,-1,1112,1681,6.24217,-42.9092
-105,-657,7.37256,41.0361,0,0,0,0,0,0,0,-1,1119,1681,7.37254,-41.0362
-98,-657,8.14404,38.4435,0,0,0,0,0,0,0,-1,1126,1681,8.14405,-38.4435
-91,-657,3.6521,16.6017,0,0,0,0,0,0,0,-1,1133,1681,3.65215,-16.6017
-84,-657,4.08008,10.4579,0,0,0,0,0,0,0,-1,1140,1681,4.08006,-10.4579
-77,-657,-5.29846,0.396606,0,0,0,0,0,0,0,-1,1147,1681,-5.29842,-0.396573
-70,-657,-4.14893,2.14575,0,0,0,0,0,0,0,-1,1154,1681,-4.14893,-2.1458
-63,-657,-4.1239,3.177,0,0,0,0,0,0,0,-1,1161,1681,-4.12391,-3.17698
-56,-657,-6.40576,5.73987,0,0,0,0,0,0,0,-1,1168,1681,-6.40577,-5.7399
-49,-657,-5.98462,7.54053,0,0,0,0,0,0,0,-1,1175,1681,-5.98466,-7.5405
-42,-657,-5.71948,9.28955,0,0,0,0,0,0,0,-1,1182,1681,-5.71951,-9.2895
-35,-657,-5.44556,11.015,0,0,0,0,0,0,0,-1,1189,1681,-5.44555,-11.015
-28,-657,-1.3446,8.92847,0,0,0,0,0,0,0,-1,1196,1681,-1.34459,-8.92848
-21,-657,3.21265,71.3102,0,0,0,0,0,0,0,-1,1203,1681,3.21261,-71.3101
-14,-657,6.63257,72.3102,0,0,0,0,0,0,0,-1,1210,1681,6.63259,-72.3102
-7,-657,6.32715,72.6818,0,0,0,0,0,0,0,-1,1217,1681,6.32718,-72.6817
0,-657,6.95996,71.9861,0.0510452,-0.037814,-0.0293503,0.0598643,-0.0466332,-0.291896,0.0616443,0.0470132,1224,1681,6.95999,-71.9861
7,-657,7.20471,71.7922,0.0491643,-0.0340866,-0.0343841,0.0615291,-0.0464514,-0.345207,0.0625448,0.0473193,1231,1681,7.20475,-71.7923
14,-657,7.36816,71.9432,0.046406,-0.027203,-0.0423471,0.0657072,-0.0465042,-0.427655,0.0651007,0.0436159,1238,1681,7.36819,-71.9432
21,-657,8.03345,72.6281,0.0431063,-0.0181162,-0.0521757,0.0729876,-0.0479975,-0.520108,0.0703458,0.0425242,1245,1681,8.03348,-72.628
28,-657,9.75745,68.9856,0.0395143,-0.00803962,-0.0628915,0.0829734,-0.0514987,-0.604671,0.0783432,0.0429677,1252,1681,9.75747,-68.9855
35,-657,9.59265,68.2686,0.0361261,0.00180398,-0.0733656,0.094311,-0.0563809,-0.670508,0.0879159,0.040662,1259,1681,9.59264,-68.2686
42,-657,9.48218,67.3209,0.0320893,0.0115903,-0.0830137,0.105484,-0.0618042,-0.723975,0.0976751,0.0418941,1266,1681,9.48217,-67.3209
49,-657,9.75769,66.2023,0.0277849,0.0191791,-0.0901043,0.113689,-0.066725,-0.761539,0.105332,0.0468806,1273,1681,9.75765,-66.2023
56,-657,10.3945,64.7778,0.0241789,0.0252166,-0.0955134,0.120213,-0.070817,-0.788114,0.111513,0.0475506,1280,1681,10.3946,-64.7778
63,-657,10.8988,63.7982,0.0183256,0.0299222,-0.0980926,0.122388,-0.0741399,-0.814919,0.114599,0.0474131,1287,1681,10.8989,-63.7982
70,-657,11.0963,62.646,0.0104969,0.0348803,-0.0986458,0.122085,-0.0767077,-0.846882,0.115765,0.0446842,1294,1681,11.0963,-62.646
77,-657,11.3628,61.5377,0.0015669,0.0378463,-0.0963369,0.117736,-0.0783233,-0.878456,0.113955,0.0423472,1301,1681,11.3628,-61.5377
84,-657,11.6549,60.3481,-0.00873238,0.0405042,-0.0918486,0.110977,-0.0792047,-0.916336,0.110311,0.0440359,1308,1681,11.6549,-60.3481
91,-657,11.8773,59.082,0,0,0,0,0,0,0,-1,1315,1681,11.8773,-59.0821
98,-657,10.6423,58.3752,0,0,0,0,0,0,0,-1,1322,1681,10.6424,-58.3753
105,-657,9.37573,58.5349,0,0,0,0,0,0,0,-1,1329,1681,9.37579,-58.5349
112,-657,8.20117,58.9453,-0.0604592,0.0535194,-0.0593608,0.0788192,-0.0857589,-1.16791,0.0950474,0.0445701,1336,1681,8.20121,-58.9453
119,-657,7.09729,59.5746,-0.075346,0.0597649,-0.0512707,0.0770176,-0.0925987,-1.2462,0.0980656,0.0484297,1343,1681,7.09726,-59.5746
126,-657,5.97961,60.1913,0,0,0,0,0,0,0,-1,1350,1681,5.97966,-60.1913
133,-657,4.0249,60.4142,-0.0993339,0.0754458,-0.0400518,0.0841867,-0.108075,-1.35592,0.111287,0.0463523,1357,1681,4.02496,-60.4142
140,-657,2.96106,60.9337,-0.105216,0.0842133,-0.0392112,0.092009,-0.113012,-1.37454,0.118576,0.0459938,1364,1681,2.96103,-60.9337
147,-657,1.86096,61.6548,0,0,0,0,0,0,0,-1,1371,1681,1.86094,-61.6548
154,-657,8.36633,55.7788,0,0,0,0,0,0,0,-1,1378,1681,8.3663,-55.7788
161,-657,4.2926,24.9226,0,0,0,0,0,0,0,-1,1385,1681,4.29264,-24.9226
168,-657,5.21643,0.70105,0,0,0,0,0,0,0,-1,1392,1681,5.21648,-0.7011
175,-657,5.52771,0.649048,0,0,0,0,0,0,0,-1,1399,1681,5.52774,-0.649019
182,-657,5.73999,1.02612,0,0,0,0,0,0,0,-1,1406,1681,5.73995,-1.02611
189,-657,5.92126,1.44116,0,0,0,0,0,0,0,-1,1413,1681,5.92126,-1.44115
196,-657,4.92834,9.59021,0,0,0,0,0,0,0,-1,1420,1681,4.9284,-9.59018
203,-657,6.26343,5.16492,0,0,0,0,0,0,0,-1,1427,1681,6.26345,-5.16488
210,-657,3.9856,5.28088,0,0,0,0,0,0,0,-1,1434,1681,3.98555,-5.28084
217,-657,3.95178,5.2843,0,0,0,0,0,0,0,-1,1441,1681,3.95174,-5.28431
224,-657,6.66736,-0.250244,0,0,0,0,0,0,0,-1,1448,1681,6.66737,0.250229
231,-657,6.85498,-1.70752,0,0,0,0,0,0,0,-1,1455,1681,6.855,1.70758
238,-657,5.34143,-2.89819,0,0,0,0,0,0,0,-1,1462,1681,5.34143,2.89813
245,-657,8.66003,-0.102783,0,0,0,0,0,0,0,-1,1469,1681,8.66,0.102824
252,-657,4.78955,0.623779,0,0,0,0,0,0,0,-1,1476,1681,4.7895,-0.623826
259,-657,2.61523,4.31909,0,0,0,0,0,0,0,-1,1483,1681,2.61523,-4.31908
266,-657,5.35437,11.4742,0,0,0,0,0,0,0,-1,1490,1681,5.35441,-11.4742
273,-657,11.9164,46.0638,0,0,0,0,0,0,0,-1,1497,1681,11.9164,-46.0638
280,-657,13.3427,64.4337,0,0,0,0,0,0,0,-1,1504,1681,13.3426,-64.4337
287,-657,13.272,63.8184,0,0,0,0,0,0,0,-1,1511,1681,13.2719,-63.8184
294,-657,13.6725,63.3071,0.00792774,-0.00214642,0.0024803,0.00850529,-0.00272397,0.228778,0.00676357,0.0461086,1518,1681,13.6725,-63.3071
301,-657,13.7299,62.8132,0.00710715,-0.00159379,0.00228687,0.00767159,-0.00215823,0.241982,0.00596539,0.0281016,1525,1681,13.7298,-62.8133
308,-657,13.7368,62.2123,0.00630285,-0.00104993,0.00185222,0.00674308,-0.00149016,0.233348,0.0050657,0.0167731,1532,1681,13.7368,-62.2123
315,-657,13.7522,61.5607,0.00550104,-0.000427308,0.00137167,0.00580303,-0.000729295,0.216703,0.00413329,0.0126162,1539,1681,13.7522,-61.5606
322,-657,13.7887,60.9033,0.00479508,0.000389356,0.000762209,0.00492322,0.000261218,0.166557,0.00319863,0.0146814,1546,1681,13.7887,-60.9033
329,-657,13.7896,60.2206,0.00422261,0.00107626,0.000125143,0.00422758,0.00107129,0.0396903,0.00253782,0.0203784,1553,1681,13.7895,-60.2206
336,-657,13.765,59.6082,0.00369105,0.00166829,-0.00033768,0.00374594,0.00161341,-0.161121,0.00216963,0.018502,1560,1681,13.765,-59.6082
343,-657,13.7817,59.0042,0.00312779,0.00216133,-0.000742636,0.00353058,0.00175855,-0.496966,0.00203838,0.0145161,1567,1681,13.7817,-59.0042
350,-657,13.7504,58.3275,0.00262867,0.00249905,-0.00115891,0.00372459,0.00140314,-0.757464,0.00217207,0.0158516,1574,1681,13.7503,-58.3275
357,-657,13.7285,57.6375,0.00219688,0.00282084,-0.00155155,0.00409147,0.000926257,-0.884613,0.0024773,0.0154588,1581,1681,13.7285,-57.6375
364,-657,13.7112,56.9585,0.00183239,0.00278153,-0.0017379,0.00410849,0.000505435,-0.918684,0.00258702,0.0126564,1588,1681,13.7111,-56.9585
371,-657,13.6719,56.2828,0.00152348,0.00266347,-0.00180961,0.00399073,0.000196214,-0.93797,0.00259756,0.017632,1595,1681,13.6718,-56.2828
378,-657,13.6119,55.583,0.00122617,0.00253558,-0.00184173,0.00383551,-7.37687e-05,-0.956174,0.00258195,0.0160738,1602,1681,13.6119,-55.583
385,-657,13.5696,54.8828,0.000983245,0.00221007,-0.00187688,0.00357123,-0.000377915,-0.94334,0.00251627,0.0140932,1609,1681,13.5696,-54.8828
392,-657,13.5369,54.1884,0.000784406,0.00195042,-0.00201662,0.00346661,-0.000731791,-0.926112,0.0025897,0.0148741,1616,1681,13.5369,-54.1884
399,-657,13.5258,53.4856,0.000587816,0.00167782,-0.00221265,0.0034116,-0.00114597,-0.90615,0.00273755,0.0143242,1623,1681,13.5258,-53.4856
406,-657,13.5049,52.7495,0.000500445,0.00124412,-0.00221165,0.00311498,-0.00137041,-0.868683,0.00265413,0.0154833,1630,1681,13.5049,-52.7495
413,-657,13.4589,51.9984,0.000675012,0.000651487,-0.00248887,0.00315214,-0.00182564,-0.783035,0.00290774,0.015734,1637,1681,13.4589,-51.9984
420,-657,13.4226,51.2393,0.000900538,0.000174274,-0.00280764,0.00336843,-0.00229362,-0.721087,0.00328856,0.0219829,1644,1681,13.4226,-51.2393
427,-657,13.3665,50.4158,0.00142846,-0.000134831,-0.00335777,0.00409437,-0.00280074,-0.671042,0.00400418,0.033655,1651,1681,13.3664,-50.4158
434,-657,13.3671,49.6478,0,0,0,0,0,0,0,-1,1658,1681,13.367,-49.6478
441,-657,13.3495,48.8428,0,0,0,0,0,0,0,-1,1665,1681,13.3495,-48.8428
448,-657,13.8298,44.941,0,0,0,0,0,0,0,-1,1672,1681,13.8298,-44.9411
455,-657,11.7926,48.3126,0,0,0,0,0,0,0,-1,1679,1681,11.7926,-48.3126
462,-657,10.2832,30.1719,0,0,0,0,0,0,0,-1,1686,1681,10.2831,-30.1718
469,-657,9.22205,26.4175,0,0,0,0,0,0,0,-1,1693,1681,9.2221,-26.4175
476,-657,8.9519,20.5712,0,0,0,0,0,0,0,-1,1700,1681,8.95194,-20.5712
483,-657,10.0663,21.8628,0,0,0,0,0,0,0,-1,1707,1681,10.0663,-21.8628
490,-657,11.6039,21.2185,0,0,0,0,0,0,0,-1,1714,1681,11.6038,-21.2185
497,-657,9.20862,17.8127,0,0,0,0,0,0,0,-1,1721,1681,9.2086,-17.8127
504,-657,0,0,0,0,0,0,0,0,0,-1,1728,1681,0,0
511,-657,0,0,0,0,0,0,0,0,0,-1,1735,1681,0,0
518,-657,0,0,0,0,0,0,0,0,0,-1,1742,1681,0,0
525,-657,0,0,0,0,0,0,0,0,0,-1,1749,1681,0,0
532,-657,0,0,0,0,0,0,0,0,0,-1,1756,1681,0,0
539,-657,0,0,0,0,0,0,0,0,0,-1,1763,1681,0,0
546,-657,0,0,0,0,0,0,0,0,0,-1,1770,1681,0,0
553,-657,0,0,0,0,0,0,0,0,0,-1,1777,1681,0,0
560,-657,0,0,0,0,0,0,0,0,0,-1,1784,1681,0,0
567,-657,0,0,0,0,0,0,0,0,0,-1,1791,1681,0,0
574,-657,0,0,0,0,0,0,0,0,0,-1,1798,1681,0,0
581,-657,0,0,0,0,0,0,0,0,0,-1,1805,1681,0,0
588,-657,0,0,0,0,0,0,0,0,0,-1,1812,1681,0,0
595,-657,0,0,0,0,0,0,0,0,0,-1,1819,1681,0,0
602,-657,0,0,0,0,0,0,0,0,0,-1,1826,1681,0,0
609,-657,0,0,0,0,0,0,0,0,0,-1,1833,1681,0,0
616,-657,0,0,0,0,0,0,0,0,0,-1,1840,1681,0,0
623,-657,0,0,0,0,0,0,0,0,0,-1,1847,1681,0,0
630,-657,0,0,0,0,0,0,0,0,0,-1,1854,1681,0,0
637,-657,0,0,0,0,0,0,0,0,0,-1,1861,1681,0,0
644,-657,0,0,0,0,0,0,0,0,0,-1,1868,1681,0,0
651,-657,0,0,0,0,0,0,0,0,0,-1,1875,1681,0,0
658,-657,0,0,0,0,0,0,0,0,0,-1,1882,1681,0,0
665,-657,0,0,0,0,0,0,0,0,0,-1,1889,1681,0,0
672,-657,0,0,0,0,0,0,0,0,0,-1,1896,1681,0,0
679,-657,0,0,0,0,0,0,0,0,0,-1,1903,1681,0,0
686,-657,0,0,0,0,0,0,0,0,0,-1,1910,1681,0,0
693,-657,0,0,0,0,0,0,0,0,0,-1,1917,1681,0,0
700,-657,0,0,0,0,0,0,0,0,0,-1,1924,1681,0,0
707,-657,0,0,0,0,0,0,0,0,0,-1,1931,1681,0,0
714,-657,0,0,0,0,0,0,0,0,0,-1,1938,1681,0,0
721,-657,0,0,0,0,0,0,0,0,0,-1,1945,1681,0,0
728,-657,0,0,0,0,0,0,0,0,0,-1,1952,1681,0,0
735,-657,0,0,0,0,0,0,0,0,0,-1,1959,1681,0,0
742,-657,0,0,0,0,0,0,0,0,0,-1,1966,1681,0,0
749,-657,0,0,0,0,0,0,0,0,0,-1,1973,1681,0,0
756,-657,0,0,0,0,0,0,0,0,0,-1,1980,1681,0,0
763,-657,0,0,0,0,0,0,0,0,0,-1,1987,1681,0,0
770,-657,0,0,0,0,0,0,0,0,0,-1,1994,1681,0,0
777,-657,0,0,0,0,0,0,0,0,0,-1,2001,1681,0,0
784,-657,0,0,0,0,0,0,0,0,0,-1,2008,1681,0,0
791,-657,0,0,0,0,0,0,0,0,0,-1,2015,1681,0,0
798,-657,0,0,0,0,0,0,0,0,0,-1,2022,1681,0,0
805,-657,0,0,0,0,0,0,0,0,0,-1,2029,1681,0,0
812,-657,0,0,0,0,0,0,0,0,0,-1,2036,1681,0,0
-700,-664,0,0,0,0,0,0,0,0,0,-1,524,1688,0,0
-693,-664,0,0,0,0,0,0,0,0,0,-1,531,1688,0,0
-686,-664,0,0,0,0,0,0,0,0,0,-1,538,1688,0,0
-679,-664,0,0,0,0,0,0,0,0,0,-1,545,1688,0,0
-672,-664,0,0,0,0,0,0,0,0,0,-1,552,1688,0,0
-665,-664,0,0,0,0,0,0,0,0,0,-1,559,1688,0,0
-658,-664,0,0,0,0,0,0,0,0,0,-1,566,1688,0,0
-651,-664,0,0,0,0,0,0,0,0,0,-1,573,1688,0,0
-644,-664,0,0,0,0,0,0,0,0,0,-1,580,1688,0,0
-637,-664,0,0,0,0,0,0,0,0,0,-1,587,1688,0,0
-630,-664,0,0,0,0,0,0,0,0,0,-1,594,1688,0,0
-623,-664,0,0,0,0,0,0,0,0,0,-1,601,1688,0,0
-616,-664,0,0,0,0,0,0,0,0,0,-1,608,1688,0,0
-609,-664,0,0,0,0,0,0,0,0,0,-1,615,1688,0,0
-602,-664,0,0,0,0,0,0,0,0,0,-1,622,1688,0,0
-595,-664,0,0,0,0,0,0,0,0,0,-1,629,1688,0,0
-588,-664,0,0,0,0,0,0,0,0,0,-1,636,1688,0,0
-581,-664,0,0,0,0,0,0,0,0,0,-1,643,1688,0,0
-574,-664,0,0,0,0,0,0,0,0,0,-1,650,1688,0,0
-567,-664,0,0,0,0,0,0,0,0,0,-1,657,1688,0,0
-560,-664,0,0,0,0,0,0,0,0,0,-1,664,1688,0,0
-553,-664,0,0,0,0,0,0,0,0,0,-1,671,1688,0,0
-546,-664,0,0,0,0,0,0,0,0,0,-1,678,1688,0,0
-539,-664,0,0,0,0,0,0,0,0,0,-1,685,1688,0,0
-532,-664,0,0,0,0,0,0,0,0,0,-1,692,1688,0,0
-525,-664,0,0,0,0,0,0,0,0,0,-1,699,1688,0,0
-518,-664,0,0,0,0,0,0,0,0,0,-1,706,1688,0,0
-511,-664,0,0,0,0,0,0,0,0,0,-1,713,1688,0,0
-504,-664,0,0,0,0,0,0,0,0,0,-1,720,1688,0,0
-497,-664,0,0,0,0,0,0,0,0,0,-1,727,1688,0,0
-490,-664,0,0,0,0,0,0,0,0,0,-1,734,1688,0,0
-483,-664,0,0,0,0,0,0,0,0,0,-1,741,1688,0,0
-476,-664,0,0,0,0,0,0,0,0,0,-1,748,1688,0,0
-469,-664,0,0,0,0,0,0,0,0,0,-1,755,1688,0,0
-462,-664,0,0,0,0,0,0,0,0,0,-1,762,1688,0,0
-455,-664,0,0,0,0,0,0,0,0,0,-1,769,1688,0,0
-448,-664,0,0,0,0,0,0,0,0,0,-1,776,1688,0,0
-441,-664,0,0,0,0,0,0,0,0,0,-1,783,1688,0,0
-434,-664,0,0,0,0,0,0,0,0,0,-1,790,1688,0,0
-427,-664,0,0,0,0,0,0,0,0,0,-1,797,1688,0,0
-420,-664,0,0,0,0,0,0,0,0,0,-1,804,1688,0,0
-413,-664,0,0,0,0,0,0,0,0,0,-1,811,1688,0,0
-406,-664,0,0,0,0,0,0,0,0,0,-1,818,1688,0,0
-399,-664,0,0,0,0,0,0,0,0,0,-1,825,1688,0,0
-392,-664,0,0,0,0,0,0,0,0,0,-1,832,1688,0,0
-385,-664,0,0,0,0,0,0,0,0,0,-1,839,1688,0,0
-378,-664,0,0,0,0,0,0,0,0,0,-1,846,1688,0,0
-371,-664,-1.61676,5.92737,0,0,0,0,0,0,0,-1,853,1688,-1.61675,-5.92735
-364,-664,-3.901,5.87024,0,0,0,0,0,0,0,-1,860,1688,-3.90097,-5.87027
-357,-664,-4.81012,4.53479,0,0,0,0,0,0,0,-1,867,1688,-4.81012,-4.5348
-350,-664,3.26105,36.0225,0,0,0,0,0,0,0,-1,874,1688,3.26104,-36.0224
-343,-664,5.56708,45.6833,0,0,0,0,0,0,0,-1,881,1688,5.56709,-45.6833
-336,-664,5.21466,44.8312,0,0,0,0,0,0,0,-1,888,1688,5.21463,-44.8312
-329,-664,5.15399,47.1245,0,0,0,0,0,0,0,-1,895,1688,5.15399,-47.1245
-322,-664,6.02997,48.2974,0,0,0,0,0,0,0,-1,902,1688,6.02997,-48.2974
-315,-664,5.84637,49.1935,0,0,0,0,0,0,0,-1,909,1688,5.84635,-49.1935
-308,-664,5.51215,50.2319,0,0,0,0,0,0,0,-1,916,1688,5.51213,-50.232
-301,-664,5.40735,50.9597,0.00495054,0.0142616,-0.0161658,0.0264289,-0.00721677,-0.925597,0.0204537,0.0451019,923,1688,5.40738,-50.9597
-294,-664,5.28204,51.7948,0.00480585,0.0139767,-0.0159197,0.0259582,-0.00717569,-0.92562,0.0201284,0.0397733,930,1688,5.28207,-51.7948
-287,-664,5.24005,52.5267,0.0042854,0.0133537,-0.0148357,0.0243327,-0.00669359,-0.933702,0.0188533,0.0275045,937,1688,5.24003,-52.5267
-280,-664,5.17334,53.2782,0.00348231,0.0123113,-0.013285,0.021896,-0.00610239,-0.945805,0.0170006,0.0178346,944,1688,5.17334,-53.2782
-273,-664,5.11328,54.0209,0.00267495,0.0110302,-0.0112029,0.018809,-0.00510387,-0.963866,0.0145423,0.0144064,951,1688,5.11325,-54.0209
-266,-664,5.05737,54.7145,0.00197169,0.00951735,-0.00901452,0.0155167,-0.00402768,-0.983586,0.0119161,0.0225102,958,1688,5.05738,-54.7145
-259,-664,5.02875,55.431,0.00141273,0.00802786,-0.00694954,0.0124168,-0.00297621,-1.00751,0.00942784,0.0200928,965,1688,5.02873,-55.4311
-252,-664,5.01807,56.1622,0.000835979,0.00661134,-0.00497095,0.00947249,-0.00202517,-1.04853,0.00708717,0.0167834,972,1688,5.01806,-56.1622
-245,-664,4.94159,56.8934,0.000341874,0.00537797,-0.00343153,0.00711621,-0.00139637,-1.10192,0.00527161,0.0215015,979,1688,4.9416,-56.8934
-238,-664,4.96033,57.6151,-7.63841e-05,0.00455628,-0.00186534,0.00521398,-0.000734085,-1.23182,0.00374474,0.0255297,986,1688,4.96033,-57.6151
-231,-664,4.92358,58.295,-0.000357681,0.00307404,-0.000271816,0.00309543,-0.000379078,-1.49224,0.00220089,0.0214381,993,1688,4.92358,-58.2951
-224,-664,4.85455,58.9675,-0.00028225,0.00163297,0.00079993,0.00192312,-0.000572401,1.22284,0.0015095,0.0149442,1000,1688,4.85454,-58.9676
-217,-664,4.81586,59.6411,1.26047e-05,0.00119012,0.000765982,0.00156747,-0.000364746,1.11306,0.00118542,0.0111234,1007,1688,4.81589,-59.6411
-210,-664,4.78979,60.2804,0.000352611,0.000568098,0.000651594,0.0011208,-0.000200087,0.867334,0.000822051,0.0118845,1014,1688,4.78981,-60.2804
-203,-664,4.76831,60.9366,0.000712918,-0.000173744,0.000509067,0.000944637,-0.000405463,0.427155,0.000799932,0.0141903,1021,1688,4.7683,-60.9366
-196,-664,4.75,61.5609,0.0010033,-0.000787709,0.000388928,0.00108411,-0.000868521,0.204866,0.00112964,0.0147997,1028,1688,4.75002,-61.5609
-189,-664,4.73279,62.1932,0.00113445,-0.00123148,0.000190847,0.00114974,-0.00124678,0.0799753,0.00138401,0.0104925,1035,1688,4.73283,-62.1932
-182,-664,4.74036,62.8184,0.00130199,-0.00107138,-2.11933e-05,0.00130218,-0.00107157,-0.00892868,0.00137264,0.0100897,1042,1688,4.74038,-62.8184
-175,-664,4.745,63.3949,0.00161683,-0.0010111,-0.000123613,0.00162264,-0.0010169,-0.0469002,0.00153725,0.0131631,1049,1688,4.74496,-63.3949
-168,-664,4.75134,63.9646,0.00182714,-0.000611147,-0.000211971,0.00184543,-0.000629437,-0.0860738,0.00148525,0.0153547,1056,1688,4.75129,-63.9646
-161,-664,4.73914,64.5439,0.00200413,0.000136165,-0.00022523,0.0020309,0.000109392,-0.118316,0.00131898,0.0126309,1063,1688,4.73909,-64.5439
-154,-664,4.81714,65.1036,0.00215431,0.00126724,-0.000214369,0.0022034,0.00121816,-0.225108,0.0012745,0.0124142,1070,1688,4.81709,-65.1037
-147,-664,4.81714,65.6405,0.0023011,0.0026596,-0.000124301,0.00269848,0.00226222,-1.26764,0.00167264,0.0159178,1077,1688,4.81712,-65.6405
-140,-664,4.84302,66.2462,0.00238096,0.00417159,-7.33109e-05,0.00417459,0.00237796,-1.52995,0.00241798,0.0198637,1084,1688,4.84306,-66.2462
-133,-664,4.7749,66.8304,0.00269,0.00609212,-4.06136e-05,0.0060926,0.00268952,-1.55886,0.0035256,0.0251265,1091,1688,4.77485,-66.8305
-126,-664,4.76538,67.5769,0,0,0,0,0,0,0,-1,1098,1688,4.76541,-67.5769
-119,-664,5.36035,67.1663,0,0,0,0,0,0,0,-1,1105,1688,5.36031,-67.1663
-112,-664,6.3916,51.1235,0,0,0,0,0,0,0,-1,1112,1688,6.39161,-51.1236
-105,-664,6.87256,43.2527,0,0,0,0,0,0,0,-1,1119,1688,6.87258,-43.2527
-98,-664,7.69324,41.3359,0,0,0,0,0,0,0,-1,1126,1688,7.69321,-41.3359
-91,-664,5.41931,25.6302,0,0,0,0,0,0,0,-1,1133,1688,5.41932,-25.6302
-84,-664,3.48389,16.6913,0,0,0,0,0,0,0,-1,1140,1688,3.4839,-16.6913
-77,-664,4.52014,11.2122,0,0,0,0,0,0,0,-1,1147,1688,4.5202,-11.2122
-70,-664,4.20374,8.24524,0,0,0,0,0,0,0,-1,1154,1688,4.20379,-8.24519
-63,-664,-4.677,2.40503,0,0,0,0,0,0,0,-1,1161,1688,-4.67702,-2.40498
-56,-664,-4.66504,3.32727,0,0,0,0,0,0,0,-1,1168,1688,-4.6651,-3.32724
-49,-664,-2.54297,3.31848,0,0,0,0,0,0,0,-1,1175,1688,-2.54297,-3.31852
-42,-664,-0.359253,4.38684,0,0,0,0,0,0,0,-1,1182,1688,-0.359261,-4.38685
-35,-664,-0.705566,3.55017,0,0,0,0,0,0,0,-1,1189,1688,-0.705567,-3.55023
-28,-664,-1.54236,10.2538,0,0,0,0,0,0,0,-1,1196,1688,-1.54236,-10.2538
-21,-664,6.3551,71.874,0,0,0,0,0,0,0,-1,1203,1688,6.35511,-71.874
-14,-664,6.71399,72.369,0,0,0,0,0,0,0,-1,1210,1688,6.71403,-72.369
-7,-664,7.073,72.864,0,0,0,0,0,0,0,-1,1217,1688,7.07295,-72.864
0,-664,7.28711,72.2014,0.0446666,-0.031438,-0.0264349,0.0529477,-0.0397191,-0.30358,0.0536826,0.0450927,1224,1688,7.28708,-72.2014
7,-664,7.36755,72.1161,0.0435877,-0.0282623,-0.0306302,0.054873,-0.0395476,-0.353005,0.0547526,0.0446152,1231,1688,7.36758,-72.116
14,-664,7.54407,72.3243,0.0419088,-0.022395,-0.0373282,0.0590229,-0.0395091,-0.42988,0.0572582,0.0433666,1238,1688,7.54411,-72.3243
21,-664,7.90112,72.2887,0.0397013,-0.0145472,-0.0457195,0.0657371,-0.040583,-0.517668,0.0619539,0.046313,1245,1688,7.90116,-72.2887
28,-664,8.5061,72.0873,0.0371479,-0.00574356,-0.0550175,0.0747517,-0.0433474,-0.599558,0.0689834,0.0456378,1252,1688,8.50616,-72.0873
35,-664,8.9657,72.0486,0,0,0,0,0,0,0,-1,1259,1688,8.9657,-72.0486
42,-664,10.8198,66.627,0.0314993,0.0114461,-0.0726566,0.0948179,-0.0518725,-0.716831,0.085893,0.0445722,1266,1688,10.8199,-66.6269
49,-664,10.9711,65.5908,0.0280465,0.0177201,-0.0786046,0.101657,-0.0558906,-0.752602,0.0922307,0.0462253,1273,1688,10.9711,-65.5908
56,-664,11.1746,64.3264,0.0251647,0.0226142,-0.0829833,0.106882,-0.0591036,-0.777715,0.0971465,0.0478112,1280,1688,11.1746,-64.3264
63,-664,11.5388,63.3118,0.0202361,0.0263541,-0.0849923,0.108342,-0.0617522,-0.803386,0.0994246,0.04763,1287,1688,11.5388,-63.3118
70,-664,11.8348,62.085,0.0135135,0.0303107,-0.085412,0.107736,-0.0639118,-0.834406,0.100172,0.0456768,1294,1688,11.8349,-62.085
77,-664,12.1085,61.0455,0.0057543,0.0324136,-0.083378,0.103521,-0.0653528,-0.864662,0.0983257,0.0428476,1301,1688,12.1086,-61.0456
84,-664,12.4396,59.8669,-0.00312824,0.0343109,-0.0793994,0.0971676,-0.065985,-0.901166,0.094768,0.0438828,1308,1688,12.4396,-59.867
91,-664,12.728,58.6898,0,0,0,0,0,0,0,-1,1315,1688,12.7281,-58.6898
98,-664,12.9541,57.6189,0,0,0,0,0,0,0,-1,1322,1688,12.9541,-57.6189
105,-664,9.72778,71.7548,0,0,0,0,0,0,0,-1,1329,1688,9.72773,-71.7548
112,-664,10.1234,71.7991,0,0,0,0,0,0,0,-1,1336,1688,10.1234,-71.799
119,-664,10.0422,72.5732,0,0,0,0,0,0,0,-1,1343,1688,10.0422,-72.5733
126,-664,5.83191,59.608,0,0,0,0,0,0,0,-1,1350,1688,5.83193,-59.608
133,-664,4.90271,59.7863,0,0,0,0,0,0,0,-1,1357,1688,4.90271,-59.7862
140,-664,4.25964,60.1018,0,0,0,0,0,0,0,-1,1364,1688,4.2597,-60.1018
147,-664,9.95996,68.8258,0,0,0,0,0,0,0,-1,1371,1688,9.95995,-68.8258
154,-664,20.1138,63.4268,0,0,0,0,0,0,0,-1,1378,1688,20.1137,-63.4268
161,-664,4.60132,1.56238,0,0,0,0,0,0,0,-1,1385,1688,4.60134,-1.56233
168,-664,5.172,1.25488,0,0,0,0,0,0,0,-1,1392,1688,5.17203,-1.25484
175,-664,5.58313,1.16467,0,0,0,0,0,0,0,-1,1399,1688,5.58317,-1.16466
182,-664,5.74268,1.41113,0,0,0,0,0,0,0,-1,1406,1688,5.74263,-1.41115
189,-664,5.87744,1.87061,0,0,0,0,0,0,0,-1,1413,1688,5.87745,-1.87065
196,-664,6.7594,5.97473,0,0,0,0,0,0,0,-1,1420,1688,6.75943,-5.97478
203,-664,5.38452,5.22034,0,0,0,0,0,0,0,-1,1427,1688,5.38453,-5.2203
210,-664,5.25549,6.45715,0,0,0,0,0,0,0,-1,1434,1688,5.25549,-6.45721
217,-664,5.72009,6.73975,0,0,0,0,0,0,0,-1,1441,1688,5.72014,-6.73972
224,-664,5.05725,7.42908,0,0,0,0,0,0,0,-1,1448,1688,5.05723,-7.42912
231,-664,5.13318,7.60864,0,0,0,0,0,0,0,-1,1455,1688,5.13313,-7.60862
238,-664,4.23193,6.45471,0,0,0,0,0,0,0,-1,1462,1688,4.23197,-6.45476
245,-664,4.42004,6.80896,0,0,0,0,0,0,0,-1,1469,1688,4.4201,-6.80901
252,-664,3.67346,6.85461,0,0,0,0,0,0,0,-1,1476,1688,3.6734,-6.85462
259,-664,4.55823,11.7435,0,0,0,0,0,0,0,-1,1483,1688,4.55826,-11.7435
266,-664,12.7174,65.66,0,0,0,0,0,0,0,-1,1490,1688,12.7174,-65.6601
273,-664,12.9163,65.0696,0,0,0,0,0,0,0,-1,1497,1688,12.9162,-65.0696
280,-664,12.9227,64.5181,0.00796067,-0.00183402,0.00125263,0.00811833,-0.00199168,0.125204,0.00618397,0.0483599,1504,1688,12.9227,-64.5181
287,-664,12.8961,63.9027,0.00716958,-0.0016423,0.00137997,0.00738064,-0.00185335,0.151765,0.00564063,0.0423293,1511,1688,12.8961,-63.9028
294,-664,13.0718,63.3784,0.00650547,-0.00146692,0.00136038,0.00673121,-0.00169266,0.16444,0.00514535,0.0261529,1518,1688,13.0717,-63.3784
301,-664,13.1449,62.7915,0.00574411,-0.00109017,0.00126263,0.00596992,-0.00131598,0.17697,0.00448345,0.0154095,1525,1688,13.1449,-62.7915
308,-664,13.1476,62.175,0.00498891,-0.000701821,0.000989425,0.00515603,-0.000868941,0.167327,0.00376061,0.0125699,1532,1688,13.1476,-62.175
315,-664,13.137,61.5627,0.00423326,-0.000207421,0.000672127,0.00433276,-0.000306922,0.146972,0.00299606,0.013232,1539,1688,13.1369,-61.5627
322,-664,13.1619,60.9517,0.00354556,0.000438292,0.000271681,0.00356913,0.000414717,0.0865588,0.00225394,0.0167058,1546,1688,13.1619,-60.9517
329,-664,13.1387,60.3099,0.00295601,0.00102863,-0.000163777,0.00296982,0.00101481,-0.0841696,0.00174304,0.0180278,1553,1688,13.1387,-60.3099
336,-664,13.1073,59.662,0.00242097,0.00158641,-0.000493434,0.00264991,0.00135747,-0.434414,0.00153008,0.0153896,1560,1688,13.1073,-59.662
343,-664,13.089,59.0343,0.00189158,0.00210691,-0.00081268,0.00281902,0.00117946,-0.851255,0.00163477,0.0122353,1567,1688,13.089,-59.0343
350,-664,13.0713,58.3744,0.00143687,0.00247609,-0.00116926,0.00323599,0.000676967,-0.994489,0.00197082,0.0139777,1574,1688,13.0713,-58.3744
357,-664,13.0618,57.6742,0.00108064,0.00280274,-0.0015152,0.00368446,0.000198928,-1.04378,0.00239275,0.014678,1581,1688,13.0617,-57.6741
364,-664,13.0239,56.9886,0.000787316,0.00283394,-0.00169553,0.00379103,-0.000169777,-1.05691,0.00258581,0.0122332,1588,1688,13.0239,-56.9886
371,-664,12.9988,56.3424,0.000571587,0.00282357,-0.00182861,0.00384506,-0.000449905,-1.06136,0.00272575,0.0153,1595,1688,12.9988,-56.3425
378,-664,12.9666,55.6466,0.000396305,0.00280191,-0.00195069,0.00389082,-0.000692602,-1.06167,0.00285291,0.0149925,1602,1688,12.9666,-55.6465
385,-664,12.9125,54.9438,0.000281146,0.00256797,-0.00208918,0.00380616,-0.000957048,-1.03578,0.00290941,0.0149891,1609,1688,12.9125,-54.9438
392,-664,12.8361,54.267,0.000250498,0.00240213,-0.00235387,0.00391438,-0.00126175,-0.999745,0.0031165,0.0180404,1616,1688,12.836,-54.267
399,-664,12.8336,53.5386,0.000250478,0.00217732,-0.00268448,0.00406602,-0.00163822,-0.957683,0.00339132,0.0154218,1623,1688,12.8336,-53.5386
406,-664,12.8036,52.7832,0.000331995,0.00176561,-0.0027696,0.00390966,-0.00181205,-0.912026,0.00337662,0.0148991,1630,1688,12.8035,-52.7833
413,-664,12.7773,51.9905,0.000710761,0.00112044,-0.00315949,0.00408173,-0.00225053,-0.81777,0.00370654,0.0188409,1637,1688,12.7774,-51.9905
420,-664,12.8011,51.2184,0.0011308,0.000569311,-0.00356947,0.00443055,-0.00273044,-0.746153,0.00417306,0.0479387,1644,1688,12.8012,-51.2184
427,-664,12.8921,50.3811,0,0,0,0,0,0,0,-1,1651,1688,12.892,-50.3811
434,-664,12.7417,48.6221,0,0,0,0,0,0,0,-1,1658,1688,12.7417,-48.6221
441,-664,12.7198,45.0563,0,0,0,0,0,0,0,-1,1665,1688,12.7198,-45.0563
448,-664,12.5538,38.7155,0,0,0,0,0,0,0,-1,1672,1688,12.5539,-38.7154
455,-664,12.1709,39.3733,0,0,0,0,0,0,0,-1,1679,1688,12.1708,-39.3733
462,-664,4.3147,4.25439,0,0,0,0,0,0,0,-1,1686,1688,4.31467,-4.25435
469,-664,6.05469,7.49341,0,0,0,0,0,0,0,-1,1693,1688,6.05474,-7.49339
476,-664,10.2377,22.7128,0,0,0,0,0,0,0,-1,1700,1688,10.2377,-22.7128
483,-664,8.41895,10.9768,0,0,0,0,0,0,0,-1,1707,1688,8.41897,-10.9769
490,-664,3.90771,13.2842,0,0,0,0,0,0,0,-1,1714,1688,3.90776,-13.2841
497,-664,0,0,0,0,0,0,0,0,0,-1,1721,1688,0,0
504,-664,0,0,0,0,0,0,0,0,0,-1,1728,1688,0,0
511,-664,0,0,0,0,0,0,0,0,0,-1,1735,1688,0,0
518,-664,0,0,0,0,0,0,0,0,0,-1,1742,1688,0,0
525,-664,0,0,0,0,0,0,0,0,0,-1,1749,1688,0,0
532,-664,0,0,0,0,0,0,0,0,0,-1,1756,1688,0,0
539,-664,0,0,0,0,0,0,0,0,0,-1,1763,1688,0,0
546,-664,0,0,0,0,0,0,0,0,0,-1,1770,1688,0,0
553,-664,0,0,0,0,0,0,0,0,0,-1,1777,1688,0,0
560,-664,0,0,0,0,0,0,0,0,0,-1,1784,1688,0,0
567,-664,0,0,0,0,0,0,0,0,0,-1,1791,1688,0,0
574,-664,0,0,0,0,0,0,0,0,0,-1,1798,1688,0,0
581,-664,0,0,0,0,0,0,0,0,0,-1,1805,1688,0,0
588,-664,0,0,0,0,0,0,0,0,0,-1,1812,1688,0,0
595,-664,0,0,0,0,0,0,0,0,0,-1,1819,1688,0,0
602,-664,0,0,0,0,0,0,0,0,0,-1,1826,1688,0,0
609,-664,0,0,0,0,0,0,0,0,0,-1,1833,1688,0,0
616,-664,0,0,0,0,0,0,0,0,0,-1,1840,1688,0,0
623,-664,0,0,0,0,0,0,0,0,0,-1,1847,1688,0,0
630,-664,0,0,0,0,0,0,0,0,0,-1,1854,1688,0,0
637,-664,0,0,0,0,0,0,0,0,0,-1,1861,1688,0,0
644,-664,0,0,0,0,0,0,0,0,0,-1,1868,1688,0,0
651,-664,0,0,0,0,0,0,0,0,0,-1,1875,1688,0,0
658,-664,0,0,0,0,0,0,0,0,0,-1,1882,1688,0,0
665,-664,0,0,0,0,0,0,0,0,0,-1,1889,1688,0,0
672,-664,0,0,0,0,0,0,0,0,0,-1,1896,1688,0,0
679,-664,0,0,0,0,0,0,0,0,0,-1,1903,1688,0,0
686,-664,0,0,0,0,0,0,0,0,0,-1,1910,1688,0,0
693,-664,0,0,0,0,0,0,0,0,0,-1,1917,1688,0,0
700,-664,0,0,0,0,0,0,0,0,0,-1,1924,1688,0,0
707,-664,0,0,0,0,0,0,0,0,0,-1,1931,1688,0,0
714,-664,0,0,0,0,0,0,0,0,0,-1,1938,1688,0,0
721,-664,0,0,0,0,0,0,0,0,0,-1,1945,1688,0,0
728,-664,0,0,0,0,0,0,0,0,0,-1,1952,1688,0,0
735,-664,0,0,0,0,0,0,0,0,0,-1,1959,1688,0,0
742,-664,0,0,0,0,0,0,0,0,0,-1,1966,1688,0,0
749,-664,0,0,0,0,0,0,0,0,0,-1,1973,1688,0,0
756,-664,0,0,0,0,0,0,0,0,0,-1,1980,1688,0,0
763,-664,0,0,0,0,0,0,0,0,0,-1,1987,1688,0,0
770,-664,0,0,0,0,0,0,0,0,0,-1,1994,1688,0,0
777,-664,0,0,0,0,0,0,0,0,0,-1,2001,1688,0,0
784,-664,0,0,0,0,0,0,0,0,0,-1,2008,1688,0,0
791,-664,0,0,0,0,0,0,0,0,0,-1,2015,1688,0,0
798,-664,0,0,0,0,0,0,0,0,0,-1,2022,1688,0,0
805,-664,0,0,0,0,0,0,0,0,0,-1,2029,1688,0,0
812,-664,0,0,0,0,0,0,0,0,0,-1,2036,1688,0,0
-700,-671,0,0,0,0,0,0,0,0,0,-1,524,1695,0,0
-693,-671,0,0,0,0,0,0,0,0,0,-1,531,1695,0,0
-686,-671,0,0,0,0,0,0,0,0,0,-1,538,1695,0,0
-679,-671,0,0,0,0,0,0,0,0,0,-1,545,1695,0,0
-672,-671,0,0,0,0,0,0,0,0,0,-1,552,1695,0,0
-665,-671,0,0,0,0,0,0,0,0,0,-1,559,1695,0,0
-658,-671,0,0,0,0,0,0,0,0,0,-1,566,1695,0,0
-651,-671,0,0,0,0,0,0,0,0,0,-1,573,1695,0,0
-644,-671,0,0,0,0,0,0,0,0,0,-1,580,1695,0,0
-637,-671,0,0,0,0,0,0,0,0,0,-1,587,1695,0,0
-630,-671,0,0,0,0,0,0,0,0,0,-1,594,1695,0,0
-623,-671,0,0,0,0,0,0,0,0,0,-1,601,1695,0,0
-616,-671,0,0,0,0,0,0,0,0,0,-1,608,1695,0,0
-609,-671,0,0,0,0,0,0,0,0,0,-1,615,1695,0,0
-602,-671,0,0,0,0,0,0,0,0,0,-1,622,1695,0,0
-595,-671,0,0,0,0,0,0,0,0,0,-1,629,1695,0,0
-588,-671,0,0,0,0,0,0,0,0,0,-1,636,1695,0,0
-581,-671,0,0,0,0,0,0,0,0,0,-1,643,1695,0,0
-574,-671,0,0,0,0,0,0,0,0,0,-1,650,1695,0,0
-567,-671,0,0,0,0,0,0,0,0,0,-1,657,1695,0,0
-560,-671,0,0,0,0,0,0,0,0,0,-1,664,1695,0,0
-553,-671,0,0,0,0,0,0,0,0,0,-1,671,1695,0,0
-546,-671,0,0,0,0,0,0,0,0,0,-1,678,1695,0,0
-539,-671,0,0,0,0,0,0,0,0,0,-1,685,1695,0,0
-532,-671,0,0,0,0,0,0,0,0,0,-1,692,1695,0,0
-525,-671,0,0,0,0,0,0,0,0,0,-1,699,1695,0,0
-518,-671,0,0,0,0,0,0,0,0,0,-1,706,1695,0,0
-511,-671,0,0,0,0,0,0,0,0,0,-1,713,1695,0,0
-504,-671,0,0,0,0,0,0,0,0,0,-1,720,1695,0,0
-497,-671,0,0,0,0,0,0,0,0,0,-1,727,1695,0,0
-490,-671,0,0,0,0,0,0,0,0,0,-1,734,1695,0,0
-483,-671,0,0,0,0,0,0,0,0,0,-1,741,1695,0,0
-476,-671,0,0,0,0,0,0,0,0,0,-1,748,1695,0,0
-469,-671,0,0,0,0,0,0,0,0,0,-1,755,1695,0,0
-462,-671,0,0,0,0,0,0,0,0,0,-1,762,1695,0,0
-455,-671,0,0,0,0,0,0,0,0,0,-1,769,1695,0,0
-448,-671,0,0,0,0,0,0,0,0,0,-1,776,1695,0,0
-441,-671,0,0,0,0,0,0,0,0,0,-1,783,1695,0,0
-434,-671,0,0,0,0,0,0,0,0,0,-1,790,1695,0,0
-427,-671,0,0,0,0,0,0,0,0,0,-1,797,1695,0,0
-420,-671,0,0,0,0,0,0,0,0,0,-1,804,1695,0,0
-413,-671,0,0,0,0,0,0,0,0,0,-1,811,1695,0,0
-406,-671,0,0,0,0,0,0,0,0,0,-1,818,1695,0,0
-399,-671,0,0,0,0,0,0,0,0,0,-1,825,1695,0,0
-392,-671,0,0,0,0,0,0,0,0,0,-1,832,1695,0,0
-385,-671,0,0,0,0,0,0,0,0,0,-1,839,1695,0,0
-378,-671,0,0,0,0,0,0,0,0,0,-1,846,1695,0,0
-371,-671,0,0,0,0,0,0,0,0,0,-1,853,1695,0,0
-364,-671,-4.18738,7.51416,0,0,0,0,0,0,0,-1,860,1695,-4.18739,-7.51419
-357,-671,-5.02393,6.07129,0,0,0,0,0,0,0,-1,867,1695,-5.0239,-6.07135
-350,-671,8.03021,46.2139,0,0,0,0,0,0,0,-1,874,1695,8.03024,-46.2139
-343,-671,7.2002,45.9105,0,0,0,0,0,0,0,-1,881,1695,7.20021,-45.9105
-336,-671,6.3653,45.8201,0,0,0,0,0,0,0,-1,888,1695,6.36532,-45.82
-329,-671,5.6283,45.7198,0,0,0,0,0,0,0,-1,895,1695,5.6283,-45.7199
-322,-671,5.74951,47.1416,0,0,0,0,0,0,0,-1,902,1695,5.74954,-47.1416
-315,-671,6.65924,49.1456,0,0,0,0,0,0,0,-1,909,1695,6.65923,-49.1457
-308,-671,6.31024,49.4874,0,0,0,0,0,0,0,-1,916,1695,6.31026,-49.4875
-301,-671,6.30029,51.1158,0.00973828,0.0208229,-0.0240929,0.0400028,-0.00944162,-0.89845,0.0303099,0.0464494,923,1695,6.3003,-51.1158
-294,-671,6.33783,52.1688,0.00915502,0.0205251,-0.0235474,0.039064,-0.00938386,-0.903846,0.0296694,0.0475404,930,1695,6.33782,-52.1688
-287,-671,6.46362,52.6547,0.0079744,0.0196251,-0.0218084,0.0363727,-0.00877322,-0.915909,0.027641,0.0424717,937,1695,6.46361,-52.6547
-280,-671,5.85474,53.2631,0.00636966,0.0180307,-0.0194136,0.0324705,-0.0080701,-0.931279,0.024779,0.0360311,944,1695,5.85471,-53.2631
-273,-671,5.83984,54.0321,0.00474819,0.0160034,-0.0162301,0.0275539,-0.00680231,-0.952281,0.0210071,0.0339386,951,1695,5.83984,-54.032
-266,-671,5.83276,54.8103,0.00328377,0.0136655,-0.0129984,0.0224711,-0.00552188,-0.975369,0.0171208,0.0244926,958,1695,5.83278,-54.8102
-259,-671,5.71161,55.4901,0.00208239,0.0114254,-0.00999794,0.0177894,-0.00428157,-1.00395,0.0135148,0.023564,965,1695,5.71159,-55.4902
-252,-671,5.66974,56.1873,0.000974403,0.00923624,-0.00718047,0.0133893,-0.00317862,-1.04643,0.0101529,0.0169522,972,1695,5.66974,-56.1873
-245,-671,5.62244,56.9089,6.27505e-05,0.00742198,-0.00505251,0.00999276,-0.00250803,-1.10012,0.0076364,0.0201268,979,1695,5.62243,-56.909
-238,-671,5.6391,57.616,-0.000656272,0.00625902,-0.00290382,0.00731662,-0.00171387,-1.22152,0.00553815,0.0215268,986,1695,5.63911,-57.616
-231,-671,5.60278,58.3107,-0.00122056,0.00411123,-0.000618188,0.00418197,-0.0012913,-1.45687,0.00330363,0.0166034,993,1695,5.60277,-58.3107
-224,-671,5.53339,58.9766,-0.00122734,0.00208593,0.00103824,0.00238439,-0.0015258,1.29088,0.00227562,0.0128035,1000,1695,5.5334,-58.9765
-217,-671,5.47839,59.6406,-0.000846238,0.00160266,0.00108041,0.00201117,-0.00125475,1.2093,0.00190236,0.0128277,1007,1695,5.47839,-59.6406
-210,-671,5.44904,60.3058,-0.000406237,0.00101116,0.00108138,0.00159538,-0.000990456,1.07547,0.00150649,0.0122268,1014,1695,5.44906,-60.3058
-203,-671,5.42456,60.9459,2.79955e-05,0.000341077,0.00104348,0.00123969,-0.000870621,0.859852,0.00122459,0.0190932,1021,1695,5.4246,-60.946
-196,-671,5.39233,61.5842,0.000411107,-0.000229597,0.000966493,0.00110896,-0.000927446,0.625367,0.00117727,0.0173898,1028,1695,5.39239,-61.5842
-189,-671,5.36304,62.2509,0.000681718,-0.00060075,0.000806824,0.00107109,-0.00099012,0.449628,0.00119035,0.013028,1035,1695,5.36305,-62.2508
-182,-671,5.35046,62.8644,0.000961859,-0.000504802,0.000584714,0.00116643,-0.000709376,0.336559,0.00109366,0.0101817,1042,1695,5.35051,-62.8644
-175,-671,5.33984,63.4545,0.00135952,-0.000416803,0.0004289,0.00145766,-0.00051494,0.22494,0.00118144,0.0134959,1049,1695,5.33982,-63.4544
-168,-671,5.32507,64.0068,0.00162282,-0.000121436,0.000216298,0.00164925,-0.000147858,0.121553,0.00115195,0.015453,1056,1695,5.32511,-64.0068
-161,-671,5.31531,64.5792,0.00183433,0.000439212,6.94735e-05,0.00183778,0.000435761,0.0496339,0.00110885,0.0110265,1063,1695,5.31532,-64.5793
-154,-671,5.34375,65.1527,0.00205729,0.00127643,-9.58711e-05,0.00206889,0.00126484,-0.120395,0.00120431,0.00997188,1070,1695,5.34375,-65.1527
-147,-671,5.35376,65.7048,0.0023066,0.00227833,-0.000219128,0.00251205,0.00207288,-0.753188,0.0015492,0.0111587,1077,1695,5.35373,-65.7048
-140,-671,5.39758,66.2162,0.00252853,0.00326655,-0.000363268,0.00341536,0.00237973,-1.18202,0.00202212,0.014685,1084,1695,5.39757,-66.2162
-133,-671,5.41638,66.7125,0.00289853,0.0044529,-0.000485797,0.00459224,0.00275919,-1.29147,0.00266924,0.022176,1091,1695,5.41635,-66.7125
-126,-671,5.52625,67.3801,0.00319989,0.00509241,-0.000426835,0.00518422,0.00310808,-1.35892,0.00301281,0.0447372,1098,1695,5.52622,-67.3802
-119,-671,5.68933,68.2318,0,0,0,0,0,0,0,-1,1105,1695,5.68934,-68.2318
-112,-671,6.58704,44.6255,0,0,0,0,0,0,0,-1,1112,1695,6.58701,-44.6255
-105,-671,7.33252,41.3418,0,0,0,0,0,0,0,-1,1119,1695,7.33247,-41.3418
-98,-671,6.34534,45.6299,0,0,0,0,0,0,0,-1,1126,1695,6.34533,-45.6299
-91,-671,6.40063,38.2443,0,0,0,0,0,0,0,-1,1133,1695,6.40059,-38.2442
-84,-671,5.4209,26.2415,0,0,0,0,0,0,0,-1,1140,1695,5.42096,-26.2414
-77,-671,4.31763,16.489,0,0,0,0,0,0,0,-1,1147,1695,4.31757,-16.489
-70,-671,3.06067,10.7737,0,0,0,0,0,0,0,-1,1154,1695,3.0607,-10.7737
-63,-671,2.94592,6.90198,0,0,0,0,0,0,0,-1,1161,1695,2.94594,-6.90198
-56,-671,-3.07678,2.87976,0,0,0,0,0,0,0,-1,1168,1695,-3.07675,-2.87979
-49,-671,-1.05957,4.76917,0,0,0,0,0,0,0,-1,1175,1695,-1.05958,-4.76921
-42,-671,0.539307,3.7865,0,0,0,0,0,0,0,-1,1182,1695,0.539266,-3.78648
-35,-671,-0.272461,0.347534,0,0,0,0,0,0,0,-1,1189,1695,-0.272434,-0.347569
-28,-671,-10.4878,17.2009,0,0,0,0,0,0,0,-1,1196,1695,-10.4878,-17.2009
-21,-671,6.53259,72.0365,0,0,0,0,0,0,0,-1,1203,1695,6.53265,-72.0364
-14,-671,6.85327,72.3309,0.0382033,-0.0250569,-0.0207734,0.0444149,-0.0312685,-0.290557,0.043915,0.0445948,1210,1695,6.85324,-72.3309
-7,-671,7.23047,72.6184,0.0386177,-0.0264172,-0.0209437,0.0447787,-0.0325783,-0.2861,0.0448469,0.0479799,1217,1695,7.23044,-72.6184
0,-671,7.69568,72.5763,0.0384975,-0.0257969,-0.0227793,0.0457501,-0.0330495,-0.308235,0.0456915,0.0448729,1224,1695,7.69572,-72.5762
7,-671,7.78772,72.412,0.0379652,-0.0231357,-0.0263096,0.0477326,-0.032903,-0.355476,0.0468167,0.0444786,1231,1695,7.78766,-72.412
14,-671,7.86316,72.2872,0.037022,-0.0183136,-0.0318321,0.0515299,-0.0328214,-0.427636,0.0490979,0.0437245,1238,1695,7.86315,-72.2872
21,-671,7.78088,71.9503,0.0356247,-0.0118213,-0.0387945,0.0573747,-0.0335713,-0.510981,0.0531038,0.0460382,1245,1695,7.78086,-71.9503
28,-671,8.38843,71.7847,0.0338819,-0.0044327,-0.0466424,0.065148,-0.0356987,-0.590538,0.0590456,0.0485397,1252,1695,8.38839,-71.7847
35,-671,8.98987,71.6968,0,0,0,0,0,0,0,-1,1259,1695,8.98987,-71.6968
42,-671,12.1515,65.9189,0,0,0,0,0,0,0,-1,1266,1695,12.1514,-65.919
49,-671,12.2723,64.8527,0,0,0,0,0,0,0,-1,1273,1695,12.2723,-64.8526
56,-671,12.0905,63.4894,0,0,0,0,0,0,0,-1,1280,1695,12.0904,-63.4894
63,-671,12.3209,62.6537,0,0,0,0,0,0,0,-1,1287,1695,12.3209,-62.6537
70,-671,12.5547,61.6404,0,0,0,0,0,0,0,-1,1294,1695,12.5547,-61.6403
77,-671,12.7933,60.5764,0,0,0,0,0,0,0,-1,1301,1695,12.7933,-60.5765
84,-671,13.1628,59.3505,0,0,0,0,0,0,0,-1,1308,1695,13.1629,-59.3505
91,-671,13.4662,58.1622,0,0,0,0,0,0,0,-1,1315,1695,13.4662,-58.1623
98,-671,9.59412,71.866,-0.0155291,0.0290961,-0.0551443,0.0662708,-0.0527039,-0.977641,0.0688388,0.0424981,1322,1695,9.59406,-71.8659
105,-671,9.72961,72.0267,-0.025362,0.0302533,-0.0482246,0.0581132,-0.0532219,-1.04693,0.0643,0.0450689,1329,1695,9.72958,-72.0267
112,-671,9.87866,72.1771,-0.035863,0.0330768,-0.0422736,0.0531526,-0.0559388,-1.12743,0.0629908,0.045462,1336,1695,9.87872,-72.1771
119,-671,9.99609,72.4801,0,0,0,0,0,0,0,-1,1343,1695,9.99607,-72.4801
126,-671,11.0238,73.0413,0,0,0,0,0,0,0,-1,1350,1695,11.0238,-73.0413
133,-671,5.78992,59.3254,0,0,0,0,0,0,0,-1,1357,1695,5.78998,-59.3255
140,-671,10.0581,69.1622,0,0,0,0,0,0,0,-1,1364,1695,10.0582,-69.1623
147,-671,10.1464,68.6486,0,0,0,0,0,0,0,-1,1371,1695,10.1464,-68.6486
154,-671,10.2216,68.136,0,0,0,0,0,0,0,-1,1378,1695,10.2216,-68.136
161,-671,4.49292,4.91272,0,0,0,0,0,0,0,-1,1385,1695,4.49297,-4.91273
168,-671,5.17639,6.1416,0,0,0,0,0,0,0,-1,1392,1695,5.1764,-6.14164
175,-671,5.6731,1.64685,0,0,0,0,0,0,0,-1,1399,1695,5.67313,-1.64691
182,-671,5.56812,1.71692,0,0,0,0,0,0,0,-1,1406,1695,5.56809,-1.71686
189,-671,6.98315,6.36169,0,0,0,0,0,0,0,-1,1413,1695,6.98312,-6.36175
196,-671,5.38123,5.69775,0,0,0,0,0,0,0,-1,1420,1695,5.38125,-5.69769
203,-671,5.95117,8.11658,0,0,0,0,0,0,0,-1,1427,1695,5.9512,-8.11662
210,-671,4.73596,8.39624,0,0,0,0,0,0,0,-1,1434,1695,4.736,-8.39618
217,-671,5.37097,11.863,0,0,0,0,0,0,0,-1,1441,1695,5.37094,-11.863
224,-671,5.08167,13.6694,0,0,0,0,0,0,0,-1,1448,1695,5.08165,-13.6695
231,-671,5.66663,15.3348,0,0,0,0,0,0,0,-1,1455,1695,5.66667,-15.3349
238,-671,6.32959,16.2036,0,0,0,0,0,0,0,-1,1462,1695,6.32961,-16.2037
245,-671,11.9244,57.5367,0,0,0,0,0,0,0,-1,1469,1695,11.9245,-57.5367
252,-671,12.3691,67.204,0,0,0,0,0,0,0,-1,1476,1695,12.3691,-67.204
259,-671,12.3119,66.4154,0,0,0,0,0,0,0,-1,1483,1695,12.3118,-66.4155
266,-671,12.415,65.7181,0.00769087,-0.000816204,0.000118679,0.00769253,-0.00081786,0.013947,0.00542157,0.0277401,1490,1695,12.415,-65.7181
273,-671,12.4755,65.1509,0.00710289,-0.000993356,0.000269906,0.00711188,-0.00100234,0.0332879,0.00510825,0.01148,1497,1695,12.4755,-65.1509
280,-671,12.4897,64.5858,0.00631431,-0.00106908,0.000376803,0.00633349,-0.00108826,0.0508578,0.00462793,0.012052,1504,1695,12.4898,-64.5858
287,-671,12.4906,63.9268,0.00559494,-0.000952923,0.000480995,0.00563009,-0.000988068,0.0729365,0.00412241,0.0138403,1511,1695,12.4906,-63.9268
294,-671,12.4954,63.3312,0.0049643,-0.000840805,0.000494943,0.0050062,-0.000882701,0.0844477,0.00366728,0.0128885,1518,1695,12.4954,-63.3311
301,-671,12.5253,62.778,0.0042621,-0.000568231,0.000421258,0.00429856,-0.000604694,0.0863425,0.00308708,0.0121918,1525,1695,12.5252,-62.778
308,-671,12.53,62.1951,0.00356487,-0.000254596,0.000221757,0.00357771,-0.000267428,0.0578008,0.00247909,0.0123412,1532,1695,12.53,-62.1951
315,-671,12.5299,61.5939,0.00287138,0.000173353,-6.73902e-06,0.0028714,0.000173336,-0.00249773,0.00185918,0.0138848,1539,1695,12.53,-61.5939
322,-671,12.5313,61.0016,0.00222155,0.000689247,-0.000247923,0.00226066,0.000650132,-0.15648,0.00134388,0.0161481,1546,1695,12.5312,-61.0016
329,-671,12.4778,60.3907,0.00168357,0.00121055,-0.000544092,0.00204034,0.000853789,-0.580373,0.0011832,0.0143048,1553,1695,12.4778,-60.3908
336,-671,12.4519,59.7246,0.00119612,0.0017593,-0.000785682,0.00231233,0.00064309,-0.957471,0.00137815,0.0117799,1560,1695,12.4519,-59.7246
343,-671,12.4697,59.0271,0.000738724,0.00233372,-0.0010541,0.00285801,0.000214432,-1.10924,0.00183804,0.0129969,1567,1695,12.4697,-59.0271
350,-671,12.4291,58.4069,0.000359314,0.00278358,-0.00137779,0.00340654,-0.000263646,-1.14616,0.00236382,0.0137575,1574,1695,12.4291,-58.4069
357,-671,12.3845,57.6908,0.000102826,0.00317151,-0.00170023,0.00392736,-0.000653025,-1.15248,0.00286087,0.0125836,1581,1695,12.3846,-57.6908
364,-671,12.3452,57.0055,-9.84186e-05,0.00333065,-0.00189282,0.00417001,-0.000937783,-1.15341,0.00313964,0.0125701,1588,1695,12.3452,-57.0055
371,-671,12.2976,56.363,-0.000204657,0.00348303,-0.00210005,0.00443382,-0.00115544,-1.14566,0.00340697,0.0141957,1595,1695,12.2976,-56.363
378,-671,12.2743,55.6851,-0.000245288,0.00361933,-0.00232906,0.00471329,-0.00133925,-1.13168,0.00367097,0.0131358,1602,1695,12.2743,-55.6851
385,-671,12.2347,54.9757,-0.000227334,0.00354174,-0.00259439,0.00486381,-0.0015494,-1.09951,0.00386398,0.0166778,1609,1695,12.2347,-54.9757
392,-671,12.1613,54.3107,-8.62379e-05,0.00353373,-0.0029989,0.00522652,-0.00177903,-1.05691,0.00420474,0.0212456,1616,1695,12.1612,-54.3107
399,-671,12.1031,53.5907,0.000124054,0.00339961,-0.00348578,0.00561319,-0.00208953,-1.00502,0.00459966,0.0176597,1623,1695,12.1031,-53.5907
406,-671,12.1041,52.7899,0.000361906,0.00303183,-0.00367341,0.00560533,-0.00221159,-0.959685,0.00465272,0.0274011,1630,1695,12.1042,-52.7899
413,-671,12.0468,52.1654,0.00093536,0.00231112,-0.00417696,0.00585646,-0.00260998,-0.867008,0.00500646,0.0427063,1637,1695,12.0468,-52.1654
420,-671,12.1329,51.4741,0,0,0,0,0,0,0,-1,1644,1695,12.133,-51.4741
427,-671,11.9879,42.9364,0,0,0,0,0,0,0,-1,1651,1695,11.988,-42.9364
434,-671,12.0647,42.6493,0,0,0,0,0,0,0,-1,1658,1695,12.0648,-42.6493
441,-671,11.8904,39.6104,0,0,0,0,0,0,0,-1,1665,1695,11.8904,-39.6103
448,-671,11.6979,39.1995,0,0,0,0,0,0,0,-1,1672,1695,11.6979,-39.1994
455,-671,11.5221,39.0929,0,0,0,0,0,0,0,-1,1679,1695,11.5221,-39.0929
462,-671,5.86255,4.47961,0,0,0,0,0,0,0,-1,1686,1695,5.8625,-4.4796
469,-671,3.71301,3.76978,0,0,0,0,0,0,0,-1,1693,1695,3.71297,-3.76974
476,-671,3.75574,3.18848,0,0,0,0,0,0,0,-1,1700,1695,3.7558,-3.18847
483,-671,7.81824,12.1041,0,0,0,0,0,0,0,-1,1707,1695,7.81826,-12.1041
490,-671,0,0,0,0,0,0,0,0,0,-1,1714,1695,0,0
497,-671,0,0,0,0,0,0,0,0,0,-1,1721,1695,0,0
504,-671,0,0,0,0,0,0,0,0,0,-1,1728,1695,0,0
511,-671,0,0,0,0,0,0,0,0,0,-1,1735,1695,0,0
518,-671,0,0,0,0,0,0,0,0,0,-1,1742,1695,0,0
525,-671,0,0,0,0,0,0,0,0,0,-1,1749,1695,0,0
532,-671,0,0,0,0,0,0,0,0,0,-1,1756,1695,0,0
539,-671,0,0,0,0,0,0,0,0,0,-1,1763,1695,0,0
546,-671,0,0,0,0,0,0,0,0,0,-1,1770,1695,0,0
553,-671,0,0,0,0,0,0,0,0,0,-1,1777,1695,0,0
560,-671,0,0,0,0,0,0,0,0,0,-1,1784,1695,0,0
567,-671,0,0,0,0,0,0,0,0,0,-1,1791,1695,0,0
574,-671,0,0,0,0,0,0,0,0,0,-1,1798,1695,0,0
581,-671,0,0,0,0,0,0,0,0,0,-1,1805,1695,0,0
588,-671,0,0,0,0,0,0,0,0,0,-1,1812,1695,0,0
595,-671,0,0,0,0,0,0,0,0,0,-1,1819,1695,0,0
602,-671,0,0,0,0,0,0,0,0,0,-1,1826,1695,0,0
609,-671,0,0,0,0,0,0,0,0,0,-1,1833,1695,0,0
616,-671,0,0,0,0,0,0,0,0,0,-1,1840,1695,0,0
623,-671,0,0,0,0,0,0,0,0,0,-1,1847,1695,0,0
630,-671,0,0,0,0,0,0,0,0,0,-1,1854,1695,0,0
637,-671,0,0,0,0,0,0,0,0,0,-1,1861,1695,0,0
644,-671,0,0,0,0,0,0,0,0,0,-1,1868,1695,0,0
651,-671,0,0,0,0,0,0,0,0,0,-1,1875,1695,0,0
658,-671,0,0,0,0,0,0,0,0,0,-1,1882,1695,0,0
665,-671,0,0,0,0,0,0,0,0,0,-1,1889,1695,0,0
672,-671,0,0,0,0,0,0,0,0,0,-1,1896,1695,0,0
679,-671,0,0,0,0,0,0,0,0,0,-1,1903,1695,0,0
686,-671,0,0,0,0,0,0,0,0,0,-1,1910,1695,0,0
693,-671,0,0,0,0,0,0,0,0,0,-1,1917,1695,0,0
700,-671,0,0,0,0,0,0,0,0,0,-1,1924,1695,0,0
707,-671,0,0,0,0,0,0,0,0,0,-1,1931,1695,0,0
714,-671,0,0,0,0,0,0,0,0,0,-1,1938,1695,0,0
721,-671,0,0,0,0,0,0,0,0,0,-1,1945,1695,0,0
728,-671,0,0,0,0,0,0,0,0,0,-1,1952,1695,0,0
735,-671,0,0,0,0,0,0,0,0,0,-1,1959,1695,0,0
742,-671,0,0,0,0,0,0,0,0,0,-1,1966,1695,0,0
749,-671,0,0,0,0,0,0,0,0,0,-1,1973,1695,0,0
756,-671,0,0,0,0,0,0,0,0,0,-1,1980,1695,0,0
763,-671,0,0,0,0,0,0,0,0,0,-1,1987,1695,0,0
770,-671,0,0,0,0,0,0,0,0,0,-1,1994,1695,0,0
777,-671,0,0,0,0,0,0,0,0,0,-1,2001,1695,0,0
784,-671,0,0,0,0,0,0,0,0,0,-1,2008,1695,0,0
791,-671,0,0,0,0,0,0,0,0,0,-1,2015,1695,0,0
798,-671,0,0,0,0,0,0,0,0,0,-1,2022,1695,0,0
805,-671,0,0,0,0,0,0,0,0,0,-1,2029,1695,0,0
812,-671,0,0,0,0,0,0,0,0,0,-1,2036,1695,0,0
-700,-678,0,0,0,0,0,0,0,0,0,-1,524,1702,0,0
-693,-678,0,0,0,0,0,0,0,0,0,-1,531,1702,0,0
-686,-678,0,0,0,0,0,0,0,0,0,-1,538,1702,0,0
-679,-678,0,0,0,0,0,0,0,0,0,-1,545,1702,0,0
-672,-678,0,0,0,0,0,0,0,0,0,-1,552,1702,0,0
-665,-678,0,0,0,0,0,0,0,0,0,-1,559,1702,0,0
-658,-678,0,0,0,0,0,0,0,0,0,-1,566,1702,0,0
-651,-678,0,0,0,0,0,0,0,0,0,-1,573,1702,0,0
-644,-678,0,0,0,0,0,0,0,0,0,-1,580,1702,0,0
-637,-678,0,0,0,0,0,0,0,0,0,-1,587,1702,0,0
-630,-678,0,0,0,0,0,0,0,0,0,-1,594,1702,0,0
-623,-678,0,0,0,0,0,0,0,0,0,-1,601,1702,0,0
-616,-678,0,0,0,0,0,0,0,0,0,-1,608,1702,0,0
-609,-678,0,0,0,0,0,0,0,0,0,-1,615,1702,0,0
-602,-678,0,0,0,0,0,0,0,0,0,-1,622,1702,0,0
-595,-678,0,0,0,0,0,0,0,0,0,-1,629,1702,0,0
-588,-678,0,0,0,0,0,0,0,0,0,-1,636,1702,0,0
-581,-678,0,0,0,0,0,0,0,0,0,-1,643,1702,0,0
-574,-678,0,0,0,0,0,0,0,0,0,-1,650,1702,0,0
-567,-678,0,0,0,0,0,0,0,0,0,-1,657,1702,0,0
-560,-678,0,0,0,0,0,0,0,0,0,-1,664,1702,0,0
-553,-678,0,0,0,0,0,0,0,0,0,-1,671,1702,0,0
-546,-678,0,0,0,0,0,0,0,0,0,-1,678,1702,0,0
-539,-678,0,0,0,0,0,0,0,0,0,-1,685,1702,0,0
-532,-678,0,0,0,0,0,0,0,0,0,-1,692,1702,0,0
-525,-678,0,0,0,0,0,0,0,0,0,-1,699,1702,0,0
-518,-678,0,0,0,0,0,0,0,0,0,-1,706,1702,0,0
-511,-678,0,0,0,0,0,0,0,0,0,-1,713,1702,0,0
-504,-678,0,0,0,0,0,0,0,0,0,-1,720,1702,0,0
-497,-678,0,0,0,0,0,0,0,0,0,-1,727,1702,0,0
-490,-678,0,0,0,0,0,0,0,0,0,-1,734,1702,0,0
-483,-678,0,0,0,0,0,0,0,0,0,-1,741,1702,0,0
-476,-678,0,0,0,0,0,0,0,0,0,-1,748,1702,0,0
-469,-678,0,0,0,0,0,0,0,0,0,-1,755,1702,0,0
-462,-678,0,0,0,0,0,0,0,0,0,-1,762,1702,0,0
-455,-678,0,0,0,0,0,0,0,0,0,-1,769,1702,0,0
-448,-678,0,0,0,0,0,0,0,0,0,-1,776,1702,0,0
-441,-678,0,0,0,0,0,0,0,0,0,-1,783,1702,0,0
-434,-678,0,0,0,0,0,0,0,0,0,-1,790,1702,0,0
-427,-678,0,0,0,0,0,0,0,0,0,-1,797,1702,0,0
-420,-678,0,0,0,0,0,0,0,0,0,-1,804,1702,0,0
-413,-678,0,0,0,0,0,0,0,0,0,-1,811,1702,0,0
-406,-678,0,0,0,0,0,0,0,0,0,-1,818,1702,0,0
-399,-678,0,0,0,0,0,0,0,0,0,-1,825,1702,0,0
-392,-678,0,0,0,0,0,0,0,0,0,-1,832,1702,0,0
-385,-678,0,0,0,0,0,0,0,0,0,-1,839,1702,0,0
-378,-678,0,0,0,0,0,0,0,0,0,-1,846,1702,0,0
-371,-678,0,0,0,0,0,0,0,0,0,-1,853,1702,0,0
-364,-678,0,0,0,0,0,0,0,0,0,-1,860,1702,0,0
-357,-678,0,0,0,0,0,0,0,0,0,-1,867,1702,0,0
-350,-678,-5.79944,6.11865,0,0,0,0,0,0,0,-1,874,1702,-5.79942,-6.11864
-343,-678,8.83331,46.1378,0,0,0,0,0,0,0,-1,881,1702,8.83334,-46.1378
-336,-678,7.73517,46.2286,0,0,0,0,0,0,0,-1,888,1702,7.73516,-46.2286
-329,-678,6.11768,46.3923,0,0,0,0,0,0,0,-1,895,1702,6.11768,-46.3923
-322,-678,8.50494,35.5048,0,0,0,0,0,0,0,-1,902,1702,8.50495,-35.5047
-315,-678,4.74438,49.7659,0,0,0,0,0,0,0,-1,909,1702,4.74436,-49.7659
-308,-678,7.41907,49.4305,0,0,0,0,0,0,0,-1,916,1702,7.41907,-49.4305
-301,-678,7.43732,51.0903,0.0172397,0.0299876,-0.0352011,0.0593871,-0.0121598,-0.874964,0.0442058,0.0492568,923,1702,7.43734,-51.0903
-294,-678,7.3609,52.5066,0.0159507,0.0296627,-0.0342506,0.0577368,-0.0121233,-0.884178,0.0431044,0.0483962,930,1702,7.3609,-52.5066
-287,-678,7.78809,52.46,0.0137407,0.0283683,-0.0315302,0.0534218,-0.0113128,-0.899364,0.0399234,0.04615,937,1702,7.78809,-52.4599
-280,-678,7.74316,52.7898,0.0109472,0.0260182,-0.0278972,0.0473797,-0.0104143,-0.917308,0.0355698,0.0455196,944,1702,7.74316,-52.7898
-273,-678,7.49292,53.2256,0,0,0,0,0,0,0,-1,951,1702,7.49292,-53.2256
-266,-678,6.50256,54.7582,0.00554966,0.0193847,-0.0183232,0.0320527,-0.00711834,-0.965891,0.0240944,0.0366826,958,1702,6.50255,-54.7582
-259,-678,6.38971,55.5326,0.00340479,0.0161133,-0.0139468,0.0250851,-0.00556704,-0.999152,0.0188551,0.0232621,965,1702,6.38972,-55.5326
-252,-678,6.35321,56.2365,0.00154439,0.0128656,-0.00990302,0.0186116,-0.00420169,-1.04504,0.0140198,0.0181826,972,1702,6.35322,-56.2364
-245,-678,6.31885,56.9437,5.83557e-05,0.0102687,-0.00692163,0.0137642,-0.00343716,-1.10315,0.0105109,0.0190711,979,1702,6.31887,-56.9437
-238,-678,6.26086,57.6521,-0.00109423,0.00861413,-0.00397794,0.0100359,-0.00251597,-1.22754,0.00766808,0.0158159,986,1702,6.26086,-57.6521
-231,-678,6.2066,58.3446,-0.00205736,0.00565641,-0.000840183,0.00574686,-0.00214781,-1.46355,0.00471322,0.0132464,993,1702,6.20663,-58.3446
-224,-678,6.14063,58.9913,-0.00221144,0.00294982,0.00149657,0.00335237,-0.00261399,1.30803,0.00345346,0.0134812,1000,1702,6.14064,-58.9914
-217,-678,6.10345,59.6638,-0.00176248,0.00237604,0.00163223,0.00294231,-0.00232875,1.23686,0.00305011,0.0149215,1007,1702,6.10347,-59.6639
-210,-678,6.08142,60.364,-0.00125422,0.00174502,0.00175267,0.00255207,-0.00206127,1.13927,0.00266853,0.0154447,1014,1702,6.08144,-60.364
-203,-678,6.06653,61.0006,-0.000772319,0.00106466,0.00181974,0.00218457,-0.00189223,1.01911,0.00235576,0.0193745,1021,1702,6.06653,-61.0006
-196,-678,6.02966,61.635,-0.000322441,0.000449996,0.00178602,0.00189108,-0.00176353,0.891881,0.00211042,0.0197349,1028,1702,6.02971,-61.635
-189,-678,5.97754,62.2764,7.83134e-05,6.64983e-05,0.00166588,0.0017383,-0.00159348,0.783625,0.00192421,0.0111531,1035,1702,5.97756,-62.2764
-182,-678,5.97046,62.8973,0.000469801,1.86725e-05,0.00145687,0.00171847,-0.00123,0.708594,0.00171007,0.0103117,1042,1702,5.97042,-62.8973
-175,-678,5.92773,63.5052,0.000939223,4.63327e-05,0.0012786,0.00184708,-0.000861528,0.617432,0.00159795,0.0118085,1049,1702,5.92773,-63.5052
-168,-678,5.90625,64.0771,0.00124991,0.000205814,0.000988175,0.00184546,-0.000389734,0.542385,0.0013787,0.0121052,1056,1702,5.90624,-64.0771
-161,-678,5.90186,64.6216,0.00149518,0.000572139,0.000763812,0.00192608,0.000141241,0.513635,0.00123966,0.0106084,1063,1702,5.90188,-64.6216
-154,-678,5.90588,65.1941,0.00177144,0.00113028,0.000477514,0.00202601,0.000875718,0.489779,0.00117329,0.00970986,1070,1702,5.90594,-65.1941
-147,-678,5.8866,65.7498,0.00207674,0.0018031,0.000200212,0.00218241,0.00169742,0.485658,0.00132324,0.0116048,1077,1702,5.88664,-65.7497
-140,-678,5.93762,66.2579,0.00235715,0.00237604,-8.74049e-05,0.00245451,0.00227868,-0.839215,0.00158099,0.0125419,1084,1702,5.93759,-66.2579
-133,-678,5.9635,66.7751,0.00271052,0.0030129,-0.000343407,0.00323693,0.0024865,-0.992763,0.00195639,0.0136048,1091,1702,5.96347,-66.7752
-126,-678,5.98206,67.3386,0.00304539,0.00325955,-0.000500856,0.00366464,0.00264029,-0.890712,0.00218327,0.0203667,1098,1702,5.98207,-67.3386
-119,-678,6.04724,68.0994,0,0,0,0,0,0,0,-1,1105,1702,6.04724,-68.0994
-112,-678,6.09387,68.2119,0,0,0,0,0,0,0,-1,1112,1702,6.09391,-68.2119
-105,-678,6.02747,68.8042,0,0,0,0,0,0,0,-1,1119,1702,6.02748,-68.8042
-98,-678,6.10669,69.3464,0,0,0,0,0,0,0,-1,1126,1702,6.10671,-69.3464
-91,-678,6.27771,69.606,0,0,0,0,0,0,0,-1,1133,1702,6.2777,-69.606
-84,-678,6.58545,36.5073,0,0,0,0,0,0,0,-1,1140,1702,6.58544,-36.5073
-77,-678,5.95154,29.1879,0,0,0,0,0,0,0,-1,1147,1702,5.95156,-29.1878
-70,-678,4.75891,19.6552,0,0,0,0,0,0,0,-1,1154,1702,4.75895,-19.6551
-63,-678,3.41687,11.0365,0,0,0,0,0,0,0,-1,1161,1702,3.41682,-11.0365
-56,-678,1.72388,6.13159,0,0,0,0,0,0,0,-1,1168,1702,1.72388,-6.13157
-49,-678,-0.241699,5.29895,0,0,0,0,0,0,0,-1,1175,1702,-0.241682,-5.29897
-42,-678,0.297119,3.90649,0,0,0,0,0,0,0,-1,1182,1702,0.297139,-3.90655
-35,-678,0.498413,3.64038,0,0,0,0,0,0,0,-1,1189,1702,0.498471,-3.64038
-28,-678,0.132446,3.55994,0,0,0,0,0,0,0,-1,1196,1702,0.132432,-3.55993
-21,-678,7.09058,72.2719,0,0,0,0,0,0,0,-1,1203,1702,7.09055,-72.2718
-14,-678,7.26965,72.4286,0.0320699,-0.0212441,-0.0158567,0.0364295,-0.0256037,-0.268308,0.0359962,0.0416252,1210,1702,7.26964,-72.4285
-7,-678,7.45508,72.6028,0.0324906,-0.0217571,-0.0167556,0.0372486,-0.0265151,-0.276682,0.0369874,0.0432539,1217,1702,7.45508,-72.6027
0,-678,7.74744,72.7651,0.0325619,-0.0208937,-0.0187466,0.0384809,-0.0268126,-0.305829,0.0378973,0.0434701,1224,1702,7.74749,-72.7651
7,-678,7.59888,72.7495,0.0324274,-0.018749,-0.0216926,0.040385,-0.0267067,-0.351595,0.0390028,0.0451309,1231,1702,7.59887,-72.7495
14,-678,8.25989,72.4172,0,0,0,0,0,0,0,-1,1238,1702,8.25987,-72.4173
21,-678,7.71594,71.6653,0,0,0,0,0,0,0,-1,1245,1702,7.71589,-71.6653
28,-678,8.39978,71.5173,0,0,0,0,0,0,0,-1,1252,1702,8.39983,-71.5173
35,-678,15.6165,84.9067,0,0,0,0,0,0,0,-1,1259,1702,15.6165,-84.9067
42,-678,14.8013,84.0125,0,0,0,0,0,0,0,-1,1266,1702,14.8013,-84.0124
49,-678,10.8961,71.7731,0,0,0,0,0,0,0,-1,1273,1702,10.8961,-71.7731
56,-678,10.3936,71.7529,0,0,0,0,0,0,0,-1,1280,1702,10.3935,-71.7529
63,-678,10.0825,71.6459,0,0,0,0,0,0,0,-1,1287,1702,10.0826,-71.6459
70,-678,9.95081,71.6982,0,0,0,0,0,0,0,-1,1294,1702,9.95086,-71.6982
77,-678,9.82874,71.7839,0,0,0,0,0,0,0,-1,1301,1702,9.82876,-71.7839
84,-678,9.83374,71.7014,0,0,0,0,0,0,0,-1,1308,1702,9.83374,-71.7014
91,-678,9.64453,71.8595,0,0,0,0,0,0,0,-1,1315,1702,9.64451,-71.8595
98,-678,9.552,72.1327,-0.00951297,0.0222095,-0.045324,0.0543675,-0.041671,-0.953714,0.0556091,0.0399189,1322,1702,9.55206,-72.1327
105,-678,9.66711,72.3081,-0.0175379,0.0226344,-0.0394006,0.0467734,-0.0416769,-1.02112,0.051095,0.0399903,1329,1702,9.66711,-72.3081
112,-678,9.76782,72.5587,-0.0260565,0.0245009,-0.0343826,0.0418974,-0.043453,-1.10239,0.0492798,0.0427557,1336,1702,9.76778,-72.5587
119,-678,9.8363,72.7874,0,0,0,0,0,0,0,-1,1343,1702,9.83632,-72.7873
126,-678,10.1478,73.2036,0,0,0,0,0,0,0,-1,1350,1702,10.1478,-73.2036
133,-678,10.4768,73.4769,0,0,0,0,0,0,0,-1,1357,1702,10.4768,-73.4769
140,-678,10.2959,68.9885,0,0,0,0,0,0,0,-1,1364,1702,10.2959,-68.9886
147,-678,10.3696,68.3291,0,0,0,0,0,0,0,-1,1371,1702,10.3697,-68.3291
154,-678,10.5111,67.6776,0,0,0,0,0,0,0,-1,1378,1702,10.5111,-67.6776
161,-678,8.81226,34.8624,0,0,0,0,0,0,0,-1,1385,1702,8.81229,-34.8624
168,-678,4.21863,5.25781,0,0,0,0,0,0,0,-1,1392,1702,4.21865,-5.25781
175,-678,5.21899,5.9635,0,0,0,0,0,0,0,-1,1399,1702,5.21894,-5.96346
182,-678,7.31262,6.75122,0,0,0,0,0,0,0,-1,1406,1702,7.3126,-6.75123
189,-678,5.96021,6.36853,0,0,0,0,0,0,0,-1,1413,1702,5.96018,-6.36851
196,-678,5.01599,8.15771,0,0,0,0,0,0,0,-1,1420,1702,5.01596,-8.15767
203,-678,4.64771,13.0559,0,0,0,0,0,0,0,-1,1427,1702,4.64766,-13.0559
210,-678,5.6532,18.5957,0,0,0,0,0,0,0,-1,1434,1702,5.65318,-18.5958
217,-678,6.88049,23.4835,0,0,0,0,0,0,0,-1,1441,1702,6.88047,-23.4835
224,-678,8.521,32.0977,0,0,0,0,0,0,0,-1,1448,1702,8.52098,-32.0977
231,-678,9.96838,42.3734,0,0,0,0,0,0,0,-1,1455,1702,9.96844,-42.3734
238,-678,11.7253,67.9191,0,0,0,0,0,0,0,-1,1462,1702,11.7253,-67.9191
245,-678,11.8708,67.1909,0,0,0,0,0,0,0,-1,1469,1702,11.8708,-67.1909
252,-678,11.8577,66.8091,0.00756136,-0.00021826,-0.000541625,0.00759889,-0.000255788,-0.0691762,0.00515331,0.0296987,1476,1702,11.8577,-66.8091
259,-678,11.879,66.2966,0.00662684,-0.00014658,-0.000354494,0.00664534,-0.000165082,-0.0521461,0.00448627,0.0200639,1483,1702,11.8791,-66.2966
266,-678,11.9391,65.7151,0.00584335,-0.000223864,-0.000370843,0.00586593,-0.000246447,-0.0608208,0.0039953,0.0143689,1490,1702,11.9391,-65.7151
273,-678,11.9504,65.1637,0.00529656,-0.000303427,-0.000331502,0.00531612,-0.000322982,-0.0589227,0.0036565,0.0112814,1497,1702,11.9504,-65.1637
280,-678,11.9418,64.6058,0.00460183,-0.000350273,-0.000299839,0.00461992,-0.000368362,-0.0602545,0.00320979,0.0115478,1504,1702,11.9418,-64.6058
287,-678,11.9476,64.0026,0.00395005,-0.000285746,-0.00024008,0.00396361,-0.00029931,-0.0564378,0.00274762,0.0114917,1511,1702,11.9476,-64.0026
294,-678,11.9279,63.4042,0.00334577,-0.000235374,-0.000206548,0.00335764,-0.000247248,-0.0574228,0.00232523,0.0122634,1518,1702,11.9278,-63.4042
301,-678,11.9047,62.8165,0.0027067,-3.57938e-05,-0.000287665,0.00273655,-6.56426e-05,-0.103392,0.00184663,0.0132952,1525,1702,11.9047,-62.8165
308,-678,11.9172,62.2303,0.00206561,0.00024021,-0.00044952,0.0021703,0.000135517,-0.228822,0.00140388,0.0141732,1532,1702,11.9173,-62.2303
315,-678,11.9001,61.623,0.00143114,0.000641955,-0.000632306,0.00178188,0.00029122,-0.506438,0.00110373,0.0152612,1539,1702,11.9001,-61.6231
322,-678,11.865,61.0416,0.000847667,0.00112711,-0.000803213,0.00180266,0.000172114,-0.871513,0.00114871,0.018602,1546,1702,11.865,-61.0417
329,-678,11.8409,60.4039,0.000384943,0.00165644,-0.00103595,0.00223616,-0.000194782,-1.06061,0.00155976,0.0148732,1553,1702,11.841,-60.404
336,-678,11.7974,59.7294,-3.93754e-05,0.00226174,-0.00124718,0.00280802,-0.000585652,-1.15796,0.0020947,0.0129265,1560,1702,11.7973,-59.7293
343,-678,11.8025,59.0735,-0.000405632,0.00295924,-0.00151536,0.00354107,-0.000987464,-1.2042,0.00274962,0.0151955,1567,1702,11.8025,-59.0735
350,-678,11.783,58.422,-0.000686896,0.00356791,-0.00183847,0.00425223,-0.00137122,-1.21446,0.00338575,0.015183,1574,1702,11.7829,-58.422
357,-678,11.7272,57.7423,-0.000817718,0.00409919,-0.00216545,0.00491689,-0.00163542,-1.20974,0.00393794,0.0108398,1581,1702,11.7272,-57.7423
364,-678,11.7021,57.0587,-0.000902445,0.0044721,-0.00238759,0.00537954,-0.00180989,-1.20759,0.004318,0.0114229,1588,1702,11.7022,-57.0587
371,-678,11.6538,56.3772,-0.000875423,0.00485782,-0.00266881,0.00590784,-0.00192545,-1.19596,0.00471334,0.0117542,1595,1702,11.6539,-56.3772
378,-678,11.5813,55.693,-0.000754618,0.00520309,-0.00299705,0.00644985,-0.00200138,-1.17657,0.00509966,0.0129857,1602,1702,11.5813,-55.693
385,-678,11.5488,55.0023,-0.000580693,0.00533126,-0.00337686,0.00686315,-0.00211258,-1.14492,0.00541869,0.0148278,1609,1702,11.5488,-55.0024
392,-678,11.5253,54.3533,-0.000240246,0.00552036,-0.00389183,0.0074818,-0.00220168,-1.10396,0.00586126,0.0255173,1616,1702,11.5253,-54.3533
399,-678,11.4492,53.6584,0.000225071,0.00548209,-0.00450945,0.00807318,-0.00236602,-1.04927,0.00632018,0.037151,1623,1702,11.4492,-53.6584
406,-678,11.3923,52.8485,0.000623969,0.00512165,-0.00475571,0.00813342,-0.0023878,-1.00625,0.0063692,0.0480505,1630,1702,11.3924,-52.8485
413,-678,11.4359,51.9532,0,0,0,0,0,0,0,-1,1637,1702,11.4359,-51.9532
420,-678,11.2355,43.032,0,0,0,0,0,0,0,-1,1644,1702,11.2355,-43.032
427,-678,10.0541,38.9548,0,0,0,0,0,0,0,-1,1651,1702,10.0541,-38.9548
434,-678,10.1094,38.722,0,0,0,0,0,0,0,-1,1658,1702,10.1094,-38.7221
441,-678,11.6007,39.4658,0,0,0,0,0,0,0,-1,1665,1702,11.6007,-39.4658
448,-678,11.344,38.9084,0,0,0,0,0,0,0,-1,1672,1702,11.344,-38.9084
455,-678,5.44678,5.54297,0,0,0,0,0,0,0,-1,1679,1702,5.44676,-5.54294
462,-678,3.86792,2.87402,0,0,0,0,0,0,0,-1,1686,1702,3.86796,-2.87406
469,-678,2.26587,1.98755,0,0,0,0,0,0,0,-1,1693,1702,2.26592,-1.98755
476,-678,0,0,0,0,0,0,0,0,0,-1,1700,1702,0,0
483,-678,0,0,0,0,0,0,0,0,0,-1,1707,1702,0,0
490,-678,0,0,0,0,0,0,0,0,0,-1,1714,1702,0,0
497,-678,0,0,0,0,0,0,0,0,0,-1,1721,1702,0,0
504,-678,0,0,0,0,0,0,0,0,0,-1,1728,1702,0,0
511,-678,0,0,0,0,0,0,0,0,0,-1,1735,1702,0,0
518,-678,0,0,0,0,0,0,0,0,0,-1,1742,1702,0,0
525,-678,0,0,0,0,0,0,0,0,0,-1,1749,1702,0,0
532,-678,0,0,0,0,0,0,0,0,0,-1,1756,1702,0,0
539,-678,0,0,0,0,0,0,0,0,0,-1,1763,1702,0,0
546,-678,0,0,0,0,0,0,0,0,0,-1,1770,1702,0,0
553,-678,0,0,0,0,0,0,0,0,0,-1,1777,1702,0,0
560,-678,0,0,0,0,0,0,0,0,0,-1,1784,1702,0,0
567,-678,0,0,0,0,0,0,0,0,0,-1,1791,1702,0,0
574,-678,0,0,0,0,0,0,0,0,0,-1,1798,1702,0,0
581,-678,0,0,0,0,0,0,0,0,0,-1,1805,1702,0,0
588,-678,0,0,0,0,0,0,0,0,0,-1,1812,1702,0,0
595,-678,0,0,0,0,0,0,0,0,0,-1,1819,1702,0,0
602,-678,0,0,0,0,0,0,0,0,0,-1,1826,1702,0,0
609,-678,0,0,0,0,0,0,0,0,0,-1,1833,1702,0,0
616,-678,0,0,0,0,0,0,0,0,0,-1,1840,1702,0,0
623,-678,0,0,0,0,0,0,0,0,0,-1,1847,1702,0,0
630,-678,0,0,0,0,0,0,0,0,0,-1,1854,1702,0,0
637,-678,0,0,0,0,0,0,0,0,0,-1,1861,1702,0,0
644,-678,0,0,0,0,0,0,0,0,0,-1,1868,1702,0,0
651,-678,0,0,0,0,0,0,0,0,0,-1,1875,1702,0,0
658,-678,0,0,0,0,0,0,0,0,0,-1,1882,1702,0,0
665,-678,0,0,0,0,0,0,0,0,0,-1,1889,1702,0,0
672,-678,0,0,0,0,0,0,0,0,0,-1,1896,1702,0,0
679,-678,0,0,0,0,0,0,0,0,0,-1,1903,1702,0,0
686,-678,0,0,0,0,0,0,0,0,0,-1,1910,1702,0,0
693,-678,0,0,0,0,0,0,0,0,0,-1,1917,1702,0,0
700,-678,0,0,0,0,0,0,0,0,0,-1,1924,1702,0,0
707,-678,0,0,0,0,0,0,0,0,0,-1,1931,1702,0,0
714,-678,0,0,0,0,0,0,0,0,0,-1,1938,1702,0,0
721,-678,0,0,0,0,0,0,0,0,0,-1,1945,1702,0,0
728,-678,0,0,0,0,0,0,0,0,0,-1,1952,1702,0,0
735,-678,0,0,0,0,0,0,0,0,0,-1,1959,1702,0,0
742,-678,0,0,0,0,0,0,0,0,0,-1,1966,1702,0,0
749,-678,0,0,0,0,0,0,0,0,0,-1,1973,1702,0,0
756,-678,0,0,0,0,0,0,0,0,0,-1,1980,1702,0,0
763,-678,0,0,0,0,0,0,0,0,0,-1,1987,1702,0,0
770,-678,0,0,0,0,0,0,0,0,0,-1,1994,1702,0,0
777,-678,0,0,0,0,0,0,0,0,0,-1,2001,1702,0,0
784,-678,0,0,0,0,0,0,0,0,0,-1,2008,1702,0,0
791,-678,0,0,0,0,0,0,0,0,0,-1,2015,1702,0,0
798,-678,0,0,0,0,0,0,0,0,0,-1,2022,1702,0,0
805,-678,0,0,0,0,0,0,0,0,0,-1,2029,1702,0,0
812,-678,0,0,0,0,0,0,0,0,0,-1,2036,1702,0,0
-700,-685,0,0,0,0,0,0,0,0,0,-1,524,1709,0,0
-693,-685,0,0,0,0,0,0,0,0,0,-1,531,1709,0,0
-686,-685,0,0,0,0,0,0,0,0,0,-1,538,1709,0,0
-679,-685,0,0,0,0,0,0,0,0,0,-1,545,1709,0,0
-672,-685,0,0,0,0,0,0,0,0,0,-1,552,1709,0,0
-665,-685,0,0,0,0,0,0,0,0,0,-1,559,1709,0,0
-658,-685,0,0,0,0,0,0,0,0,0,-1,566,1709,0,0
-651,-685,0,0,0,0,0,0,0,0,0,-1,573,1709,0,0
-644,-685,0,0,0,0,0,0,0,0,0,-1,580,1709,0,0
-637,-685,0,0,0,0,0,0,0,0,0,-1,587,1709,0,0
-630,-685,0,0,0,0,0,0,0,0,0,-1,594,1709,0,0
-623,-685,0,0,0,0,0,0,0,0,0,-1,601,1709,0,0
-616,-685,0,0,0,0,0,0,0,0,0,-1,608,1709,0,0
-609,-685,0,0,0,0,0,0,0,0,0,-1,615,1709,0,0
-602,-685,0,0,0,0,0,0,0,0,0,-1,622,1709,0,0
-595,-685,0,0,0,0,0,0,0,0,0,-1,629,1709,0,0
-588,-685,0,0,0,0,0,0,0,0,0,-1,636,1709,0,0
-581,-685,0,0,0,0,0,0,0,0,0,-1,643,1709,0,0
-574,-685,0,0,0,0,0,0,0,0,0,-1,650,1709,0,0
-567,-685,0,0,0,0,0,0,0,0,0,-1,657,1709,0,0
-560,-685,0,0,0,0,0,0,0,0,0,-1,664,1709,0,0
-553,-685,0,0,0,0,0,0,0,0,0,-1,671,1709,0,0
-546,-685,0,0,0,0,0,0,0,0,0,-1,678,1709,0,0
-539,-685,0,0,0,0,0,0,0,0,0,-1,685,1709,0,0
-532,-685,0,0,0,0,0,0,0,0,0,-1,692,1709,0,0
-525,-685,0,0,0,0,0,0,0,0,0,-1,699,1709,0,0
-518,-685,0,0,0,0,0,0,0,0,0,-1,706,1709,0,0
-511,-685,0,0,0,0,0,0,0,0,0,-1,713,1709,0,0
-504,-685,0,0,0,0,0,0,0,0,0,-1,720,1709,0,0
-497,-685,0,0,0,0,0,0,0,0,0,-1,727,1709,0,0
-490,-685,0,0,0,0,0,0,0,0,0,-1,734,1709,0,0
-483,-685,0,0,0,0,0,0,0,0,0,-1,741,1709,0,0
-476,-685,0,0,0,0,0,0,0,0,0,-1,748,1709,0,0
-469,-685,0,0,0,0,0,0,0,0,0,-1,755,1709,0,0
-462,-685,0,0,0,0,0,0,0,0,0,-1,762,1709,0,0
-455,-685,0,0,0,0,0,0,0,0,0,-1,769,1709,0,0
-448,-685,0,0,0,0,0,0,0,0,0,-1,776,1709,0,0
-441,-685,0,0,0,0,0,0,0,0,0,-1,783,1709,0,0
-434,-685,0,0,0,0,0,0,0,0,0,-1,790,1709,0,0
-427,-685,0,0,0,0,0,0,0,0,0,-1,797,1709,0,0
-420,-685,0,0,0,0,0,0,0,0,0,-1,804,1709,0,0
-413,-685,0,0,0,0,0,0,0,0,0,-1,811,1709,0,0
-406,-685,0,0,0,0,0,0,0,0,0,-1,818,1709,0,0
-399,-685,0,0,0,0,0,0,0,0,0,-1,825,1709,0,0
-392,-685,0,0,0,0,0,0,0,0,0,-1,832,1709,0,0
-385,-685,0,0,0,0,0,0,0,0,0,-1,839,1709,0,0
-378,-685,0,0,0,0,0,0,0,0,0,-1,846,1709,0,0
-371,-685,0,0,0,0,0,0,0,0,0,-1,853,1709,0,0
-364,-685,0,0,0,0,0,0,0,0,0,-1,860,1709,0,0
-357,-685,0,0,0,0,0,0,0,0,0,-1,867,1709,0,0
-350,-685,0,0,0,0,0,0,0,0,0,-1,874,1709,0,0
-343,-685,-5.98505,6.56335,0,0,0,0,0,0,0,-1,881,1709,-5.98505,-6.56329
-336,-685,-6.51312,5.10571,0,0,0,0,0,0,0,-1,888,1709,-6.51311,-5.10575
-329,-685,9.98907,36.2474,0,0,0,0,0,0,0,-1,895,1709,9.98909,-36.2475
-322,-685,3.83191,16.7219,0,0,0,0,0,0,0,-1,902,1709,3.8319,-16.7219
-315,-685,5.15784,21.4388,0,0,0,0,0,0,0,-1,909,1709,5.15783,-21.4389
-308,-685,5.43085,50.199,0,0,0,0,0,0,0,-1,916,1709,5.43087,-50.1989
-301,-685,8.56775,51.0562,0,0,0,0,0,0,0,-1,923,1709,8.56773,-51.0561
-294,-685,8.23193,52.5588,0,0,0,0,0,0,0,-1,930,1709,8.23193,-52.5588
-287,-685,9.09686,51.9374,0.0224835,0.0401372,-0.0448137,0.076985,-0.0143644,-0.882637,0.0567211,0.0469448,937,1709,9.09687,-51.9373
-280,-685,9.84314,52.1188,0.0178663,0.036686,-0.039451,0.0678338,-0.0132816,-0.90247,0.0502384,0.0493221,944,1709,9.84314,-52.1187
-273,-685,10.5554,52.3696,0,0,0,0,0,0,0,-1,951,1709,10.5554,-52.3696
-266,-685,7.24347,54.6161,0,0,0,0,0,0,0,-1,958,1709,7.24346,-54.6161
-259,-685,7.2453,55.4668,0.00549052,0.022118,-0.0191506,0.0346817,-0.00707313,-0.990184,0.025804,0.0484119,965,1709,7.24531,-55.4667
-252,-685,7.16302,56.1716,0.00255496,0.0173993,-0.0133884,0.0252852,-0.00533099,-1.03849,0.0188863,0.042169,972,1709,7.16305,-56.1716
-245,-685,7.14215,56.9023,0.000289771,0.013753,-0.00922654,0.0184426,-0.00439982,-1.10055,0.0139941,0.0379982,979,1709,7.14214,-56.9023
-238,-685,7.00647,57.689,-0.0015206,0.01142,-0.00521087,0.0132574,-0.003358,-1.2318,0.0101446,0.0282227,986,1709,7.00647,-57.6889
-231,-685,6.85144,58.4205,-0.00299245,0.00743435,-0.000992655,0.00752802,-0.00308611,-1.47672,0.0063044,0.0181151,993,1709,6.85143,-58.4205
-224,-685,6.78394,59.0448,-0.00331553,0.00392163,0.00216953,0.00452217,-0.00391607,1.30075,0.00487601,0.0159971,1000,1709,6.78391,-59.0448
-217,-685,6.75549,59.7205,-0.00275625,0.0032154,0.00242871,0.00407844,-0.00361929,1.22936,0.00444692,0.0121523,1007,1709,6.75551,-59.7204
-210,-685,6.72095,60.422,-0.00214125,0.00250119,0.00268771,0.00373129,-0.00337135,1.14158,0.00410246,0.0162256,1014,1709,6.72095,-60.4219
-203,-685,6.69409,61.053,-0.00158052,0.00176726,0.0028601,0.00340729,-0.00322055,1.05015,0.00382709,0.0174396,1021,1709,6.69414,-61.0529
-196,-685,6.65405,61.6864,-0.00104458,0.00106772,0.00286531,0.00306533,-0.00304219,0.961972,0.00352619,0.0152766,1028,1709,6.65406,-61.6864
-189,-685,6.59692,62.2673,-0.000513294,0.000632618,0.00276843,0.00288676,-0.00276744,0.887438,0.00326469,0.0102276,1035,1709,6.59687,-62.2674
-182,-685,6.56555,62.8936,-1.92225e-05,0.000423138,0.00255214,0.00276366,-0.00235974,0.828623,0.00296106,0.0142239,1042,1709,6.56556,-62.8935
-175,-685,6.54578,63.5238,0.000501093,0.000374125,0.0023306,0.00276907,-0.00189385,0.771782,0.0027079,0.0146821,1049,1709,6.54577,-63.5238
-168,-685,6.51074,64.0997,0.000830166,0.000422858,0.0019566,0.00259369,-0.00134066,0.733542,0.00230958,0.0120087,1056,1709,6.51071,-64.0997
-161,-685,6.5094,64.6624,0.00109141,0.000632611,0.00165989,0.00253768,-0.000813658,0.716733,0.00201843,0.0130202,1063,1709,6.50936,-64.6624
-154,-685,6.49695,65.2151,0.00139438,0.000975771,0.00126255,0.00246485,-9.47012e-05,0.703255,0.00167569,0.0120073,1070,1709,6.49698,-65.215
-147,-685,6.46582,65.7509,0.00172389,0.00143482,0.000851278,0.00244282,0.000715896,0.701309,0.00145007,0.0110381,1077,1709,6.46586,-65.7508
-140,-685,6.47156,66.2714,0.00203088,0.00176232,0.000458099,0.00237397,0.00141923,0.642833,0.00137933,0.0131291,1084,1709,6.47151,-66.2713
-133,-685,6.50391,66.801,0.00232596,0.00206269,0.000142772,0.00238852,0.00200013,0.41298,0.00147997,0.0126111,1091,1709,6.50393,-66.801
-126,-685,6.50708,67.3284,0.00266395,0.00217008,-0.000155167,0.00270866,0.00212537,-0.280508,0.00164616,0.0102766,1098,1709,6.50705,-67.3284
-119,-685,6.54407,67.8069,0.00318063,0.00206043,-0.000417794,0.00331929,0.00192177,-0.320446,0.00192434,0.0146627,1105,1709,6.54412,-67.8069
-112,-685,6.54614,68.2825,0.00372255,0.00186434,-0.000764986,0.00399695,0.00158993,-0.344411,0.00232366,0.0159646,1112,1709,6.54619,-68.2824
-105,-685,6.52686,68.752,0.00419999,0.00153243,-0.00106578,0.00457351,0.00115891,-0.337085,0.00274548,0.0188378,1119,1709,6.5268,-68.752
-98,-685,6.64343,69.1389,0.00466816,0.00108768,-0.00156009,0.00525255,0.000503293,-0.358406,0.00334657,0.0266116,1126,1709,6.64342,-69.139
-91,-685,6.65674,69.4507,0.00556814,0.000205916,-0.00233747,0.00644401,-0.000669955,-0.358516,0.00453585,0.0479431,1133,1709,6.65678,-69.4507
-84,-685,6.67517,69.9386,0,0,0,0,0,0,0,-1,1140,1709,6.67515,-69.9386
-77,-685,6.71313,70.4597,0,0,0,0,0,0,0,-1,1147,1709,6.71308,-70.4598
-70,-685,6.83984,71.0266,0,0,0,0,0,0,0,-1,1154,1709,6.8398,-71.0266
-63,-685,6.03015,29.7728,0,0,0,0,0,0,0,-1,1161,1709,6.0302,-29.7728
-56,-685,3.93909,15.8704,0,0,0,0,0,0,0,-1,1168,1709,3.93905,-15.8704
-49,-685,3.07471,9.86011,0,0,0,0,0,0,0,-1,1175,1709,3.07467,-9.86009
-42,-685,2.70618,7.54504,0,0,0,0,0,0,0,-1,1182,1709,2.7062,-7.54504
-35,-685,2.95264,7.91516,0,0,0,0,0,0,0,-1,1189,1709,2.95262,-7.91517
-28,-685,8.11353,52.4509,0,0,0,0,0,0,0,-1,1196,1709,8.1135,-52.451
-21,-685,7.58545,72.4222,0,0,0,0,0,0,0,-1,1203,1709,7.5854,-72.4223
-14,-685,7.60693,72.6482,0,0,0,0,0,0,0,-1,1210,1709,7.60699,-72.6482
-7,-685,7.62854,72.8741,0,0,0,0,0,0,0,-1,1217,1709,7.62858,-72.8741
0,-685,7.64734,73.0492,0,0,0,0,0,0,0,-1,1224,1709,7.64728,-73.0492
7,-685,7.54761,72.936,0,0,0,0,0,0,0,-1,1231,1709,7.5476,-72.9361
14,-685,7.97876,73.7925,0,0,0,0,0,0,0,-1,1238,1709,7.97873,-73.7925
21,-685,8.28882,73.9917,0,0,0,0,0,0,0,-1,1245,1709,8.28884,-73.9917
28,-685,8.41101,73.7335,0,0,0,0,0,0,0,-1,1252,1709,8.41104,-73.7335
35,-685,8.52246,73.7698,0,0,0,0,0,0,0,-1,1259,1709,8.52249,-73.7697
42,-685,8.75757,74.1323,0,0,0,0,0,0,0,-1,1266,1709,8.7576,-74.1324
49,-685,8.92041,74.1863,0,0,0,0,0,0,0,-1,1273,1709,8.92037,-74.1863
56,-685,10.0082,73.2731,0,0,0,0,0,0,0,-1,1280,1709,10.0082,-73.2731
63,-685,9.71875,73.2478,0,0,0,0,0,0,0,-1,1287,1709,9.71875,-73.2478
70,-685,9.13513,74.277,0,0,0,0,0,0,0,-1,1294,1709,9.13515,-74.277
77,-685,9.35828,73.1915,0,0,0,0,0,0,0,-1,1301,1709,9.35822,-73.1915
84,-685,9.28345,72.7662,0,0,0,0,0,0,0,-1,1308,1709,9.28342,-72.7663
91,-685,9.57727,72.6396,0,0,0,0,0,0,0,-1,1315,1709,9.57723,-72.6397
98,-685,9.45056,72.6584,0,0,0,0,0,0,0,-1,1322,1709,9.45053,-72.6584
105,-685,9.32385,72.6771,0,0,0,0,0,0,0,-1,1329,1709,9.32384,-72.6772
112,-685,9.64941,72.887,0,0,0,0,0,0,0,-1,1336,1709,9.64937,-72.887
119,-685,9.67651,73.0945,0,0,0,0,0,0,0,-1,1343,1709,9.67656,-73.0945
126,-685,10.4633,72.7671,0,0,0,0,0,0,0,-1,1350,1709,10.4632,-72.7671
133,-685,10.5071,72.5459,0,0,0,0,0,0,0,-1,1357,1709,10.5071,-72.5459
140,-685,10.2865,72.4452,0,0,0,0,0,0,0,-1,1364,1709,10.2865,-72.4453
147,-685,10.53,68.0679,0,0,0,0,0,0,0,-1,1371,1709,10.5301,-68.0679
154,-685,10.0796,56.0078,0,0,0,0,0,0,0,-1,1378,1709,10.0796,-56.0079
161,-685,10.4932,55.8827,0,0,0,0,0,0,0,-1,1385,1709,10.4932,-55.8827
168,-685,4.37524,10.8778,0,0,0,0,0,0,0,-1,1392,1709,4.37525,-10.8778
175,-685,3.97522,8.94324,0,0,0,0,0,0,0,-1,1399,1709,3.97519,-8.94328
182,-685,3.98218,9.19739,0,0,0,0,0,0,0,-1,1406,1709,3.98221,-9.1974
189,-685,4.53479,15.2343,0,0,0,0,0,0,0,-1,1413,1709,4.53474,-15.2343
196,-685,10.7599,70.5675,0,0,0,0,0,0,0,-1,1420,1709,10.7599,-70.5675
203,-685,10.8979,70.0229,0,0,0,0,0,0,0,-1,1427,1709,10.898,-70.023
210,-685,11.3135,69.5215,0,0,0,0,0,0,0,-1,1434,1709,11.3135,-69.5215
217,-685,11.2476,68.9912,0,0,0,0,0,0,0,-1,1441,1709,11.2475,-68.9912
224,-685,11.1892,68.6421,0,0,0,0,0,0,0,-1,1448,1709,11.1892,-68.6421
231,-685,11.1964,68.2062,0,0,0,0,0,0,0,-1,1455,1709,11.1964,-68.2062
238,-685,11.3239,67.7306,0.0068556,-2.0006e-06,-0.000777199,0.00694258,-8.89802e-05,-0.111451,0.00465833,0.0426857,1462,1709,11.3239,-67.7306
245,-685,11.33,67.2074,0.00625057,0.000278305,-0.000897017,0.00638239,0.000146485,-0.145909,0.00420695,0.0220716,1469,1709,11.3299,-67.2074
252,-685,11.3499,66.7813,0.00556251,0.00025326,-0.000710676,0.005656,0.000159777,-0.130789,0.00371855,0.0157945,1476,1709,11.3498,-66.7812
259,-685,11.3671,66.2679,0.00473281,0.000358178,-0.000681768,0.0048366,0.000254389,-0.151074,0.00314304,0.011481,1483,1709,11.3671,-66.268
266,-685,11.3822,65.7217,0.00403904,0.000331416,-0.000783362,0.00419776,0.000172699,-0.199904,0.00274275,0.0135153,1490,1709,11.3822,-65.7217
273,-685,11.3873,65.1741,0.0035081,0.000320371,-0.00081855,0.003706,0.000122469,-0.23722,0.00243087,0.0148848,1497,1709,11.3873,-65.1741
280,-685,11.371,64.6085,0.00287695,0.000314612,-0.000845536,0.00313081,6.07482e-05,-0.291677,0.00206726,0.0154084,1504,1709,11.371,-64.6085
287,-685,11.3553,64.0377,0.00226936,0.000342444,-0.000833123,0.00257962,3.21883e-05,-0.356489,0.00170912,0.0121558,1511,1709,11.3554,-64.0377
294,-685,11.3376,63.4603,0.00167124,0.000351954,-0.000787838,0.00203913,-1.5932e-05,-0.436865,0.00136476,0.010641,1518,1709,11.3377,-63.4604
301,-685,11.322,62.86,0.00108339,0.000507709,-0.000893146,0.00173393,-0.000142832,-0.629514,0.00120639,0.0143859,1525,1709,11.3221,-62.86
308,-685,11.3226,62.2821,0.000497261,0.000816344,-0.00107177,0.00174038,-0.000426776,-0.859285,0.00132561,0.0156405,1532,1709,11.3227,-62.2821
315,-685,11.3058,61.6764,-7.19413e-05,0.00125465,-0.00126382,0.00201866,-0.000835953,-1.02706,0.00169461,0.0138396,1539,1709,11.3058,-61.6764
322,-685,11.2637,61.0413,-0.000580796,0.00177853,-0.00141584,0.00244174,-0.00124401,-1.13272,0.0021651,0.0223053,1546,1709,11.2636,-61.0412
329,-685,11.2129,60.4116,-0.000963634,0.00237046,-0.00162478,0.00303128,-0.00162445,-1.18452,0.00272859,0.0192339,1553,1709,11.2129,-60.4117
336,-685,11.1912,59.7451,-0.00132379,0.00308468,-0.00184031,0.00375192,-0.00199104,-1.22297,0.00336725,0.0128581,1560,1709,11.1912,-59.7451
343,-685,11.1573,59.0905,-0.00159907,0.00395561,-0.00213699,0.0046826,-0.00232606,-1.24288,0.00412199,0.0123869,1567,1709,11.1574,-59.0904
350,-685,11.1022,58.4452,-0.00178156,0.00480105,-0.00247461,0.00562756,-0.00260807,-1.24845,0.0048602,0.0131417,1574,1709,11.1022,-58.4452
357,-685,11.0664,57.7974,-0.00178338,0.0055601,-0.0028185,0.00651715,-0.00274042,-1.24345,0.00549112,0.0109445,1581,1709,11.0663,-57.7974
364,-685,11.0325,57.1254,-0.00175239,0.00624566,-0.00307429,0.00729079,-0.00279751,-1.2431,0.00601398,0.0111884,1588,1709,11.0324,-57.1253
371,-685,10.9952,56.4338,-0.0015951,0.00695322,-0.00341922,0.00815258,-0.00279446,-1.23343,0.00656779,0.0178951,1595,1709,10.9952,-56.4339
378,-685,10.9551,55.6847,-0.00130798,0.00758166,-0.00383725,0.00900889,-0.00273521,-1.21471,0.00709562,0.0217356,1602,1709,10.9551,-55.6847
385,-685,10.8767,54.9398,-0.000977141,0.00799793,-0.00432694,0.0097442,-0.00272341,-1.18721,0.00756906,0.0353639,1609,1709,10.8767,-54.9398
392,-685,10.8944,54.187,-0.000418,0.00847582,-0.00493863,0.0106746,-0.00261677,-1.15193,0.00813026,0.0455869,1616,1709,10.8944,-54.187
399,-685,10.9026,53.425,0,0,0,0,0,0,0,-1,1623,1709,10.9025,-53.425
406,-685,10.7037,52.9453,0,0,0,0,0,0,0,-1,1630,1709,10.7037,-52.9453
413,-685,10.9447,43.5477,0,0,0,0,0,0,0,-1,1637,1709,10.9447,-43.5477
420,-685,10.3047,40.3569,0,0,0,0,0,0,0,-1,1644,1709,10.3047,-40.3569
427,-685,10.7286,38.6702,0,0,0,0,0,0,0,-1,1651,1709,10.7286,-38.6702
434,-685,4.87769,8.91418,0,0,0,0,0,0,0,-1,1658,1709,4.87768,-8.91413
441,-685,5.62,8.75549,0,0,0,0,0,0,0,-1,1665,1709,5.61996,-8.75545
448,-685,6.4043,8.58972,0,0,0,0,0,0,0,-1,1672,1709,6.40435,-8.58971
455,-685,2.31958,4.09802,0,0,0,0,0,0,0,-1,1679,1709,2.31957,-4.09803
462,-685,0,0,0,0,0,0,0,0,0,-1,1686,1709,0,0
469,-685,0,0,0,0,0,0,0,0,0,-1,1693,1709,0,0
476,-685,0,0,0,0,0,0,0,0,0,-1,1700,1709,0,0
483,-685,0,0,0,0,0,0,0,0,0,-1,1707,1709,0,0
490,-685,0,0,0,0,0,0,0,0,0,-1,1714,1709,0,0
497,-685,0,0,0,0,0,0,0,0,0,-1,1721,1709,0,0
504,-685,0,0,0,0,0,0,0,0,0,-1,1728,1709,0,0
511,-685,0,0,0,0,0,0,0,0,0,-1,1735,1709,0,0
518,-685,0,0,0,0,0,0,0,0,0,-1,1742,1709,0,0
525,-685,0,0,0,0,0,0,0,0,0,-1,1749,1709,0,0
532,-685,0,0,0,0,0,0,0,0,0,-1,1756,1709,0,0
539,-685,0,0,0,0,0,0,0,0,0,-1,1763,1709,0,0
546,-685,0,0,0,0,0,0,0,0,0,-1,1770,1709,0,0
553,-685,0,0,0,0,0,0,0,0,0,-1,1777,1709,0,0
560,-685,0,0,0,0,0,0,0,0,0,-1,1784,1709,0,0
567,-685,0,0,0,0,0,0,0,0,0,-1,1791,1709,0,0
574,-685,0,0,0,0,0,0,0,0,0,-1,1798,1709,0,0
581,-685,0,0,0,0,0,0,0,0,0,-1,1805,1709,0,0
588,-685,0,0,0,0,0,0,0,0,0,-1,1812,1709,0,0
595,-685,0,0,0,0,0,0,0,0,0,-1,1819,1709,0,0
602,-685,0,0,0,0,0,0,0,0,0,-1,1826,1709,0,0
609,-685,0,0,0,0,0,0,0,0,0,-1,1833,1709,0,0
616,-685,0,0,0,0,0,0,0,0,0,-1,1840,1709,0,0
623,-685,0,0,0,0,0,0,0,0,0,-1,1847,1709,0,0
630,-685,0,0,0,0,0,0,0,0,0,-1,1854,1709,0,0
637,-685,0,0,0,0,0,0,0,0,0,-1,1861,1709,0,0
644,-685,0,0,0,0,0,0,0,0,0,-1,1868,1709,0,0
651,-685,0,0,0,0,0,0,0,0,0,-1,1875,1709,0,0
658,-685,0,0,0,0,0,0,0,0,0,-1,1882,1709,0,0
665,-685,0,0,0,0,0,0,0,0,0,-1,1889,1709,0,0
672,-685,0,0,0,0,0,0,0,0,0,-1,1896,1709,0,0
679,-685,0,0,0,0,0,0,0,0,0,-1,1903,1709,0,0
686,-685,0,0,0,0,0,0,0,0,0,-1,1910,1709,0,0
693,-685,0,0,0,0,0,0,0,0,0,-1,1917,1709,0,0
700,-685,0,0,0,0,0,0,0,0,0,-1,1924,1709,0,0
707,-685,0,0,0,0,0,0,0,0,0,-1,1931,1709,0,0
714,-685,0,0,0,0,0,0,0,0,0,-1,1938,1709,0,0
721,-685,0,0,0,0,0,0,0,0,0,-1,1945,1709,0,0
728,-685,0,0,0,0,0,0,0,0,0,-1,1952,1709,0,0
735,-685,0,0,0,0,0,0,0,0,0,-1,1959,1709,0,0
742,-685,0,0,0,0,0,0,0,0,0,-1,1966,1709,0,0
749,-685,0,0,0,0,0,0,0,0,0,-1,1973,1709,0,0
756,-685,0,0,0,0,0,0,0,0,0,-1,1980,1709,0,0
763,-685,0,0,0,0,0,0,0,0,0,-1,1987,1709,0,0
770,-685,0,0,0,0,0,0,0,0,0,-1,1994,1709,0,0
777,-685,0,0,0,0,0,0,0,0,0,-1,2001,1709,0,0
784,-685,0,0,0,0,0,0,0,0,0,-1,2008,1709,0,0
791,-685,0,0,0,0,0,0,0,0,0,-1,2015,1709,0,0
798,-685,0,0,0,0,0,0,0,0,0,-1,2022,1709,0,0
805,-685,0,0,0,0,0,0,0,0,0,-1,2029,1709,0,0
812,-685,0,0,0,0,0,0,0,0,0,-1,2036,1709,0,0
-700,-692,0,0,0,0,0,0,0,0,0,-1,524,1716,0,0
-693,-692,0,0,0,0,0,0,0,0,0,-1,531,1716,0,0
-686,-692,0,0,0,0,0,0,0,0,0,-1,538,1716,0,0
-679,-692,0,0,0,0,0,0,0,0,0,-1,545,1716,0,0
-672,-692,0,0,0,0,0,0,0,0,0,-1,552,1716,0,0
-665,-692,0,0,0,0,0,0,0,0,0,-1,559,1716,0,0
-658,-692,0,0,0,0,0,0,0,0,0,-1,566,1716,0,0
-651,-692,0,0,0,0,0,0,0,0,0,-1,573,1716,0,0
-644,-692,0,0,0,0,0,0,0,0,0,-1,580,1716,0,0
-637,-692,0,0,0,0,0,0,0,0,0,-1,587,1716,0,0
-630,-692,0,0,0,0,0,0,0,0,0,-1,594,1716,0,0
-623,-692,0,0,0,0,0,0,0,0,0,-1,601,1716,0,0
-616,-692,0,0,0,0,0,0,0,0,0,-1,608,1716,0,0
-609,-692,0,0,0,0,0,0,0,0,0,-1,615,1716,0,0
-602,-692,0,0,0,0,0,0,0,0,0,-1,622,1716,0,0
-595,-692,0,0,0,0,0,0,0,0,0,-1,629,1716,0,0
-588,-692,0,0,0,0,0,0,0,0,0,-1,636,1716,0,0
-581,-692,0,0,0,0,0,0,0,0,0,-1,643,1716,0,0
-574,-692,0,0,0,0,0,0,0,0,0,-1,650,1716,0,0
-567,-692,0,0,0,0,0,0,0,0,0,-1,657,1716,0,0
-560,-692,0,0,0,0,0,0,0,0,0,-1,664,1716,0,0
-553,-692,0,0,0,0,0,0,0,0,0,-1,671,1716,0,0
-546,-692,0,0,0,0,0,0,0,0,0,-1,678,1716,0,0
-539,-692,0,0,0,0,0,0,0,0,0,-1,685,1716,0,0
-532,-692,0,0,0,0,0,0,0,0,0,-1,692,1716,0,0
-525,-692,0,0,0,0,0,0,0,0,0,-1,699,1716,0,0
-518,-692,0,0,0,0,0,0,0,0,0,-1,706,1716,0,0
-511,-692,0,0,0,0,0,0,0,0,0,-1,713,1716,0,0
-504,-692,0,0,0,0,0,0,0,0,0,-1,720,1716,0,0
-497,-692,0,0,0,0,0,0,0,0,0,-1,727,1716,0,0
-490,-692,0,0,0,0,0,0,0,0,0,-1,734,1716,0,0
-483,-692,0,0,0,0,0,0,0,0,0,-1,741,1716,0,0
-476,-692,0,0,0,0,0,0,0,0,0,-1,748,1716,0,0
-469,-692,0,0,0,0,0,0,0,0,0,-1,755,1716,0,0
-462,-692,0,0,0,0,0,0,0,0,0,-1,762,1716,0,0
-455,-692,0,0,0,0,0,0,0,0,0,-1,769,1716,0,0
-448,-692,0,0,0,0,0,0,0,0,0,-1,776,1716,0,0
-441,-692,0,0,0,0,0,0,0,0,0,-1,783,1716,0,0
-434,-692,0,0,0,0,0,0,0,0,0,-1,790,1716,0,0
-427,-692,0,0,0,0,0,0,0,0,0,-1,797,1716,0,0
-420,-692,0,0,0,0,0,0,0,0,0,-1,804,1716,0,0
-413,-692,0,0,0,0,0,0,0,0,0,-1,811,1716,0,0
-406,-692,0,0,0,0,0,0,0,0,0,-1,818,1716,0,0
-399,-692,0,0,0,0,0,0,0,0,0,-1,825,1716,0,0
-392,-692,0,0,0,0,0,0,0,0,0,-1,832,1716,0,0
-385,-692,0,0,0,0,0,0,0,0,0,-1,839,1716,0,0
-378,-692,0,0,0,0,0,0,0,0,0,-1,846,1716,0,0
-371,-692,0,0,0,0,0,0,0,0,0,-1,853,1716,0,0
-364,-692,0,0,0,0,0,0,0,0,0,-1,860,1716,0,0
-357,-692,0,0,0,0,0,0,0,0,0,-1,867,1716,0,0
-350,-692,0,0,0,0,0,0,0,0,0,-1,874,1716,0,0
-343,-692,0,0,0,0,0,0,0,0,0,-1,881,1716,0,0
-336,-692,0,0,0,0,0,0,0,0,0,-1,888,1716,0,0
-329,-692,3.03107,4.10266,0,0,0,0,0,0,0,-1,895,1716,3.03105,-4.10267
-322,-692,4.43713,18.5242,0,0,0,0,0,0,0,-1,902,1716,4.43711,-18.5241
-315,-692,5.38965,17.975,0,0,0,0,0,0,0,-1,909,1716,5.38963,-17.975
-308,-692,5.86938,17.4392,0,0,0,0,0,0,0,-1,916,1716,5.86937,-17.4392
-301,-692,12.015,41.2892,0,0,0,0,0,0,0,-1,923,1716,12.015,-41.2892
-294,-692,8.41125,35.4742,0,0,0,0,0,0,0,-1,930,1716,8.41125,-35.4742
-287,-692,10.6112,51.6202,0,0,0,0,0,0,0,-1,937,1716,10.6112,-51.6203
-280,-692,11.4037,51.7415,0,0,0,0,0,0,0,-1,944,1716,11.4038,-51.7414
-273,-692,7.83453,52.3982,0,0,0,0,0,0,0,-1,951,1716,7.83452,-52.3982
-266,-692,7.52716,51.7593,0,0,0,0,0,0,0,-1,958,1716,7.52717,-51.7593
-259,-692,8.1405,55.5417,0,0,0,0,0,0,0,-1,965,1716,8.14048,-55.5418
-252,-692,7.96887,56.0956,0,0,0,0,0,0,0,-1,972,1716,7.96889,-56.0956
-245,-692,8.07214,56.6971,0,0,0,0,0,0,0,-1,979,1716,8.07213,-56.6972
-238,-692,7.91779,57.5708,-0.00182524,0.0148429,-0.00677807,0.0172512,-0.00423357,-1.2294,0.0131413,0.048808,986,1716,7.91776,-57.5709
-231,-692,7.77393,58.4338,-0.00397998,0.00946152,-0.0011758,0.0095636,-0.00408206,-1.4842,0.00808743,0.0442834,993,1716,7.77392,-58.4339
-224,-692,7.43488,59.1238,-0.0045327,0.00492051,0.00300983,0.00579746,-0.00540965,1.28728,0.00647172,0.0223132,1000,1716,7.43485,-59.1238
-217,-692,7.37982,59.7552,-0.00386266,0.00398911,0.00345902,0.00529556,-0.00516911,1.20966,0.00604193,0.0147313,1007,1716,7.37981,-59.7553
-210,-692,7.33972,60.4237,-0.00314596,0.00311859,0.00391797,0.00500245,-0.00502982,1.1226,0.00579214,0.0148145,1014,1716,7.33973,-60.4237
-203,-692,7.32483,61.0605,-0.00251724,0.00227338,0.00423684,0.00474514,-0.004989,1.04267,0.00562059,0.0173351,1021,1716,7.32477,-61.0606
-196,-692,7.24622,61.7185,-0.00191202,0.00144829,0.0043146,0.00439833,-0.00486206,0.97107,0.00534872,0.0195149,1028,1716,7.24626,-61.7186
-189,-692,7.1748,62.2821,-0.00126305,0.000965136,0.00426285,0.00425707,-0.00455498,0.913214,0.00508861,0.00994439,1035,1716,7.1748,-62.2821
-182,-692,7.13757,62.9064,-0.000677407,0.000617896,0.00404198,0.00406378,-0.00412329,0.864839,0.00472685,0.0145234,1042,1716,7.13761,-62.9064
-175,-692,7.11035,63.5499,-0.000124191,0.000506938,0.00376631,0.00397088,-0.00358813,0.827194,0.00436606,0.0159969,1049,1716,7.11037,-63.5499
-168,-692,7.11377,64.1277,0.000214725,0.000482381,0.00329701,0.00364828,-0.00295117,0.805682,0.00381727,0.0131691,1056,1716,7.11373,-64.1277
-161,-692,7.09204,64.7062,0.000499502,0.000597144,0.00291983,0.00346856,-0.00237191,0.793758,0.00339176,0.0158276,1063,1716,7.09202,-64.7062
-154,-692,7.05493,65.2823,0.000824562,0.000795462,0.0023945,0.00320456,-0.00158453,0.78236,0.00281722,0.0165529,1070,1716,7.05496,-65.2824
-147,-692,7.04822,65.7845,0.00116649,0.00113287,0.00183121,0.00298097,-0.000681615,0.780808,0.00224921,0.0173588,1077,1716,7.04822,-65.7845
-140,-692,7.05823,66.2871,0.00147432,0.00131482,0.00131787,0.00271486,7.4286e-05,0.755177,0.00178566,0.0133776,1084,1716,7.05826,-66.2871
-133,-692,7.04663,66.8209,0.00175805,0.00141724,0.0008862,0.00249008,0.000685212,0.690415,0.0014853,0.0111378,1091,1716,7.04667,-66.8209
-126,-692,7.01599,67.3311,0.00205184,0.00148764,0.000439231,0.00229176,0.00124772,0.499942,0.00132489,0.00834069,1098,1716,7.01599,-67.3311
-119,-692,6.98083,67.827,0.00247253,0.0013439,8.16442e-05,0.00247841,0.00133802,0.0718404,0.00143242,0.0123182,1105,1716,6.98089,-67.827
-112,-692,7.00586,68.3091,0.00294507,0.00112974,-0.000224028,0.00297231,0.0011025,-0.120991,0.00173502,0.0122278,1112,1716,7.00587,-68.309
-105,-692,7.03503,68.7592,0.00336959,0.000806024,-0.000543201,0.00347994,0.000695674,-0.200421,0.00212634,0.018363,1119,1716,7.035,-68.7592
-98,-692,7.13123,69.1793,0.00380923,0.000410069,-0.000961777,0.00406249,0.000156808,-0.257481,0.0026576,0.0213147,1126,1716,7.13127,-69.1793
-91,-692,7.10925,69.6024,0.00450553,-0.000218078,-0.00152828,0.00495687,-0.000669415,-0.287161,0.00354882,0.021022,1133,1716,7.10921,-69.6024
-84,-692,7.18188,70.0034,0.00567594,-0.000705479,-0.00203663,0.00627053,-0.00130007,-0.284054,0.00467437,0.0240778,1140,1716,7.18183,-70.0034
-77,-692,7.16077,70.4468,0.00671649,-0.00202569,-0.00255382,0.00740785,-0.00271705,-0.26438,0.00605112,0.0201317,1147,1716,7.1608,-70.4467
-70,-692,7.21472,70.797,0.00722958,-0.00255278,-0.00305401,0.00810473,-0.00342794,-0.279081,0.00683845,0.0371901,1154,1716,7.21476,-70.7971
-63,-692,7.29297,71.1216,0,0,0,0,0,0,0,-1,1161,1716,7.29293,-71.1216
-56,-692,7.27637,71.4839,0,0,0,0,0,0,0,-1,1168,1716,7.27632,-71.4839
-49,-692,7.26819,71.8944,0,0,0,0,0,0,0,-1,1175,1716,7.2682,-71.8944
-42,-692,7.3667,72.3481,0,0,0,0,0,0,0,-1,1182,1716,7.36673,-72.3482
-35,-692,7.52881,72.7249,0,0,0,0,0,0,0,-1,1189,1716,7.5288,-72.7248
-28,-692,7.58679,72.5078,0,0,0,0,0,0,0,-1,1196,1716,7.58676,-72.5078
-21,-692,7.73828,72.7365,0.0201023,-0.0128686,-0.00668625,0.0214066,-0.0141729,-0.192656,0.0206829,0.038474,1203,1716,7.73828,-72.7364
-14,-692,7.85156,72.9209,0.0209077,-0.0140972,-0.00738383,0.0224015,-0.015591,-0.19961,0.0220521,0.0202316,1210,1716,7.85154,-72.9208
-7,-692,7.84631,73.1063,0.0215653,-0.0143135,-0.00865296,0.0235431,-0.0162913,-0.224711,0.0231251,0.0194055,1217,1716,7.84634,-73.1063
0,-692,7.89429,73.2749,0.0222953,-0.013734,-0.0103235,0.0250437,-0.0164823,-0.260189,0.0241443,0.0260225,1224,1716,7.89429,-73.2749
7,-692,8.09045,73.365,0.0229977,-0.0124607,-0.0123363,0.0268673,-0.0163304,-0.303958,0.0251863,0.0330655,1231,1716,8.09048,-73.365
14,-692,8.22253,73.7219,0.0235066,-0.0100713,-0.0151344,0.0293212,-0.0158859,-0.366808,0.0264817,0.035891,1238,1716,8.22249,-73.7219
21,-692,8.32202,73.8965,0.0238271,-0.00682599,-0.0185813,0.0325872,-0.0155861,-0.440547,0.0283844,0.035985,1245,1716,8.32203,-73.8965
28,-692,8.43872,73.8083,0.0240103,-0.0029309,-0.0226734,0.0369128,-0.0158334,-0.517358,0.0312531,0.0374337,1252,1716,8.43875,-73.8083
35,-692,8.55652,73.9006,0.0241394,0.00138515,-0.027149,0.0421988,-0.0166742,-0.586983,0.035039,0.0341687,1259,1716,8.55649,-73.9007
42,-692,8.71631,74.0803,0.0240976,0.00550316,-0.0314047,0.0475524,-0.0179516,-0.641486,0.0390847,0.0328921,1266,1716,8.71631,-74.0803
49,-692,8.82935,74.1169,0.0237176,0.00838069,-0.0343503,0.051245,-0.0191467,-0.675577,0.0420255,0.0426753,1273,1716,8.8293,-74.117
56,-692,8.92737,74.0361,0,0,0,0,0,0,0,-1,1280,1716,8.92742,-74.0361
63,-692,8.99963,74.007,0,0,0,0,0,0,0,-1,1287,1716,8.99968,-74.007
70,-692,9.05127,74.1257,0,0,0,0,0,0,0,-1,1294,1716,9.05128,-74.1257
77,-692,9.12122,74.2842,0,0,0,0,0,0,0,-1,1301,1716,9.12117,-74.2842
84,-692,9.24207,73.9017,0,0,0,0,0,0,0,-1,1308,1716,9.24207,-73.9017
91,-692,9.37634,73.7819,0,0,0,0,0,0,0,-1,1315,1716,9.37635,-73.7819
98,-692,9.46619,73.3721,0,0,0,0,0,0,0,-1,1322,1716,9.46615,-73.3721
105,-692,9.60901,73.5249,0,0,0,0,0,0,0,-1,1329,1716,9.60906,-73.5249
112,-692,9.75195,73.3978,0,0,0,0,0,0,0,-1,1336,1716,9.75196,-73.3978
119,-692,9.81055,73.1646,0,0,0,0,0,0,0,-1,1343,1716,9.81052,-73.1645
126,-692,10.0448,72.9625,-0.0171519,0.0106139,-0.0119736,0.0150641,-0.0216021,-1.21495,0.0212811,0.0465441,1350,1716,10.0448,-72.9626
133,-692,10.1244,72.78,-0.020459,0.0121777,-0.00994575,0.0149697,-0.023251,-1.29711,0.0222387,0.0352284,1357,1716,10.1244,-72.7801
140,-692,10.0253,72.6908,-0.0229484,0.0135971,-0.00820609,0.0153552,-0.0247064,-1.35975,0.0233387,0.0353233,1364,1716,10.0253,-72.6908
147,-692,9.95398,72.6488,0,0,0,0,0,0,0,-1,1371,1716,9.95393,-72.6488
154,-692,9.92883,56.0276,0,0,0,0,0,0,0,-1,1378,1716,9.92887,-56.0276
161,-692,10.1615,71.9207,0,0,0,0,0,0,0,-1,1385,1716,10.1615,-71.9207
168,-692,10.5204,71.8196,0,0,0,0,0,0,0,-1,1392,1716,10.5204,-71.8195
175,-692,10.6487,71.4668,0,0,0,0,0,0,0,-1,1399,1716,10.6487,-71.4668
182,-692,10.6061,71.1172,0,0,0,0,0,0,0,-1,1406,1716,10.6061,-71.1171
189,-692,10.6874,70.8347,0,0,0,0,0,0,0,-1,1413,1716,10.6873,-70.8347
196,-692,10.4598,70.309,0.00967137,-0.00151041,0.00105196,0.00976947,-0.00160851,0.0929911,0.00711006,0.0393261,1420,1716,10.4598,-70.3089
203,-692,10.5588,69.9091,0.00883466,-0.00130762,0.000836182,0.00890314,-0.0013761,0.0817099,0.0064433,0.0283997,1427,1716,10.5589,-69.9091
210,-692,10.7864,69.5549,0.00808261,-0.00101925,0.00054223,0.0081148,-0.00105144,0.0592939,0.00579225,0.0216028,1434,1716,10.7864,-69.5549
217,-692,10.7699,69.1031,0.0072524,-0.000629972,0.000276693,0.0072621,-0.000639672,0.0350453,0.0050681,0.017897,1441,1716,10.7699,-69.1032
224,-692,10.7845,68.6995,0.00639867,-0.00022092,-4.06582e-05,0.00639892,-0.000221169,-0.0061418,0.00434155,0.0143108,1448,1716,10.7846,-68.6995
231,-692,10.7975,68.2539,0.00555768,0.00013444,-0.000486016,0.00560089,9.12284e-05,-0.0886758,0.00370389,0.0133136,1455,1716,10.7975,-68.254
238,-692,10.8331,67.6799,0.00491317,0.000392914,-0.000876503,0.00507718,0.000228906,-0.184977,0.00331112,0.0205479,1462,1716,10.8331,-67.6799
245,-692,10.8473,67.1902,0.00431607,0.000625287,-0.00100273,0.0045709,0.000370455,-0.24887,0.00293159,0.0231077,1469,1716,10.8472,-67.1902
252,-692,10.8317,66.7802,0.00363062,0.000733458,-0.00095274,0.00391585,0.000448228,-0.290886,0.00247473,0.0194558,1476,1716,10.8316,-66.7802
259,-692,10.8424,66.2762,0.00288184,0.00084714,-0.00100919,0.00329748,0.0004315,-0.390685,0.00206954,0.0105527,1483,1716,10.8424,-66.2763
266,-692,10.837,65.74,0.00225521,0.000866391,-0.00116078,0.00291344,0.000208164,-0.515842,0.00187676,0.0114777,1490,1716,10.837,-65.74
273,-692,10.8315,65.1854,0.00173148,0.000920064,-0.00125048,0.00264042,1.11216e-05,-0.628535,0.00175659,0.0153138,1497,1716,10.8315,-65.1854
280,-692,10.8055,64.621,0.00115523,0.000962148,-0.00131802,0.00238024,-0.000262866,-0.748841,0.00168131,0.0135383,1504,1716,10.8056,-64.6209
287,-692,10.785,64.0609,0.000570229,0.00096072,-0.00134328,0.00212287,-0.000591916,-0.857568,0.00164836,0.011361,1511,1716,10.785,-64.0609
294,-692,10.7694,63.4935,-5.10419e-05,0.000936397,-0.00128019,0.00181477,-0.000929416,-0.969441,0.00161161,0.011225,1518,1716,10.7694,-63.4935
301,-692,10.7444,62.9142,-0.000605508,0.00109106,-0.00142565,0.00190171,-0.00141616,-1.05377,0.0019224,0.0148085,1525,1716,10.7444,-62.9142
308,-692,10.7069,62.34,-0.00116086,0.00148681,-0.00165111,0.00227926,-0.00195332,-1.12331,0.0024461,0.0175888,1532,1716,10.7069,-62.3399
315,-692,10.702,61.7227,-0.00168912,0.00201646,-0.00189225,0.00281196,-0.00248462,-1.17283,0.00305993,0.0164629,1539,1716,10.702,-61.7227
322,-692,10.6724,61.0599,-0.00214265,0.0026228,-0.00206614,0.00339385,-0.0029137,-1.21362,0.00364518,0.0225479,1546,1716,10.6724,-61.06
329,-692,10.6044,60.4128,-0.00245938,0.00332047,-0.00228511,0.00411475,-0.00325366,-1.23627,0.00426382,0.0192353,1553,1716,10.6043,-60.4129
336,-692,10.5703,59.7621,-0.00276565,0.00419282,-0.00254025,0.00502148,-0.00359431,-1.25547,0.00499703,0.0126851,1560,1716,10.5703,-59.7621
343,-692,10.532,59.119,-0.0029518,0.00528305,-0.00289955,0.00620155,-0.0038703,-1.26402,0.00586668,0.0129442,1567,1716,10.532,-59.119
350,-692,10.464,58.4861,-0.00302162,0.00645413,-0.00327224,0.0074743,-0.00404179,-1.26858,0.00674655,0.0149904,1574,1716,10.464,-58.4861
357,-692,10.4008,57.7838,-0.00285783,0.00753854,-0.00365427,0.00869447,-0.00401377,-1.26443,0.00750116,0.0228566,1581,1716,10.4007,-57.7839
364,-692,10.3164,57.0308,-0.00266342,0.00866801,-0.00396299,0.00991646,-0.00391187,-1.26561,0.00823086,0.030358,1588,1716,10.3164,-57.0307
371,-692,10.2424,56.2831,-0.00231194,0.00982358,-0.00438025,0.0112394,-0.00372778,-1.25816,0.00899677,0.0383731,1595,1716,10.2425,-56.2831
378,-692,10.2938,55.6323,-0.00177104,0.0108469,-0.00489928,0.0125258,-0.00344993,-1.24066,0.00970708,0.04717,1602,1716,10.2939,-55.6323
385,-692,10.1727,54.8794,0,0,0,0,0,0,0,-1,1609,1716,10.1727,-54.8794
392,-692,10.2389,54.0645,0,0,0,0,0,0,0,-1,1616,1716,10.2389,-54.0644
399,-692,10.6187,48.0621,0,0,0,0,0,0,0,-1,1623,1716,10.6187,-48.0621
406,-692,11.3221,42.7773,0,0,0,0,0,0,0,-1,1630,1716,11.3222,-42.7773
413,-692,11.4845,42.9004,0,0,0,0,0,0,0,-1,1637,1716,11.4845,-42.9004
420,-692,9.65894,40.2512,0,0,0,0,0,0,0,-1,1644,1716,9.65889,-40.2513
427,-692,3.79578,8.60339,0,0,0,0,0,0,0,-1,1651,1716,3.79577,-8.6034
434,-692,4.78516,8.64636,0,0,0,0,0,0,0,-1,1658,1716,4.78512,-8.64634
441,-692,5.8208,8.74036,0,0,0,0,0,0,0,-1,1665,1716,5.82084,-8.7404
448,-692,6.73792,8.51013,0,0,0,0,0,0,0,-1,1672,1716,6.73793,-8.5101
455,-692,0,0,0,0,0,0,0,0,0,-1,1679,1716,0,0
462,-692,0,0,0,0,0,0,0,0,0,-1,1686,1716,0,0
469,-692,0,0,0,0,0,0,0,0,0,-1,1693,1716,0,0
476,-692,0,0,0,0,0,0,0,0,0,-1,1700,1716,0,0
483,-692,0,0,0,0,0,0,0,0,0,-1,1707,1716,0,0
490,-692,0,0,0,0,0,0,0,0,0,-1,1714,1716,0,0
497,-692,0,0,0,0,0,0,0,0,0,-1,1721,1716,0,0
504,-692,0,0,0,0,0,0,0,0,0,-1,1728,1716,0,0
511,-692,0,0,0,0,0,0,0,0,0,-1,1735,1716,0,0
518,-692,0,0,0,0,0,0,0,0,0,-1,1742,1716,0,0
525,-692,0,0,0,0,0,0,0,0,0,-1,1749,1716,0,0
532,-692,0,0,0,0,0,0,0,0,0,-1,1756,1716,0,0
539,-692,0,0,0,0,0,0,0,0,0,-1,1763,1716,0,0
546,-692,0,0,0,0,0,0,0,0,0,-1,1770,1716,0,0
553,-692,0,0,0,0,0,0,0,0,0,-1,1777,1716,0,0
560,-692,0,0,0,0,0,0,0,0,0,-1,1784,1716,0,0
567,-692,0,0,0,0,0,0,0,0,0,-1,1791,1716,0,0
574,-692,0,0,0,0,0,0,0,0,0,-1,1798,1716,0,0
581,-692,0,0,0,0,0,0,0,0,0,-1,1805,1716,0,0
588,-692,0,0,0,0,0,0,0,0,0,-1,1812,1716,0,0
595,-692,0,0,0,0,0,0,0,0,0,-1,1819,1716,0,0
602,-692,0,0,0,0,0,0,0,0,0,-1,1826,1716,0,0
609,-692,0,0,0,0,0,0,0,0,0,-1,1833,1716,0,0
616,-692,0,0,0,0,0,0,0,0,0,-1,1840,1716,0,0
623,-692,0,0,0,0,0,0,0,0,0,-1,1847,1716,0,0
630,-692,0,0,0,0,0,0,0,0,0,-1,1854,1716,0,0
637,-692,0,0,0,0,0,0,0,0,0,-1,1861,1716,0,0
644,-692,0,0,0,0,0,0,0,0,0,-1,1868,1716,0,0
651,-692,0,0,0,0,0,0,0,0,0,-1,1875,1716,0,0
658,-692,0,0,0,0,0,0,0,0,0,-1,1882,1716,0,0
665,-692,0,0,0,0,0,0,0,0,0,-1,1889,1716,0,0
672,-692,0,0,0,0,0,0,0,0,0,-1,1896,1716,0,0
679,-692,0,0,0,0,0,0,0,0,0,-1,1903,1716,0,0
686,-692,0,0,0,0,0,0,0,0,0,-1,1910,1716,0,0
693,-692,0,0,0,0,0,0,0,0,0,-1,1917,1716,0,0
700,-692,0,0,0,0,0,0,0,0,0,-1,1924,1716,0,0
707,-692,0,0,0,0,0,0,0,0,0,-1,1931,1716,0,0
714,-692,0,0,0,0,0,0,0,0,0,-1,1938,1716,0,0
721,-692,0,0,0,0,0,0,0,0,0,-1,1945,1716,0,0
728,-692,0,0,0,0,0,0,0,0,0,-1,1952,1716,0,0
735,-692,0,0,0,0,0,0,0,0,0,-1,1959,1716,0,0
742,-692,0,0,0,0,0,0,0,0,0,-1,1966,1716,0,0
749,-692,0,0,0,0,0,0,0,0,0,-1,1973,1716,0,0
756,-692,0,0,0,0,0,0,0,0,0,-1,1980,1716,0,0
763,-692,0,0,0,0,0,0,0,0,0,-1,1987,1716,0,0
770,-692,0,0,0,0,0,0,0,0,0,-1,1994,1716,0,0
777,-692,0,0,0,0,0,0,0,0,0,-1,2001,1716,0,0
784,-692,0,0,0,0,0,0,0,0,0,-1,2008,1716,0,0
791,-692,0,0,0,0,0,0,0,0,0,-1,2015,1716,0,0
798,-692,0,0,0,0,0,0,0,0,0,-1,2022,1716,0,0
805,-692,0,0,0,0,0,0,0,0,0,-1,2029,1716,0,0
812,-692,0,0,0,0,0,0,0,0,0,-1,2036,1716,0,0
-700,-699,0,0,0,0,0,0,0,0,0,-1,524,1723,0,0
-693,-699,0,0,0,0,0,0,0,0,0,-1,531,1723,0,0
-686,-699,0,0,0,0,0,0,0,0,0,-1,538,1723,0,0
-679,-699,0,0,0,0,0,0,0,0,0,-1,545,1723,0,0
-672,-699,0,0,0,0,0,0,0,0,0,-1,552,1723,0,0
-665,-699,0,0,0,0,0,0,0,0,0,-1,559,1723,0,0
-658,-699,0,0,0,0,0,0,0,0,0,-1,566,1723,0,0
-651,-699,0,0,0,0,0,0,0,0,0,-1,573,1723,0,0
-644,-699,0,0,0,0,0,0,0,0,0,-1,580,1723,0,0
-637,-699,0,0,0,0,0,0,0,0,0,-1,587,1723,0,0
-630,-699,0,0,0,0,0,0,0,0,0,-1,594,1723,0,0
-623,-699,0,0,0,0,0,0,0,0,0,-1,601,1723,0,0
-616,-699,0,0,0,0,0,0,0,0,0,-1,608,1723,0,0
-609,-699,0,0,0,0,0,0,0,0,0,-1,615,1723,0,0
-602,-699,0,0,0,0,0,0,0,0,0,-1,622,1723,0,0
-595,-699,0,0,0,0,0,0,0,0,0,-1,629,1723,0,0
-588,-699,0,0,0,0,0,0,0,0,0,-1,636,1723,0,0
-581,-699,0,0,0,0,0,0,0,0,0,-1,643,1723,0,0
-574,-699,0,0,0,0,0,0,0,0,0,-1,650,1723,0,0
-567,-699,0,0,0,0,0,0,0,0,0,-1,657,1723,0,0
-560,-699,0,0,0,0,0,0,0,0,0,-1,664,1723,0,0
-553,-699,0,0,0,0,0,0,0,0,0,-1,671,1723,0,0
-546,-699,0,0,0,0,0,0,0,0,0,-1,678,1723,0,0
-539,-699,0,0,0,0,0,0,0,0,0,-1,685,1723,0,0
-532,-699,0,0,0,0,0,0,0,0,0,-1,692,1723,0,0
-525,-699,0,0,0,0,0,0,0,0,0,-1,699,1723,0,0
-518,-699,0,0,0,0,0,0,0,0,0,-1,706,1723,0,0
-511,-699,0,0,0,0,0,0,0,0,0,-1,713,1723,0,0
-504,-699,0,0,0,0,0,0,0,0,0,-1,720,1723,0,0
-497,-699,0,0,0,0,0,0,0,0,0,-1,727,1723,0,0
-490,-699,0,0,0,0,0,0,0,0,0,-1,734,1723,0,0
-483,-699,0,0,0,0,0,0,0,0,0,-1,741,1723,0,0
-476,-699,0,0,0,0,0,0,0,0,0,-1,748,1723,0,0
-469,-699,0,0,0,0,0,0,0,0,0,-1,755,1723,0,0
-462,-699,0,0,0,0,0,0,0,0,0,-1,762,1723,0,0
-455,-699,0,0,0,0,0,0,0,0,0,-1,769,1723,0,0
-448,-699,0,0,0,0,0,0,0,0,0,-1,776,1723,0,0
-441,-699,0,0,0,0,0,0,0,0,0,-1,783,1723,0,0
-434,-699,0,0,0,0,0,0,0,0,0,-1,790,1723,0,0
-427,-699,0,0,0,0,0,0,0,0,0,-1,797,1723,0,0
-420,-699,0,0,0,0,0,0,0,0,0,-1,804,1723,0,0
-413,-699,0,0,0,0,0,0,0,0,0,-1,811,1723,0,0
-406,-699,0,0,0,0,0,0,0,0,0,-1,818,1723,0,0
-399,-699,0,0,0,0,0,0,0,0,0,-1,825,1723,0,0
-392,-699,0,0,0,0,0,0,0,0,0,-1,832,1723,0,0
-385,-699,0,0,0,0,0,0,0,0,0,-1,839,1723,0,0
-378,-699,0,0,0,0,0,0,0,0,0,-1,846,1723,0,0
-371,-699,0,0,0,0,0,0,0,0,0,-1,853,1723,0,0
-364,-699,0,0,0,0,0,0,0,0,0,-1,860,1723,0,0
-357,-699,0,0,0,0,0,0,0,0,0,-1,867,1723,0,0
-350,-699,0,0,0,0,0,0,0,0,0,-1,874,1723,0,0
-343,-699,0,0,0,0,0,0,0,0,0,-1,881,1723,0,0
-336,-699,0,0,0,0,0,0,0,0,0,-1,888,1723,0,0
-329,-699,0,0,0,0,0,0,0,0,0,-1,895,1723,0,0
-322,-699,0,0,0,0,0,0,0,0,0,-1,902,1723,0,0
-315,-699,6.20001,19.5193,0,0,0,0,0,0,0,-1,909,1723,6.20001,-19.5193
-308,-699,6.98151,18.9218,0,0,0,0,0,0,0,-1,916,1723,6.98151,-18.9217
-301,-699,4.72729,12.8752,0,0,0,0,0,0,0,-1,923,1723,4.72732,-12.8752
-294,-699,6.90332,19.8601,0,0,0,0,0,0,0,-1,930,1723,6.90332,-19.8601
-287,-699,9.0968,36.3315,0,0,0,0,0,0,0,-1,937,1723,9.09678,-36.3315
-280,-699,9.53729,45.2391,0,0,0,0,0,0,0,-1,944,1723,9.53728,-45.2391
-273,-699,8.216,48.0923,0,0,0,0,0,0,0,-1,951,1723,8.21601,-48.0923
-266,-699,6.81915,20.8951,0,0,0,0,0,0,0,-1,958,1723,6.81914,-20.8952
-259,-699,5.39758,14.5466,0,0,0,0,0,0,0,-1,965,1723,5.39759,-14.5466
-252,-699,8.3866,31.6284,0,0,0,0,0,0,0,-1,972,1723,8.38657,-31.6284
-245,-699,7.94281,50.88,0,0,0,0,0,0,0,-1,979,1723,7.9428,-50.88
-238,-699,8.77161,57.5696,0,0,0,0,0,0,0,-1,986,1723,8.77159,-57.5695
-231,-699,8.66986,58.4171,0,0,0,0,0,0,0,-1,993,1723,8.66984,-58.4172
-224,-699,7.85828,59.0197,-0.00563383,0.00609063,0.00410454,0.00738472,-0.00692793,1.26538,0.00826481,0.0401714,1000,1723,7.85826,-59.0196
-217,-699,7.98444,59.696,-0.00486221,0.00479941,0.00480622,0.00678303,-0.00684583,1.17937,0.00786866,0.0265893,1007,1723,7.98445,-59.696
-210,-699,7.94666,60.3374,-0.00405575,0.00366489,0.00551457,0.00653603,-0.00692689,1.09077,0.00777391,0.0208166,1014,1723,7.94663,-60.3374
-203,-699,7.95068,61.0256,-0.00337616,0.00262013,0.00599814,0.0063277,-0.00708373,1.01716,0.00774719,0.0273634,1021,1723,7.95062,-61.0256
-196,-699,7.84814,61.7479,-0.00272319,0.00160141,0.00615408,0.00596201,-0.00708379,0.954342,0.00754127,0.0197136,1028,1723,7.84816,-61.7479
-189,-699,7.77686,62.3416,-0.00197107,0.00107021,0.00614202,0.00587702,-0.00677789,0.906748,0.00731248,0.00954154,1035,1723,7.77679,-62.3416
-182,-699,7.71912,62.9639,-0.0013132,0.000611853,0.00589353,0.00562094,-0.00632229,0.866343,0.00689939,0.0136976,1042,1723,7.71918,-62.9639
-175,-699,7.68591,63.5852,-0.000750787,0.000460208,0.00553743,0.00542514,-0.00571572,0.839855,0.00643291,0.0165253,1049,1723,7.68587,-63.5852
-168,-699,7.68604,64.1447,-0.000415552,0.000403443,0.00495247,0.00496332,-0.00497543,0.826647,0.00573814,0.0174971,1056,1723,7.68602,-64.1446
-161,-699,7.65515,64.7101,-0.0001157,0.000485972,0.00447961,0.00467484,-0.00430457,0.818926,0.00518573,0.0147841,1063,1723,7.65515,-64.71
-154,-699,7.59766,65.2805,0.000213875,0.000614048,0.00381446,0.00423367,-0.00340574,0.811601,0.00441924,0.0141922,1070,1723,7.59764,-65.2805
-147,-699,7.5647,65.7897,0.000542713,0.000925501,0.00308996,0.00382999,-0.00236177,0.816329,0.00360816,0.0180876,1077,1723,7.56472,-65.7897
-140,-699,7.56323,66.3069,0.000828549,0.00107162,0.00244167,0.00339478,-0.00149461,0.810266,0.00289307,0.0125578,1084,1723,7.56327,-66.3069
-133,-699,7.52917,66.8538,0.00107681,0.00108677,0.00189136,0.00297316,-0.000809577,0.786714,0.00229996,0.0101285,1091,1723,7.52919,-66.8538
-126,-699,7.49438,67.3678,0.00128537,0.00120999,0.00128118,0.00252941,-3.4051e-05,0.770694,0.00169774,0.0121969,1098,1723,7.49435,-67.3677
-119,-699,7.47437,67.8639,0.00157417,0.00108987,0.000807284,0.00217484,0.000489199,0.639689,0.00131746,0.0177473,1105,1723,7.47437,-67.8639
-112,-699,7.46521,68.3524,0.00195652,0.000906112,0.000537187,0.00218259,0.000680044,0.398339,0.0012896,0.01247,1112,1723,7.46516,-68.3524
-105,-699,7.46399,68.8107,0.00229484,0.000649359,0.000195072,0.00231765,0.00062655,0.116401,0.00138435,0.0140624,1119,1723,7.46404,-68.8107
-98,-699,7.54321,69.2209,0.00266983,0.000368049,-0.000155488,0.00268029,0.000357593,-0.0671448,0.00168039,0.01665,1126,1723,7.54324,-69.2209
-91,-699,7.56958,69.636,0.00319022,7.13935e-08,-0.000567429,0.00328815,-9.78507e-05,-0.170889,0.00222543,0.0236434,1133,1723,7.56961,-69.636
-84,-699,7.60449,70.0745,0.00395613,-0.000292706,-0.000974972,0.00416917,-0.000505749,-0.21513,0.00296246,0.0285046,1140,1723,7.60444,-70.0745
-77,-699,7.58887,70.4406,0.00470891,-0.000927392,-0.00137484,0.00502639,-0.00124487,-0.226941,0.00383385,0.0191162,1147,1723,7.58891,-70.4405
-70,-699,7.60681,70.7988,0.0052194,-0.00124434,-0.00175341,0.00566441,-0.00168934,-0.248548,0.00444765,0.0183796,1154,1723,7.60677,-70.7988
-63,-699,7.64648,71.1776,0.00641834,-0.00174234,-0.00189109,0.00683526,-0.00215926,-0.216997,0.00542187,0.0157667,1161,1723,7.64654,-71.1776
-56,-699,7.64319,71.5044,0.00785531,-0.00190982,-0.00191296,0.00821668,-0.00227119,-0.186707,0.00637125,0.0127274,1168,1723,7.64315,-71.5044
-49,-699,7.64502,71.8573,0.00905204,-0.00315786,-0.00261773,0.0095896,-0.00369542,-0.202538,0.00791775,0.0279658,1175,1723,7.64508,-71.8573
-42,-699,7.70642,72.2137,0.00977792,-0.00479404,-0.00284859,0.010315,-0.0053311,-0.186348,0.00918476,0.0307889,1182,1723,7.70648,-72.2138
-35,-699,7.7738,72.5319,0.0108865,-0.00605475,-0.00299833,0.0114015,-0.00656975,-0.170103,0.0104999,0.0280242,1189,1723,7.77386,-72.5319
-28,-699,7.90771,72.7083,0.0126615,-0.00744523,-0.00343855,0.0132333,-0.00801701,-0.164778,0.0123915,0.0236019,1196,1723,7.90766,-72.7082
-21,-699,7.95569,72.8282,0.0143174,-0.0090579,-0.00394046,0.0149638,-0.00970428,-0.16259,0.0143496,0.015963,1203,1723,7.95572,-72.8282
-14,-699,7.99939,73.0592,0.0150957,-0.0101732,-0.00447168,0.0158637,-0.0109411,-0.170085,0.0155625,0.0137909,1210,1723,7.9994,-73.0592
-7,-699,8.04248,73.2878,0.0157709,-0.0104843,-0.00549195,0.0168734,-0.0115868,-0.198113,0.0165257,0.0109647,1217,1723,8.04246,-73.2878
0,-699,8.12744,73.4612,0.0164994,-0.0101637,-0.00676852,0.0181192,-0.0117835,-0.234897,0.017393,0.0145075,1224,1723,8.12747,-73.4612
7,-699,8.30542,73.5214,0.0172486,-0.0094511,-0.00819707,0.0195643,-0.0117668,-0.275332,0.0182748,0.0236701,1231,1723,8.30547,-73.5214
14,-699,8.40808,73.6925,0.0178678,-0.0079878,-0.0101334,0.021366,-0.011486,-0.332406,0.0192509,0.0237177,1238,1723,8.4081,-73.6925
21,-699,8.38696,73.8214,0.0183085,-0.00585267,-0.0125434,0.0236428,-0.0111869,-0.402095,0.0205331,0.0191451,1245,1723,8.38702,-73.8214
28,-699,8.48682,73.8802,0.0186491,-0.00321857,-0.0154308,0.0266271,-0.0111966,-0.477169,0.0224351,0.018432,1252,1723,8.48679,-73.8803
35,-699,8.59583,74.0293,0.0189468,-0.000212084,-0.0186752,0.0303561,-0.0116214,-0.548421,0.0250274,0.0160717,1259,1723,8.59584,-74.0293
42,-699,8.70056,74.0934,0.019087,0.00264011,-0.0217348,0.034102,-0.0123749,-0.604544,0.0277936,0.0148521,1266,1723,8.70058,-74.0934
49,-699,8.78491,74.1307,0.0189144,0.00462457,-0.0238863,0.0367015,-0.0131626,-0.640073,0.0298391,0.0182616,1273,1723,8.78487,-74.1308
56,-699,8.88428,74.1582,0.0186602,0.00631463,-0.0253095,0.0385388,-0.013564,-0.665788,0.0312122,0.0185933,1280,1723,8.88429,-74.1582
63,-699,8.96899,74.103,0.0175344,0.00737095,-0.0260313,0.0389753,-0.01407,-0.689002,0.0317309,0.0157118,1287,1723,8.96905,-74.103
70,-699,9.03101,74.1237,0.0158378,0.00810093,-0.026239,0.038492,-0.0145532,-0.71221,0.0316482,0.0128144,1294,1723,9.03106,-74.1236
77,-699,9.10596,74.092,0.0136259,0.00763084,-0.0252372,0.036043,-0.0147862,-0.726288,0.0301895,0.0137608,1301,1723,9.10594,-74.0921
84,-699,9.19556,74.0043,0.0105887,0.00712576,-0.0231323,0.0320542,-0.0143398,-0.748043,0.0274287,0.017099,1308,1723,9.19556,-74.0043
91,-699,9.30396,73.9108,0.00780394,0.00591999,-0.0201704,0.0270544,-0.0133304,-0.762065,0.0237607,0.0161541,1315,1723,9.30402,-73.9108
98,-699,9.38635,73.7981,0.00493154,0.00405652,-0.0167183,0.0212181,-0.01223,-0.772316,0.0195423,0.0135371,1322,1723,9.38631,-73.798
105,-699,9.44055,73.7192,0.00156017,0.00269412,-0.0132468,0.0153861,-0.0111318,-0.806786,0.0153756,0.0198985,1329,1723,9.4406,-73.7192
112,-699,9.5116,73.6051,-0.00177776,0.00217737,-0.0104432,0.0108286,-0.010429,-0.878972,0.0122738,0.0302007,1336,1723,9.51155,-73.6052
119,-699,9.56689,73.4211,-0.00484869,0.00216385,-0.0079622,0.00735761,-0.0100425,-0.992804,0.0100857,0.0205182,1343,1723,9.56691,-73.4212
126,-699,9.677,73.1968,-0.0073662,0.00263596,-0.0058917,0.00536294,-0.0100932,-1.13731,0.00906183,0.021489,1350,1723,9.677,-73.1968
133,-699,9.80103,73.015,-0.00940426,0.00354224,-0.00418156,0.00477537,-0.0106374,-1.28403,0.00911058,0.0201537,1357,1723,9.80108,-73.015
140,-699,9.89404,72.8243,-0.0108545,0.00445054,-0.00276687,0.00493538,-0.0113393,-1.39733,0.00963562,0.0204027,1364,1723,9.89404,-72.8243
147,-699,9.93286,72.6144,0,0,0,0,0,0,0,-1,1371,1723,9.93283,-72.6144
154,-699,10.0402,72.4343,0,0,0,0,0,0,0,-1,1378,1723,10.0402,-72.4343
161,-699,9.99194,72.0587,-0.00813804,0.00693239,-0.00261253,0.00737243,-0.00857808,-1.40393,0.0092178,0.0306911,1385,1723,9.99195,-72.0587
168,-699,10.1173,71.7748,-0.00554475,0.00679541,-0.00160199,0.00699998,-0.00574933,-1.44378,0.00737261,0.0120662,1392,1723,10.1173,-71.7748
175,-699,10.188,71.4882,-0.00196249,0.00475109,-0.000480733,0.00478533,-0.00199674,-1.49967,0.00402445,0.0189543,1399,1723,10.1879,-71.4881
182,-699,10.2256,71.1525,0.000561721,0.00386592,-0.000198893,0.00387785,0.000549792,-1.51089,0.00242285,0.0202067,1406,1723,10.2255,-71.1525
189,-699,10.1841,70.7778,0.00401688,0.00180096,-4.10307e-05,0.00401764,0.0018002,-0.0185079,0.00232375,0.0171759,1413,1723,10.1841,-70.7778
196,-699,10.1771,70.347,0.00701904,-0.000531741,0.00044226,0.00704485,-0.000557557,0.0583057,0.00489302,0.02037,1420,1723,10.1772,-70.347
203,-699,10.2275,69.9469,0.00637519,-0.000385138,0.000217537,0.00638218,-0.000392131,0.0321342,0.00439134,0.0165797,1427,1723,10.2276,-69.9469
210,-699,10.2944,69.5898,0.00576732,-0.000178988,-5.54771e-05,0.00576784,-0.000179506,-0.00932858,0.00390644,0.0139461,1434,1723,10.2944,-69.5899
217,-699,10.3157,69.1624,0.00506448,0.000132942,-0.000273393,0.00507959,0.000117833,-0.0552121,0.00334781,0.0144169,1441,1723,10.3156,-69.1624
224,-699,10.3411,68.723,0.00433295,0.000450349,-0.000548056,0.00440883,0.00037447,-0.137577,0.00282269,0.0164274,1448,1723,10.3411,-68.7231
231,-699,10.3663,68.2744,0.00361031,0.000724197,-0.000885955,0.00386057,0.000473934,-0.275305,0.00243118,0.0138584,1455,1723,10.3663,-68.2744
238,-699,10.3435,67.7568,0.00301911,0.000946969,-0.00115637,0.00353566,0.000430415,-0.420108,0.00222754,0.0119877,1462,1723,10.3435,-67.7568
245,-699,10.3318,67.2621,0.00243743,0.0011093,-0.00127212,0.00320838,0.000338348,-0.544847,0.00203553,0.0133499,1469,1723,10.3317,-67.2621
252,-699,10.328,66.8003,0.00175193,0.00129398,-0.00131781,0.00286051,0.000185403,-0.699379,0.00184831,0.0110112,1476,1723,10.328,-66.8004
259,-699,10.3229,66.293,0.0010691,0.0013928,-0.00142294,0.00266306,-0.000201165,-0.842026,0.00184609,0.0116683,1483,1723,10.3229,-66.293
266,-699,10.3134,65.7631,0.000494159,0.00144039,-0.00158783,0.00262409,-0.000689545,-0.930192,0.00201889,0.0141328,1490,1723,10.3134,-65.7631
273,-699,10.2883,65.2031,-3.14458e-05,0.00154571,-0.00169948,0.00263066,-0.00111639,-1.00262,0.00222146,0.0129209,1497,1723,10.2884,-65.2032
280,-699,10.2577,64.6354,-0.00059708,0.00164767,-0.00177571,0.00262597,-0.00157539,-1.06723,0.00245081,0.0126683,1504,1723,10.2576,-64.6354
287,-699,10.2297,64.0601,-0.00119573,0.00162645,-0.00181338,0.00251308,-0.00208236,-1.11604,0.00265706,0.0106276,1511,1723,10.2297,-64.06
294,-699,10.2052,63.4908,-0.00187386,0.00156244,-0.00169545,0.00225812,-0.00256955,-1.18142,0.00278919,0.0112866,1518,1723,10.2052,-63.4909
301,-699,10.1744,62.9301,-0.00242228,0.00173731,-0.00185079,0.00244157,-0.00312654,-1.20719,0.00322285,0.0128227,1525,1723,10.1745,-62.9301
308,-699,10.1428,62.3435,-0.00298024,0.0022509,-0.00209751,0.00298805,-0.00371739,-1.23284,0.00387902,0.0168115,1532,1723,10.1429,-62.3435
315,-699,10.1227,61.7089,-0.00349911,0.00290922,-0.00238293,0.00369817,-0.00428807,-1.25107,0.00461505,0.019796,1539,1723,10.1226,-61.7088
322,-699,10.0566,61.062,-0.00392716,0.00362753,-0.00258424,0.00442693,-0.00472657,-1.27079,0.00528572,0.0218041,1546,1723,10.0567,-61.0621
329,-699,9.97974,60.4221,-0.0042027,0.00447023,-0.0028236,0.00530848,-0.00504094,-1.28221,0.00597591,0.0171952,1553,1723,9.97972,-60.4221
336,-699,9.93152,59.7859,-0.00447998,0.00555481,-0.00314418,0.00645858,-0.00538374,-1.2909,0.00684655,0.0144442,1560,1723,9.93151,-59.7859
343,-699,9.90417,59.1467,-0.00459322,0.006914,-0.00360319,0.00794913,-0.00562835,-1.29105,0.00787704,0.0208818,1567,1723,9.90419,-59.1467
350,-699,9.8833,58.4539,-0.0045441,0.00852671,-0.00403686,0.00967296,-0.00569035,-1.29413,0.0089688,0.0367131,1574,1723,9.88329,-58.4538
357,-699,9.82471,57.5267,-0.00420405,0.0101063,-0.00454941,0.0114301,-0.00552789,-1.28762,0.00998642,0.047613,1581,1723,9.82475,-57.5267
364,-699,9.7804,56.8345,-0.00380375,0.0118291,-0.00500229,0.0132927,-0.00526738,-1.28615,0.0110445,0.0490231,1588,1723,9.78036,-56.8344
371,-699,9.78821,56.1453,0,0,0,0,0,0,0,-1,1595,1723,9.78825,-56.1453
378,-699,9.52808,55.7278,0,0,0,0,0,0,0,-1,1602,1723,9.52802,-55.7278
385,-699,8.04944,42.8464,0,0,0,0,0,0,0,-1,1609,1723,8.04943,-42.8464
392,-699,8.04492,42.0624,0,0,0,0,0,0,0,-1,1616,1723,8.04492,-42.0623
399,-699,8.49963,41.4828,0,0,0,0,0,0,0,-1,1623,1723,8.49961,-41.4828
406,-699,11.7264,44.1525,0,0,0,0,0,0,0,-1,1630,1723,11.7264,-44.1525
413,-699,12.3215,44.3011,0,0,0,0,0,0,0,-1,1637,1723,12.3215,-44.3011
420,-699,8.41907,38.2246,0,0,0,0,0,0,0,-1,1644,1723,8.41902,-38.2247
427,-699,2.98743,11.8593,0,0,0,0,0,0,0,-1,1651,1723,2.98746,-11.8592
434,-699,4.66455,8.90222,0,0,0,0,0,0,0,-1,1658,1723,4.66456,-8.90223
441,-699,0,0,0,0,0,0,0,0,0,-1,1665,1723,0,0
448,-699,0,0,0,0,0,0,0,0,0,-1,1672,1723,0,0
455,-699,0,0,0,0,0,0,0,0,0,-1,1679,1723,0,0
462,-699,0,0,0,0,0,0,0,0,0,-1,1686,1723,0,0
469,-699,0,0,0,0,0,0,0,0,0,-1,1693,1723,0,0
476,-699,0,0,0,0,0,0,0,0,0,-1,1700,1723,0,0
483,-699,0,0,0,0,0,0,0,0,0,-1,1707,1723,0,0
490,-699,0,0,0,0,0,0,0,0,0,-1,1714,1723,0,0
497,-699,0,0,0,0,0,0,0,0,0,-1,1721,1723,0,0
504,-699,0,0,0,0,0,0,0,0,0,-1,1728,1723,0,0
511,-699,0,0,0,0,0,0,0,0,0,-1,1735,1723,0,0
518,-699,0,0,0,0,0,0,0,0,0,-1,1742,1723,0,0
525,-699,0,0,0,0,0,0,0,0,0,-1,1749,1723,0,0
532,-699,0,0,0,0,0,0,0,0,0,-1,1756,1723,0,0
539,-699,0,0,0,0,0,0,0,0,0,-1,1763,1723,0,0
546,-699,0,0,0,0,0,0,0,0,0,-1,1770,1723,0,0
553,-699,0,0,0,0,0,0,0,0,0,-1,1777,1723,0,0
560,-699,0,0,0,0,0,0,0,0,0,-1,1784,1723,0,0
567,-699,0,0,0,0,0,0,0,0,0,-1,1791,1723,0,0
574,-699,0,0,0,0,0,0,0,0,0,-1,1798,1723,0,0
581,-699,0,0,0,0,0,0,0,0,0,-1,1805,1723,0,0
588,-699,0,0,0,0,0,0,0,0,0,-1,1812,1723,0,0
595,-699,0,0,0,0,0,0,0,0,0,-1,1819,1723,0,0
602,-699,0,0,0,0,0,0,0,0,0,-1,1826,1723,0,0
609,-699,0,0,0,0,0,0,0,0,0,-1,1833,1723,0,0
616,-699,0,0,0,0,0,0,0,0,0,-1,1840,1723,0,0
623,-699,0,0,0,0,0,0,0,0,0,-1,1847,1723,0,0
630,-699,0,0,0,0,0,0,0,0,0,-1,1854,1723,0,0
637,-699,0,0,0,0,0,0,0,0,0,-1,1861,1723,0,0
644,-699,0,0,0,0,0,0,0,0,0,-1,1868,1723,0,0
651,-699,0,0,0,0,0,0,0,0,0,-1,1875,1723,0,0
658,-699,0,0,0,0,0,0,0,0,0,-1,1882,1723,0,0
665,-699,0,0,0,0,0,0,0,0,0,-1,1889,1723,0,0
672,-699,0,0,0,0,0,0,0,0,0,-1,1896,1723,0,0
679,-699,0,0,0,0,0,0,0,0,0,-1,1903,1723,0,0
686,-699,0,0,0,0,0,0,0,0,0,-1,1910,1723,0,0
693,-699,0,0,0,0,0,0,0,0,0,-1,1917,1723,0,0
700,-699,0,0,0,0,0,0,0,0,0,-1,1924,1723,0,0
707,-699,0,0,0,0,0,0,0,0,0,-1,1931,1723,0,0
714,-699,0,0,0,0,0,0,0,0,0,-1,1938,1723,0,0
721,-699,0,0,0,0,0,0,0,0,0,-1,1945,1723,0,0
728,-699,0,0,0,0,0,0,0,0,0,-1,1952,1723,0,0
735,-699,0,0,0,0,0,0,0,0,0,-1,1959,1723,0,0
742,-699,0,0,0,0,0,0,0,0,0,-1,1966,1723,0,0
749,-699,0,0,0,0,0,0,0,0,0,-1,1973,1723,0,0
756,-699,0,0,0,0,0,0,0,0,0,-1,1980,1723,0,0
763,-699,0,0,0,0,0,0,0,0,0,-1,1987,1723,0,0
770,-699,0,0,0,0,0,0,0,0,0,-1,1994,1723,0,0
777,-699,0,0,0,0,0,0,0,0,0,-1,2001,1723,0,0
784,-699,0,0,0,0,0,0,0,0,0,-1,2008,1723,0,0
791,-699,0,0,0,0,0,0,0,0,0,-1,2015,1723,0,0
798,-699,0,0,0,0,0,0,0,0,0,-1,2022,1723,0,0
805,-699,0,0,0,0,0,0,0,0,0,-1,2029,1723,0,0
812,-699,0,0,0,0,0,0,0,0,0,-1,2036,1723,0,0
-700,-706,0,0,0,0,0,0,0,0,0,-1,524,1730,0,0
-693,-706,0,0,0,0,0,0,0,0,0,-1,531,1730,0,0
-686,-706,0,0,0,0,0,0,0,0,0,-1,538,1730,0,0
-679,-706,0,0,0,0,0,0,0,0,0,-1,545,1730,0,0
-672,-706,0,0,0,0,0,0,0,0,0,-1,552,1730,0,0
-665,-706,0,0,0,0,0,0,0,0,0,-1,559,1730,0,0
-658,-706,0,0,0,0,0,0,0,0,0,-1,566,1730,0,0
-651,-706,0,0,0,0,0,0,0,0,0,-1,573,1730,0,0
-644,-706,0,0,0,0,0,0,0,0,0,-1,580,1730,0,0
-637,-706,0,0,0,0,0,0,0,0,0,-1,587,1730,0,0
-630,-706,0,0,0,0,0,0,0,0,0,-1,594,1730,0,0
-623,-706,0,0,0,0,0,0,0,0,0,-1,601,1730,0,0
-616,-706,0,0,0,0,0,0,0,0,0,-1,608,1730,0,0
-609,-706,0,0,0,0,0,0,0,0,0,-1,615,1730,0,0
-602,-706,0,0,0,0,0,0,0,0,0,-1,622,1730,0,0
-595,-706,0,0,0,0,0,0,0,0,0,-1,629,1730,0,0
-588,-706,0,0,0,0,0,0,0,0,0,-1,636,1730,0,0
-581,-706,0,0,0,0,0,0,0,0,0,-1,643,1730,0,0
-574,-706,0,0,0,0,0,0,0,0,0,-1,650,1730,0,0
-567,-706,0,0,0,0,0,0,0,0,0,-1,657,1730,0,0
-560,-706,0,0,0,0,0,0,0,0,0,-1,664,1730,0,0
-553,-706,0,0,0,0,0,0,0,0,0,-1,671,1730,0,0
-546,-706,0,0,0,0,0,0,0,0,0,-1,678,1730,0,0
-539,-706,0,0,0,0,0,0,0,0,0,-1,685,1730,0,0
-532,-706,0,0,0,0,0,0,0,0,0,-1,692,1730,0,0
-525,-706,0,0,0,0,0,0,0,0,0,-1,699,1730,0,0
-518,-706,0,0,0,0,0,0,0,0,0,-1,706,1730,0,0
-511,-706,0,0,0,0,0,0,0,0,0,-1,713,1730,0,0
-504,-706,0,0,0,0,0,0,0,0,0,-1,720,1730,0,0
-497,-706,0,0,0,0,0,0,0,0,0,-1,727,1730,0,0
-490,-706,0,0,0,0,0,0,0,0,0,-1,734,1730,0,0
-483,-706,0,0,0,0,0,0,0,0,0,-1,741,1730,0,0
-476,-706,0,0,0,0,0,0,0,0,0,-1,748,1730,0,0
-469,-706,0,0,0,0,0,0,0,0,0,-1,755,1730,0,0
-462,-706,0,0,0,0,0,0,0,0,0,-1,762,1730,0,0
-455,-706,0,0,0,0,0,0,0,0,0,-1,769,1730,0,0
-448,-706,0,0,0,0,0,0,0,0,0,-1,776,1730,0,0
-441,-706,0,0,0,0,0,0,0,0,0,-1,783,1730,0,0
-434,-706,0,0,0,0,0,0,0,0,0,-1,790,1730,0,0
-427,-706,0,0,0,0,0,0,0,0,0,-1,797,1730,0,0
-420,-706,0,0,0,0,0,0,0,0,0,-1,804,1730,0,0
-413,-706,0,0,0,0,0,0,0,0,0,-1,811,1730,0,0
-406,-706,0,0,0,0,0,0,0,0,0,-1,818,1730,0,0
-399,-706,0,0,0,0,0,0,0,0,0,-1,825,1730,0,0
-392,-706,0,0,0,0,0,0,0,0,0,-1,832,1730,0,0
-385,-706,0,0,0,0,0,0,0,0,0,-1,839,1730,0,0
-378,-706,0,0,0,0,0,0,0,0,0,-1,846,1730,0,0
-371,-706,0,0,0,0,0,0,0,0,0,-1,853,1730,0,0
-364,-706,0,0,0,0,0,0,0,0,0,-1,860,1730,0,0
-357,-706,0,0,0,0,0,0,0,0,0,-1,867,1730,0,0
-350,-706,0,0,0,0,0,0,0,0,0,-1,874,1730,0,0
-343,-706,0,0,0,0,0,0,0,0,0,-1,881,1730,0,0
-336,-706,0,0,0,0,0,0,0,0,0,-1,888,1730,0,0
-329,-706,0,0,0,0,0,0,0,0,0,-1,895,1730,0,0
-322,-706,0,0,0,0,0,0,0,0,0,-1,902,1730,0,0
-315,-706,0,0,0,0,0,0,0,0,0,-1,909,1730,0,0
-308,-706,5.08191,14.6245,0,0,0,0,0,0,0,-1,916,1730,5.08188,-14.6245
-301,-706,7.45007,21.1975,0,0,0,0,0,0,0,-1,923,1730,7.45005,-21.1976
-294,-706,11.8603,21.026,0,0,0,0,0,0,0,-1,930,1730,11.8603,-21.026
-287,-706,10.3292,20.8425,0,0,0,0,0,0,0,-1,937,1730,10.3292,-20.8425
-280,-706,7.9162,21.8951,0,0,0,0,0,0,0,-1,944,1730,7.9162,-21.8952
-273,-706,7.38953,20.6355,0,0,0,0,0,0,0,-1,951,1730,7.38955,-20.6355
-266,-706,9.66724,22.8231,0,0,0,0,0,0,0,-1,958,1730,9.66722,-22.8231
-259,-706,3.47852,20.7363,0,0,0,0,0,0,0,-1,965,1730,3.47851,-20.7364
-252,-706,3.84259,20.1979,0,0,0,0,0,0,0,-1,972,1730,3.84256,-20.1979
-245,-706,4.698,19.2992,0,0,0,0,0,0,0,-1,979,1730,4.69799,-19.2991
-238,-706,7.87585,53.6793,0,0,0,0,0,0,0,-1,986,1730,7.87588,-53.6793
-231,-706,8.79095,57.9324,0,0,0,0,0,0,0,-1,993,1730,8.79098,-57.9324
-224,-706,8.86359,59.2196,0,0,0,0,0,0,0,-1,1000,1730,8.86362,-59.2195
-217,-706,8.73792,59.6943,-0.00573694,0.00536801,0.00656089,0.0084106,-0.00877954,1.13657,0.0099255,0.0423451,1007,1730,8.73789,-59.6944
-210,-706,8.61536,60.2263,-0.00482328,0.00384115,0.0075689,0.00822996,-0.00921209,1.04533,0.0100755,0.0429126,1014,1730,8.61535,-60.2264
-203,-706,8.53076,60.9607,-0.00405604,0.00250297,0.00826763,0.00811778,-0.00967085,0.974214,0.0102833,0.0347685,1021,1730,8.53079,-60.9607
-196,-706,8.47388,61.6213,-0.00336755,0.00126928,0.00855421,0.00781368,-0.00991196,0.917732,0.0102578,0.0249353,1028,1730,8.47392,-61.6213
-189,-706,8.35168,62.3057,-0.00254149,0.000742249,0.00859312,0.00784895,-0.00964819,0.879794,0.0101198,0.0198098,1035,1730,8.35163,-62.3057
-182,-706,8.26318,62.9697,-0.00181905,0.00024212,0.00827916,0.00755459,-0.00913152,0.847319,0.00964806,0.0162337,1042,1730,8.26324,-62.9697
-175,-706,8.24878,63.5897,-0.00127458,0.000114669,0.00779279,0.00724373,-0.00840364,0.829849,0.00904228,0.0171124,1049,1730,8.24872,-63.5897
-168,-706,8.22559,64.1516,-0.000963738,0.00010802,0.00705205,0.00664452,-0.00750024,0.82332,0.00817146,0.0183224,1056,1730,8.22565,-64.1516
-161,-706,8.19348,64.7234,-0.000666483,0.000253365,0.00644423,0.00625406,-0.00666718,0.821023,0.00746135,0.0144302,1063,1730,8.19354,-64.7234
-154,-706,8.13098,65.308,-0.000359603,0.000415842,0.00559972,0.00564125,-0.00558501,0.819963,0.00648151,0.0127659,1070,1730,8.13093,-65.308
-147,-706,8.07275,65.8268,-7.6593e-05,0.000808377,0.00468286,0.00506961,-0.00433782,0.832503,0.00543686,0.0128058,1077,1730,8.07275,-65.8268
-140,-706,8.04919,66.3573,0.00014742,0.00102859,0.0038683,0.00448132,-0.0033053,0.842102,0.00451266,0.012554,1084,1730,8.04921,-66.3573
-133,-706,8.01758,66.8639,0.000326188,0.00105592,0.00317279,0.00388475,-0.00250265,0.842646,0.00371643,0.00999587,1091,1730,8.01763,-66.8638
-126,-706,8.00195,67.3687,0.000427035,0.00132961,0.00237401,0.00329485,-0.0015382,0.879325,0.00285114,0.0154901,1098,1730,8.00199,-67.3687
-119,-706,7.97424,67.8583,0.000564795,0.00128969,0.00175332,0.00271763,-0.000863146,0.887323,0.0021578,0.0207935,1105,1730,7.97422,-67.8583
-112,-706,7.96008,68.3751,0.000852761,0.00118527,0.00150468,0.00253285,-0.00049482,0.840421,0.0018754,0.0144842,1112,1730,7.96012,-68.3751
-105,-706,7.92505,68.8215,0.00108583,0.00103141,0.00112566,0.00218461,-6.73701e-05,0.773315,0.00147938,0.0107036,1119,1730,7.92507,-68.8215
-98,-706,7.94849,69.2139,0.0013807,0.000887399,0.00082639,0.00199647,0.000271638,0.640372,0.00125031,0.0127404,1126,1730,7.9485,-69.2139
-91,-706,7.974,69.6544,0.00174828,0.000753908,0.000525689,0.00197466,0.000527531,0.406629,0.00118056,0.0170293,1133,1730,7.97397,-69.6544
-84,-706,7.97205,70.1022,0.00217542,0.000527228,0.000163276,0.00219144,0.000511208,0.0977975,0.00132387,0.0200745,1140,1730,7.97206,-70.1022
-77,-706,7.96582,70.4559,0.00270889,0.00022986,-0.000177362,0.00272152,0.000217235,-0.0710623,0.00174644,0.0172742,1147,1730,7.96586,-70.456
-70,-706,7.96826,70.8474,0.00316262,2.00005e-05,-0.000518176,0.00324586,-6.32354e-05,-0.159271,0.00218529,0.0181193,1154,1730,7.96829,-70.8475
-63,-706,7.974,71.2026,0.00394279,-0.000305795,-0.000705305,0.00405682,-0.000419821,-0.160283,0.0028548,0.0141004,1161,1730,7.97395,-71.2026
-56,-706,7.98987,71.5206,0.00489115,-0.000532023,-0.000833578,0.00501638,-0.000657258,-0.149122,0.00358349,0.0146281,1168,1730,7.98993,-71.5207
-49,-706,7.99939,71.8257,0.00564258,-0.00135428,-0.00115823,0.00582932,-0.00154102,-0.159857,0.00448894,0.0167553,1175,1730,7.99945,-71.8257
-42,-706,8.03979,72.1423,0.00617313,-0.00245609,-0.00128434,0.00636023,-0.00264318,-0.14466,0.00534375,0.0224353,1182,1730,8.03982,-72.1423
-35,-706,8.06982,72.4281,0.00691197,-0.00316609,-0.0014602,0.00711927,-0.00337339,-0.141026,0.00618528,0.0202846,1189,1730,8.06982,-72.4281
-28,-706,8.12085,72.6549,0.00804659,-0.00380455,-0.00179098,0.00831133,-0.00406929,-0.146758,0.00728648,0.0135867,1196,1730,8.12082,-72.6549
-21,-706,8.15759,72.8662,0.00924159,-0.00503053,-0.00199972,0.00951648,-0.00530542,-0.13661,0.00867179,0.0147105,1203,1730,8.15758,-72.8662
-14,-706,8.20764,73.0985,0.00996256,-0.00593076,-0.002238,0.0102717,-0.00623989,-0.137259,0.00962723,0.0132701,1210,1730,8.20758,-73.0985
-7,-706,8.2677,73.322,0.0106502,-0.00633527,-0.00281632,0.0111049,-0.00679006,-0.160102,0.0104313,0.00994828,1217,1730,8.26774,-73.322
0,-706,8.34363,73.5173,0.0113977,-0.00629779,-0.00350451,0.0120665,-0.00696656,-0.188566,0.0111195,0.0142293,1224,1730,8.34368,-73.5174
7,-706,8.38806,73.6716,0.0121548,-0.00593989,-0.00435879,0.0131501,-0.00693513,-0.224481,0.0117798,0.0167897,1231,1730,8.38801,-73.6716
14,-706,8.4613,73.7875,0.0128233,-0.0051869,-0.00545489,0.0143467,-0.00671022,-0.27232,0.0124208,0.0169164,1238,1730,8.46129,-73.7874
21,-706,8.5293,73.8969,0.0133749,-0.00401214,-0.00685111,0.01575,-0.00638727,-0.333713,0.0131565,0.0132278,1245,1730,8.52924,-73.8969
28,-706,8.59766,73.9824,0.0138503,-0.00248225,-0.00856659,0.0175194,-0.00615127,-0.404658,0.0141819,0.0131375,1252,1730,8.59767,-73.9824
35,-706,8.63086,74.0819,0.0142629,-0.000686321,-0.0105726,0.0197363,-0.00615968,-0.477701,0.015621,0.0152009,1259,1730,8.63088,-74.0819
42,-706,8.69824,74.1382,0.0145097,0.00100777,-0.0124298,0.0219036,-0.00638609,-0.536623,0.0171325,0.0126019,1266,1730,8.69821,-74.1382
49,-706,8.77661,74.1775,0.0144493,0.00209088,-0.0137224,0.0233196,-0.00677943,-0.573846,0.0182313,0.0152923,1273,1730,8.77661,-74.1775
56,-706,8.85657,74.1874,0.0142843,0.00301129,-0.0144844,0.0241903,-0.00689469,-0.599842,0.0188502,0.016104,1280,1730,8.85656,-74.1874
63,-706,8.94043,74.1757,0.0136546,0.0033606,-0.0148458,0.0242204,-0.00720512,-0.618533,0.0190094,0.0136495,1287,1730,8.94042,-74.1757
70,-706,8.98657,74.182,0.0126796,0.00328392,-0.0148034,0.0235127,-0.00754917,-0.63175,0.0187064,0.0134327,1294,1730,8.98654,-74.182
77,-706,9.04272,74.1357,0.0114442,0.00219494,-0.013902,0.0214705,-0.00783145,-0.624827,0.0175177,0.0121623,1301,1730,9.04276,-74.1358
84,-706,9.12488,74.0757,0.00972182,0.00142594,-0.0124528,0.0186993,-0.00755156,-0.624631,0.0156048,0.010526,1308,1730,9.12483,-74.0757
91,-706,9.20435,74.0043,0.0083319,0.000102817,-0.010501,0.0154956,-0.00706091,-0.598678,0.0133231,0.0115902,1315,1730,9.20433,-74.0042
98,-706,9.25793,73.9182,0.00694545,-0.0016751,-0.00816451,0.0118676,-0.00659725,-0.542529,0.0108045,0.015131,1322,1730,9.25793,-73.9182
105,-706,9.29675,73.8538,0.00537971,-0.00309871,-0.00589927,0.00840496,-0.00612396,-0.473848,0.00842266,0.0176732,1329,1730,9.2967,-73.8538
112,-706,9.31921,73.7257,0.00389816,-0.00397226,-0.00403004,0.00559564,-0.00566973,-0.398652,0.00650411,0.0166487,1336,1730,9.31916,-73.7257
119,-706,9.34998,73.5682,0.00265538,-0.00435644,-0.00250917,0.00346077,-0.00516183,-0.310592,0.00501045,0.0134881,1343,1730,9.35002,-73.5683
126,-706,9.43713,73.3552,0.00168507,-0.00432099,-0.00124728,0.0019338,-0.00456971,-0.19683,0.00385623,0.0157853,1350,1730,9.4371,-73.3553
133,-706,9.54382,73.0801,0.000875026,-0.00385306,-0.000261786,0.000889477,-0.00386751,-0.0551436,0.00292034,0.0150959,1357,1730,9.54381,-73.08
140,-706,9.61462,72.8268,0.000296889,-0.00315519,0.000468757,0.000359409,-0.00321771,0.132592,0.00227443,0.0144505,1364,1730,9.61464,-72.8268
147,-706,9.68091,72.5911,0.000434683,-0.00211002,0.000260571,0.000461091,-0.00213642,0.101001,0.00160028,0.0254956,1371,1730,9.68088,-72.5911
154,-706,9.74292,72.3927,0.000772523,-0.000935282,-1.15862e-05,0.000772601,-0.00093536,-0.00678382,0.000987583,0.024668,1378,1730,9.74291,-72.3927
161,-706,9.71851,72.0677,0.00128012,1.46767e-05,-0.000158353,0.00129964,-4.8381e-06,-0.122618,0.000868042,0.0118016,1385,1730,9.71851,-72.0678
168,-706,9.7511,71.7627,0.00219964,0.000771165,-2.10877e-06,0.00219964,0.000771162,-0.00147624,0.00128872,0.0118626,1392,1730,9.75109,-71.7627
175,-706,9.82129,71.4733,0.00319127,0.00055336,0.000214355,0.00320857,0.000536055,0.080555,0.00198464,0.0130618,1399,1730,9.82129,-71.4732
182,-706,9.82654,71.1284,0.00341939,0.000894443,-3.22816e-05,0.0034198,0.00089403,-0.0127823,0.00204797,0.013031,1406,1730,9.82655,-71.1285
189,-706,9.8241,70.7485,0.00407438,0.0007571,-0.000241927,0.00409193,0.000739549,-0.0724188,0.0025179,0.0146824,1413,1730,9.82414,-70.7486
196,-706,9.85205,70.382,0.00451626,0.00039089,-0.000239809,0.00453015,0.000376997,-0.0578705,0.00290261,0.0133327,1420,1730,9.85207,-70.382
203,-706,9.86316,70.0061,0.00402887,0.000553128,-0.000472844,0.00409205,0.00048995,-0.132826,0.00258027,0.0144487,1427,1730,9.86322,-70.0061
210,-706,9.87585,69.5952,0.00354373,0.000764261,-0.000734991,0.00372612,0.000581872,-0.243238,0.00231463,0.0134848,1434,1730,9.87587,-69.5952
217,-706,9.87842,69.1737,0.00296273,0.0010478,-0.000933078,0.00334219,0.00066834,-0.38625,0.00204213,0.0146292,1441,1730,9.87846,-69.1737
224,-706,9.87317,68.7428,0.00234986,0.00130412,-0.0011717,0.00311006,0.000543914,-0.575533,0.00191795,0.0191198,1448,1730,9.87323,-68.7429
231,-706,9.89526,68.2806,0.0017226,0.00149388,-0.00143059,0.00304339,0.00017308,-0.745513,0.00197377,0.0144349,1455,1730,9.89532,-68.2806
238,-706,9.87964,67.791,0.0011772,0.00167468,-0.00160511,0.00305021,-0.000198334,-0.862271,0.00210271,0.00940809,1462,1730,9.87964,-67.7911
245,-706,9.86255,67.2804,0.000615324,0.0017525,-0.00170154,0.00297794,-0.000610118,-0.946646,0.00221683,0.0121538,1469,1730,9.86255,-67.2804
252,-706,9.84448,66.7772,-6.12437e-05,0.00191387,-0.00175182,0.00293733,-0.00108469,-1.04206,0.00240283,0.0128408,1476,1730,9.84446,-66.7772
259,-706,9.84436,66.2834,-0.000700865,0.00197065,-0.00183252,0.00290257,-0.00163279,-1.10033,0.00265248,0.014147,1483,1730,9.84441,-66.2834
266,-706,9.80969,65.7871,-0.00125725,0.00203145,-0.00196718,0.00295102,-0.00217682,-1.13352,0.00297179,0.0135342,1490,1730,9.80967,-65.7871
273,-706,9.75415,65.239,-0.00180185,0.00218095,-0.00207823,0.00306787,-0.00268877,-1.16743,0.003326,0.01333,1497,1730,9.75421,-65.239
280,-706,9.71118,64.6522,-0.00237121,0.00234512,-0.00214751,0.00317643,-0.00320252,-1.20146,0.0036829,0.0112546,1504,1730,9.71115,-64.6522
287,-706,9.66992,64.0854,-0.00300705,0.00231183,-0.00219193,0.00309872,-0.00379394,-1.22613,0.00398622,0.0115762,1511,1730,9.66992,-64.0854
294,-706,9.65625,63.5253,-0.00377202,0.00220057,-0.00201179,0.002815,-0.00438645,-1.27438,0.00419063,0.0111293,1518,1730,9.65623,-63.5252
301,-706,9.62817,62.9354,-0.00432988,0.00242146,-0.0021875,0.00306827,-0.00497669,-1.28331,0.00468812,0.0103246,1525,1730,9.62822,-62.9355
308,-706,9.57422,62.3364,-0.00490953,0.00308828,-0.00246454,0.00378673,-0.00560798,-1.29464,0.00545791,0.0166777,1532,1730,9.57426,-62.3364
315,-706,9.5675,61.671,-0.00543893,0.00391618,-0.00281514,0.00469798,-0.00622073,-1.29991,0.00632432,0.0407011,1539,1730,9.56748,-61.671
322,-706,9.60278,60.8885,0,0,0,0,0,0,0,-1,1546,1730,9.60278,-60.8886
329,-706,9.40369,60.4193,-0.00613799,0.00580507,-0.00334566,0.00667843,-0.00701136,-1.31545,0.00790459,0.0386835,1553,1730,9.40366,-60.4193
336,-706,9.323,59.9144,-0.00642994,0.00716506,-0.00375618,0.00813383,-0.00739871,-1.31838,0.00897106,0.0369051,1560,1730,9.323,-59.9144
343,-706,9.05981,59.21,-0.00651623,0.00883977,-0.00434686,0.00998486,-0.00766131,-1.31322,0.0102174,0.0430427,1567,1730,9.05976,-59.21
350,-706,8.96008,58.7219,0,0,0,0,0,0,0,-1,1574,1730,8.96007,-58.7219
357,-706,9.28857,57.3971,0,0,0,0,0,0,0,-1,1581,1730,9.28862,-57.3971
364,-706,9.11621,56.8212,0,0,0,0,0,0,0,-1,1588,1730,9.11621,-56.8211
371,-706,8.6084,48.7302,0,0,0,0,0,0,0,-1,1595,1730,8.60844,-48.7303
378,-706,7.63867,44.0519,0,0,0,0,0,0,0,-1,1602,1730,7.63863,-44.0519
385,-706,7.3186,43.2451,0,0,0,0,0,0,0,-1,1609,1730,7.31862,-43.2451
392,-706,7.33728,42.4652,0,0,0,0,0,0,0,-1,1616,1730,7.3373,-42.4651
399,-706,7.51855,41.7692,0,0,0,0,0,0,0,-1,1623,1730,7.51855,-41.7691
406,-706,7.46301,40.9797,0,0,0,0,0,0,0,-1,1630,1730,7.46301,-40.9797
413,-706,8.43433,40.3345,0,0,0,0,0,0,0,-1,1637,1730,8.43428,-40.3344
420,-706,8.0636,39.6101,0,0,0,0,0,0,0,-1,1644,1730,8.06362,-39.6101
427,-706,0,0,0,0,0,0,0,0,0,-1,1651,1730,0,0
434,-706,0,0,0,0,0,0,0,0,0,-1,1658,1730,0,0
441,-706,0,0,0,0,0,0,0,0,0,-1,1665,1730,0,0
448,-706,0,0,0,0,0,0,0,0,0,-1,1672,1730,0,0
455,-706,0,0,0,0,0,0,0,0,0,-1,1679,1730,0,0
462,-706,0,0,0,0,0,0,0,0,0,-1,1686,1730,0,0
469,-706,0,0,0,0,0,0,0,0,0,-1,1693,1730,0,0
476,-706,0,0,0,0,0,0,0,0,0,-1,1700,1730,0,0
483,-706,0,0,0,0,0,0,0,0,0,-1,1707,1730,0,0
490,-706,0,0,0,0,0,0,0,0,0,-1,1714,1730,0,0
497,-706,0,0,0,0,0,0,0,0,0,-1,1721,1730,0,0
504,-706,0,0,0,0,0,0,0,0,0,-1,1728,1730,0,0
511,-706,0,0,0,0,0,0,0,0,0,-1,1735,1730,0,0
518,-706,0,0,0,0,0,0,0,0,0,-1,1742,1730,0,0
525,-706,0,0,0,0,0,0,0,0,0,-1,1749,1730,0,0
532,-706,0,0,0,0,0,0,0,0,0,-1,1756,1730,0,0
539,-706,0,0,0,0,0,0,0,0,0,-1,1763,1730,0,0
546,-706,0,0,0,0,0,0,0,0,0,-1,1770,1730,0,0
553,-706,0,0,0,0,0,0,0,0,0,-1,1777,1730,0,0
560,-706,0,0,0,0,0,0,0,0,0,-1,1784,1730,0,0
567,-706,0,0,0,0,0,0,0,0,0,-1,1791,1730,0,0
574,-706,0,0,0,0,0,0,0,0,0,-1,1798,1730,0,0
581,-706,0,0,0,0,0,0,0,0,0,-1,1805,1730,0,0
588,-706,0,0,0,0,0,0,0,0,0,-1,1812,1730,0,0
595,-706,0,0,0,0,0,0,0,0,0,-1,1819,1730,0,0
602,-706,0,0,0,0,0,0,0,0,0,-1,1826,1730,0,0
609,-706,0,0,0,0,0,0,0,0,0,-1,1833,1730,0,0
616,-706,0,0,0,0,0,0,0,0,0,-1,1840,1730,0,0
623,-706,0,0,0,0,0,0,0,0,0,-1,1847,1730,0,0
630,-706,0,0,0,0,0,0,0,0,0,-1,1854,1730,0,0
637,-706,0,0,0,0,0,0,0,0,0,-1,1861,1730,0,0
644,-706,0,0,0,0,0,0,0,0,0,-1,1868,1730,0,0
651,-706,0,0,0,0,0,0,0,0,0,-1,1875,1730,0,0
658,-706,0,0,0,0,0,0,0,0,0,-1,1882,1730,0,0
665,-706,0,0,0,0,0,0,0,0,0,-1,1889,1730,0,0
672,-706,0,0,0,0,0,0,0,0,0,-1,1896,1730,0,0
679,-706,0,0,0,0,0,0,0,0,0,-1,1903,1730,0,0
686,-706,0,0,0,0,0,0,0,0,0,-1,1910,1730,0,0
693,-706,0,0,0,0,0,0,0,0,0,-1,1917,1730,0,0
700,-706,0,0,0,0,0,0,0,0,0,-1,1924,1730,0,0
707,-706,0,0,0,0,0,0,0,0,0,-1,1931,1730,0,0
714,-706,0,0,0,0,0,0,0,0,0,-1,1938,1730,0,0
721,-706,0,0,0,0,0,0,0,0,0,-1,1945,1730,0,0
728,-706,0,0,0,0,0,0,0,0,0,-1,1952,1730,0,0
735,-706,0,0,0,0,0,0,0,0,0,-1,1959,1730,0,0
742,-706,0,0,0,0,0,0,0,0,0,-1,1966,1730,0,0
749,-706,0,0,0,0,0,0,0,0,0,-1,1973,1730,0,0
756,-706,0,0,0,0,0,0,0,0,0,-1,1980,1730,0,0
763,-706,0,0,0,0,0,0,0,0,0,-1,1987,1730,0,0
770,-706,0,0,0,0,0,0,0,0,0,-1,1994,1730,0,0
777,-706,0,0,0,0,0,0,0,0,0,-1,2001,1730,0,0
784,-706,0,0,0,0,0,0,0,0,0,-1,2008,1730,0,0
791,-706,0,0,0,0,0,0,0,0,0,-1,2015,1730,0,0
798,-706,0,0,0,0,0,0,0,0,0,-1,2022,1730,0,0
805,-706,0,0,0,0,0,0,0,0,0,-1,2029,1730,0,0
812,-706,0,0,0,0,0,0,0,0,0,-1,2036,1730,0,0
-700,-713,0,0,0,0,0,0,0,0,0,-1,524,1737,0,0
-693,-713,0,0,0,0,0,0,0,0,0,-1,531,1737,0,0
-686,-713,0,0,0,0,0,0,0,0,0,-1,538,1737,0,0
-679,-713,0,0,0,0,0,0,0,0,0,-1,545,1737,0,0
-672,-713,0,0,0,0,0,0,0,0,0,-1,552,1737,0,0
-665,-713,0,0,0,0,0,0,0,0,0,-1,559,1737,0,0
-658,-713,0,0,0,0,0,0,0,0,0,-1,566,1737,0,0
-651,-713,0,0,0,0,0,0,0,0,0,-1,573,1737,0,0
-644,-713,0,0,0,0,0,0,0,0,0,-1,580,1737,0,0
-637,-713,0,0,0,0,0,0,0,0,0,-1,587,1737,0,0
-630,-713,0,0,0,0,0,0,0,0,0,-1,594,1737,0,0
-623,-713,0,0,0,0,0,0,0,0,0,-1,601,1737,0,0
-616,-713,0,0,0,0,0,0,0,0,0,-1,608,1737,0,0
-609,-713,0,0,0,0,0,0,0,0,0,-1,615,1737,0,0
-602,-713,0,0,0,0,0,0,0,0,0,-1,622,1737,0,0
-595,-713,0,0,0,0,0,0,0,0,0,-1,629,1737,0,0
-588,-713,0,0,0,0,0,0,0,0,0,-1,636,1737,0,0
-581,-713,0,0,0,0,0,0,0,0,0,-1,643,1737,0,0
-574,-713,0,0,0,0,0,0,0,0,0,-1,650,1737,0,0
-567,-713,0,0,0,0,0,0,0,0,0,-1,657,1737,0,0
-560,-713,0,0,0,0,0,0,0,0,0,-1,664,1737,0,0
-553,-713,0,0,0,0,0,0,0,0,0,-1,671,1737,0,0
-546,-713,0,0,0,0,0,0,0,0,0,-1,678,1737,0,0
-539,-713,0,0,0,0,0,0,0,0,0,-1,685,1737,0,0
-532,-713,0,0,0,0,0,0,0,0,0,-1,692,1737,0,0
-525,-713,0,0,0,0,0,0,0,0,0,-1,699,1737,0,0
-518,-713,0,0,0,0,0,0,0,0,0,-1,706,1737,0,0
-511,-713,0,0,0,0,0,0,0,0,0,-1,713,1737,0,0
-504,-713,0,0,0,0,0,0,0,0,0,-1,720,1737,0,0
-497,-713,0,0,0,0,0,0,0,0,0,-1,727,1737,0,0
-490,-713,0,0,0,0,0,0,0,0,0,-1,734,1737,0,0
-483,-713,0,0,0,0,0,0,0,0,0,-1,741,1737,0,0
-476,-713,0,0,0,0,0,0,0,0,0,-1,748,1737,0,0
-469,-713,0,0,0,0,0,0,0,0,0,-1,755,1737,0,0
-462,-713,0,0,0,0,0,0,0,0,0,-1,762,1737,0,0
-455,-713,0,0,0,0,0,0,0,0,0,-1,769,1737,0,0
-448,-713,0,0,0,0,0,0,0,0,0,-1,776,1737,0,0
-441,-713,0,0,0,0,0,0,0,0,0,-1,783,1737,0,0
-434,-713,0,0,0,0,0,0,0,0,0,-1,790,1737,0,0
-427,-713,0,0,0,0,0,0,0,0,0,-1,797,1737,0,0
-420,-713,0,0,0,0,0,0,0,0,0,-1,804,1737,0,0
-413,-713,0,0,0,0,0,0,0,0,0,-1,811,1737,0,0
-406,-713,0,0,0,0,0,0,0,0,0,-1,818,1737,0,0
-399,-713,0,0,0,0,0,0,0,0,0,-1,825,1737,0,0
-392,-713,0,0,0,0,0,0,0,0,0,-1,832,1737,0,0
-385,-713,0,0,0,0,0,0,0,0,0,-1,839,1737,0,0
-378,-713,0,0,0,0,0,0,0,0,0,-1,846,1737,0,0
-371,-713,0,0,0,0,0,0,0,0,0,-1,853,1737,0,0
-364,-713,0,0,0,0,0,0,0,0,0,-1,860,1737,0,0
-357,-713,0,0,0,0,0,0,0,0,0,-1,867,1737,0,0
-350,-713,0,0,0,0,0,0,0,0,0,-1,874,1737,0,0
-343,-713,0,0,0,0,0,0,0,0,0,-1,881,1737,0,0
-336,-713,0,0,0,0,0,0,0,0,0,-1,888,1737,0,0
-329,-713,0,0,0,0,0,0,0,0,0,-1,895,1737,0,0
-322,-713,0,0,0,0,0,0,0,0,0,-1,902,1737,0,0
-315,-713,0,0,0,0,0,0,0,0,0,-1,909,1737,0,0
-308,-713,0,0,0,0,0,0,0,0,0,-1,916,1737,0,0
-301,-713,0,0,0,0,0,0,0,0,0,-1,923,1737,0,0
-294,-713,7.17883,22.0453,0,0,0,0,0,0,0,-1,930,1737,7.17881,-22.0453
-287,-713,11.8916,21.5834,0,0,0,0,0,0,0,-1,937,1737,11.8916,-21.5833
-280,-713,10.2786,21.3551,0,0,0,0,0,0,0,-1,944,1737,10.2787,-21.3551
-273,-713,11.1981,23.8683,0,0,0,0,0,0,0,-1,951,1737,11.198,-23.8683
-266,-713,3.17981,19.8851,0,0,0,0,0,0,0,-1,958,1737,3.17983,-19.8851
-259,-713,3.5921,19.6868,0,0,0,0,0,0,0,-1,965,1737,3.59207,-19.6868
-252,-713,4.55469,20.5758,0,0,0,0,0,0,0,-1,972,1737,4.55466,-20.5758
-245,-713,3.89014,25.9825,0,0,0,0,0,0,0,-1,979,1737,3.89013,-25.9826
-238,-713,6.62506,30.5463,0,0,0,0,0,0,0,-1,986,1737,6.62509,-30.5462
-231,-713,8.52356,54.5547,0,0,0,0,0,0,0,-1,993,1737,8.52359,-54.5547
-224,-713,9.55579,59.0845,0,0,0,0,0,0,0,-1,1000,1737,9.55576,-59.0845
-217,-713,9.4776,59.7297,0,0,0,0,0,0,0,-1,1007,1737,9.4776,-59.7298
-210,-713,9.32092,60.2036,0,0,0,0,0,0,0,-1,1014,1737,9.32094,-60.2036
-203,-713,8.93372,61.1001,-0.0044623,0.00176835,0.0113156,0.0103897,-0.0130836,0.919726,0.013582,0.0492633,1021,1737,8.93377,-61.1001
-196,-713,8.83374,61.7142,-0.0037256,0.00033765,0.0117673,0.0102474,-0.0136353,0.870881,0.0138349,0.0449186,1028,1737,8.83379,-61.7142
-189,-713,8.82983,62.1984,-0.00281961,-1.90702e-06,0.0118749,0.0105474,-0.0133689,0.844443,0.0138401,0.0407231,1035,1737,8.82979,-62.1983
-182,-713,8.72266,62.8462,-0.00209228,-0.000263987,0.0114659,0.0103242,-0.0126804,0.825178,0.0133049,0.0271571,1042,1737,8.72262,-62.8462
-175,-713,8.81848,63.5044,-0.00161066,-0.000258182,0.0107863,0.00987308,-0.0117419,0.816704,0.012495,0.0229147,1049,1737,8.81851,-63.5043
-168,-713,8.84888,64.087,-0.00136207,-9.8937e-05,0.00984146,0.0091312,-0.0105922,0.817441,0.0113977,0.0284947,1056,1737,8.84887,-64.0871
-161,-713,8.73901,64.7325,-0.00110753,0.000232855,0.00904519,0.00863264,-0.00950732,0.822378,0.0104772,0.0152159,1063,1737,8.73896,-64.7326
-154,-713,8.64673,65.3138,-0.000880271,0.000543349,0.00796503,0.00782831,-0.00816524,0.829963,0.00923456,0.0126449,1070,1737,8.64677,-65.3138
-147,-713,8.56982,65.8639,-0.000708384,0.00111792,0.00680226,0.00706804,-0.00665851,0.85212,0.00792621,0.0202591,1077,1737,8.56986,-65.8639
-140,-713,8.56091,66.4218,-0.000616296,0.00148731,0.00576821,0.00629883,-0.00542782,0.87558,0.0067766,0.020721,1084,1737,8.56089,-66.4217
-133,-713,8.48962,66.9125,-0.000570698,0.00157195,0.00487702,0.00549393,-0.00449267,0.893515,0.00577542,0.0136298,1091,1737,8.48962,-66.9124
-126,-713,8.47705,67.3547,-0.000626312,0.00204162,0.00384262,0.00477523,-0.00335993,0.952465,0.00472047,0.020324,1098,1737,8.47705,-67.3548
-119,-713,8.46655,67.8092,-0.000668804,0.00208168,0.00302535,0.00402969,-0.00261682,0.998723,0.00386616,0.0294442,1105,1737,8.46656,-67.8092
-112,-713,8.39795,68.3541,-0.000476828,0.00205554,0.00277148,0.00383637,-0.00225766,0.999671,0.00355753,0.0152021,1112,1737,8.39798,-68.3541
-105,-713,8.3988,68.8069,-0.000360136,0.00200367,0.00233511,0.00343895,-0.00179541,1.01967,0.00307132,0.0120399,1119,1737,8.39876,-68.8069
-98,-713,8.38086,69.2301,-0.000147674,0.00198197,0.00204744,0.00322493,-0.00139064,1.02519,0.00273405,0.0116318,1126,1737,8.38086,-69.2301
-91,-713,8.34399,69.6641,0.000138872,0.00198283,0.00177192,0.00305829,-0.000936587,1.02529,0.00241244,0.0113975,1133,1737,8.34397,-69.6641
-84,-713,8.32654,70.101,0.000372408,0.00166294,0.0013758,0.00253728,-0.000501928,1.00467,0.00188128,0.0108948,1140,1737,8.32653,-70.1009
-77,-713,8.32788,70.4767,0.00073605,0.00146863,0.0010509,0.00221525,-1.0568e-05,0.953088,0.00148037,0.0140113,1147,1737,8.3279,-70.4767
-70,-713,8.33838,70.8383,0.00111924,0.0013141,0.000697567,0.00192101,0.000512332,0.854784,0.00114863,0.0155444,1154,1737,8.33837,-70.8383
-63,-713,8.33337,71.217,0.00156984,0.00108987,0.000434106,0.00182588,0.000833827,0.532891,0.00105549,0.01387,1161,1737,8.33334,-71.217
-56,-713,8.34558,71.5541,0.00215883,0.00084745,0.000219102,0.00219447,0.000811811,0.161245,0.00128119,0.0141828,1168,1737,8.34564,-71.5541
-49,-713,8.31506,71.8595,0.00271634,0.000328231,-1.45365e-05,0.00271643,0.000328143,-0.00608671,0.00171209,0.0173685,1175,1737,8.31508,-71.8595
-42,-713,8.3158,72.1324,0.00323594,-0.000360981,-0.000198892,0.0032469,-0.000371945,-0.0550714,0.00229863,0.020507,1182,1737,8.31576,-72.1325
-35,-713,8.3645,72.4106,0.00382757,-0.000865963,-0.00043287,0.00386716,-0.000905552,-0.0912017,0.00292703,0.0169274,1189,1737,8.36446,-72.4106
-28,-713,8.39221,72.6825,0.00442709,-0.0013537,-0.000656703,0.00450075,-0.00142736,-0.111705,0.00357263,0.0156141,1196,1737,8.39217,-72.6825
-21,-713,8.39197,72.9038,0.00509817,-0.0021379,-0.000735993,0.00517227,-0.002212,-0.100342,0.00437602,0.0117901,1203,1737,8.39202,-72.9038
-14,-713,8.42041,73.1237,0.00561467,-0.00281779,-0.000782167,0.00568661,-0.00288973,-0.091714,0.00503856,0.012498,1210,1737,8.42037,-73.1237
-7,-713,8.4635,73.3379,0.00607305,-0.00325937,-0.000975979,0.00617403,-0.00336035,-0.103093,0.005584,0.0103576,1217,1737,8.46347,-73.3379
0,-713,8.50635,73.5208,0.00652392,-0.00337871,-0.00113961,0.00665337,-0.00350817,-0.113111,0.00595971,0.0152454,1224,1737,8.50641,-73.5208
7,-713,8.54126,73.6812,0.00694479,-0.0033071,-0.00135144,0.00711995,-0.00348225,-0.12889,0.00624013,0.0184946,1231,1737,8.54131,-73.6812
14,-713,8.57849,73.8375,0.00731444,-0.00305952,-0.00165685,0.00757264,-0.00331772,-0.154591,0.00644553,0.0140706,1238,1737,8.57848,-73.8376
21,-713,8.63843,73.9401,0.00761937,-0.00260509,-0.00209524,0.00803207,-0.0030178,-0.194484,0.00659496,0.011957,1245,1737,8.63846,-73.9401
28,-713,8.66199,74.0308,0.00789488,-0.00195831,-0.00270167,0.00858704,-0.00265047,-0.250801,0.00678305,0.0120119,1252,1737,8.66202,-74.0308
35,-713,8.69653,74.1121,0.00816221,-0.00118418,-0.00347667,0.00931362,-0.00233558,-0.319812,0.00711653,0.0120423,1259,1737,8.69652,-74.112
42,-713,8.76697,74.1641,0.00832504,-0.000486055,-0.00419142,0.0100004,-0.00216137,-0.380248,0.00749201,0.0113161,1266,1737,8.76694,-74.164
49,-713,8.81799,74.1554,0.00832878,-0.000183059,-0.00467152,0.0103924,-0.00224663,-0.415959,0.00778592,0.015076,1273,1737,8.81798,-74.1554
56,-713,8.85583,74.1567,0.00829314,7.33676e-05,-0.0048698,0.0105555,-0.00218904,-0.434911,0.00786887,0.0191269,1280,1737,8.85581,-74.1568
63,-713,8.901,74.2061,0.0081953,-9.05991e-06,-0.00489354,0.0104786,-0.00229238,-0.436571,0.00786207,0.0175865,1287,1737,8.90101,-74.206
70,-713,8.94104,74.2109,0.0080099,-0.000500552,-0.00474061,0.0101249,-0.00261559,-0.419651,0.00776999,0.0141656,1294,1737,8.94109,-74.2109
77,-713,9.00208,74.1769,0.007708,-0.00151743,-0.00425406,0.00937016,-0.0031796,-0.372485,0.00753372,0.0138519,1301,1737,9.00206,-74.1768
84,-713,9.03564,74.1392,0.00720925,-0.00231419,-0.00357133,0.0083997,-0.00350464,-0.321753,0.00706401,0.0140516,1308,1737,9.03566,-74.1392
91,-713,9.06543,74.0537,0.0068578,-0.00316267,-0.00269592,0.00753707,-0.00384193,-0.246824,0.00668414,0.0140792,1315,1737,9.06542,-74.0537
98,-713,9.12695,73.9391,0.00652864,-0.00426102,-0.00159312,0.00675895,-0.00449133,-0.143572,0.00653919,0.0130046,1322,1737,9.12694,-73.9391
105,-713,9.15784,73.8448,0.00616933,-0.00515603,-0.000566437,0.00619759,-0.00518429,-0.0498491,0.00658,0.0148348,1329,1737,9.15788,-73.8449
112,-713,9.18542,73.7386,0.00581536,-0.00569851,0.000211408,0.00581924,-0.00570239,0.0183529,0.00665213,0.0147748,1336,1737,9.18547,-73.7387
119,-713,9.19922,73.5886,0.00546422,-0.00592657,0.00082113,0.00552311,-0.00598546,0.0715939,0.00664626,0.0140695,1343,1737,9.19924,-73.5886
126,-713,9.24402,73.4039,0.00514189,-0.00588494,0.00129081,0.00529098,-0.00603403,0.11499,0.00654318,0.0139879,1350,1737,9.24406,-73.404
133,-713,9.30566,73.1379,0.004744,-0.00554148,0.0015735,0.00497933,-0.00577682,0.14846,0.00621575,0.0137008,1357,1737,9.30565,-73.1379
140,-713,9.37671,72.8728,0.00429846,-0.00494997,0.00166379,0.00458867,-0.00524018,0.172689,0.00567885,0.0145193,1364,1737,9.37668,-72.8727
147,-713,9.39246,72.5903,0.00400575,-0.00405294,0.0013117,0.00421388,-0.00426107,0.157359,0.00489304,0.0155884,1371,1737,9.39242,-72.5903
154,-713,9.38892,72.3918,0.00381693,-0.00301151,0.000910994,0.00393638,-0.00313096,0.130374,0.00408915,0.015365,1378,1737,9.3889,-72.3918
161,-713,9.41663,72.0734,0.00364286,-0.00196841,0.000575194,0.00370121,-0.00202676,0.101106,0.00335382,0.01093,1385,1737,9.41657,-72.0734
168,-713,9.42932,71.7395,0.00338937,-0.000977345,0.000228663,0.00340131,-0.000989286,0.0521747,0.00265936,0.0115902,1392,1737,9.4293,-71.7395
175,-713,9.44788,71.4437,0.00311661,-0.000236755,2.14788e-05,0.00311675,-0.000236892,0.0064048,0.00216113,0.0165603,1399,1737,9.44787,-71.4437
182,-713,9.45081,71.1338,0.0028162,0.000484544,-0.000303609,0.00285509,0.000445659,-0.127382,0.0017736,0.0144,1406,1737,9.45081,-71.1338
189,-713,9.45142,70.774,0.00253128,0.0011366,-0.000698312,0.00282081,0.000847067,-0.393048,0.00167134,0.0120863,1413,1737,9.45138,-70.774
196,-713,9.47974,70.4034,0.00219156,0.00123348,-0.000954212,0.00278023,0.000644817,-0.552764,0.00168031,0.0135182,1420,1737,9.47976,-70.4035
203,-713,9.48767,70.0317,0.00177451,0.00146401,-0.00121244,0.0028416,0.000396925,-0.721719,0.00177693,0.0185348,1427,1737,9.48764,-70.0317
210,-713,9.48486,69.5875,0.00141053,0.00180004,-0.00150189,0.00311975,9.08199e-05,-0.849874,0.00205023,0.0150448,1434,1737,9.48482,-69.5875
217,-713,9.4718,69.1556,0.000948132,0.0020995,-0.00170163,0.00332019,-0.000272557,-0.948511,0.00230968,0.0117555,1441,1737,9.47178,-69.1557
224,-713,9.44238,68.7451,0.000451674,0.00232966,-0.00191111,0.00352,-0.000738664,-1.01374,0.00262773,0.0120721,1448,1737,9.44236,-68.7451
231,-713,9.43799,68.2938,-9.88398e-05,0.0024455,-0.00211393,0.00364053,-0.00129388,-1.05627,0.00295432,0.0115304,1455,1737,9.43798,-68.2938
238,-713,9.41333,67.7999,-0.000607655,0.00258695,-0.00221426,0.00371991,-0.00174061,-1.09786,0.00322093,0.00926848,1462,1737,9.41328,-67.7999
245,-713,9.39343,67.3057,-0.00114658,0.00257251,-0.00228479,0.00365884,-0.00223291,-1.12697,0.00343465,0.0128695,1469,1737,9.39345,-67.3057
252,-713,9.3623,66.7941,-0.00181541,0.00267237,-0.00232162,0.00365726,-0.00280029,-1.16959,0.00373919,0.0139641,1476,1737,9.36227,-66.794
259,-713,9.34924,66.2695,-0.00242725,0.00266698,-0.00235597,0.0035895,-0.00334977,-1.19758,0.00400719,0.013634,1483,1737,9.34922,-66.2695
266,-713,9.29333,65.7896,-0.00298475,0.00272284,-0.0024341,0.00361991,-0.00388182,-1.2177,0.004332,0.0111166,1490,1737,9.29338,-65.7895
273,-713,9.22607,65.2653,-0.00356208,0.00291678,-0.00253048,0.00378797,-0.00443327,-1.23923,0.00475141,0.00952056,1497,1737,9.22608,-65.2652
280,-713,9.16833,64.6914,-0.00415265,0.00314387,-0.00257815,0.0039629,-0.00497167,-1.2632,0.00516932,0.0110999,1504,1737,9.16829,-64.6915
287,-713,9.12646,64.1204,-0.00485708,0.00311386,-0.00261573,0.00389557,-0.00563879,-1.2804,0.00553525,0.0123782,1511,1737,9.1265,-64.1204
294,-713,9.11487,63.5541,-0.00575525,0.00294704,-0.00235165,0.00354187,-0.00635009,-1.32305,0.00578733,0.0187942,1518,1737,9.11485,-63.554
301,-713,8.98767,62.8732,-0.00635639,0.00324621,-0.0025445,0.00387878,-0.00698896,-1.32713,0.00635956,0.0301999,1525,1737,8.98765,-62.8732
308,-713,9.00305,62.2906,0,0,0,0,0,0,0,-1,1532,1737,9.00299,-62.2906
315,-713,8.94324,61.4258,0,0,0,0,0,0,0,-1,1539,1737,8.94325,-61.4258
322,-713,8.85962,57.7839,0,0,0,0,0,0,0,-1,1546,1737,8.85964,-57.784
329,-713,8.82849,60.49,0,0,0,0,0,0,0,-1,1553,1737,8.82845,-60.4899
336,-713,8.8219,60.1086,0,0,0,0,0,0,0,-1,1560,1737,8.82185,-60.1086
343,-713,8.0188,59.4191,0,0,0,0,0,0,0,-1,1567,1737,8.01886,-59.419
350,-713,8.63867,47.4143,0,0,0,0,0,0,0,-1,1574,1737,8.6387,-47.4143
357,-713,8.53796,49.5679,0,0,0,0,0,0,0,-1,1581,1737,8.53795,-49.5679
364,-713,7.52661,46.5348,0,0,0,0,0,0,0,-1,1588,1737,7.52664,-46.5347
371,-713,7.3302,45.0861,0,0,0,0,0,0,0,-1,1595,1737,7.33021,-45.0861
378,-713,6.73975,44.3853,0,0,0,0,0,0,0,-1,1602,1737,6.7397,-44.3853
385,-713,6.58777,43.6438,0,0,0,0,0,0,0,-1,1609,1737,6.58781,-43.6438
392,-713,6.62964,42.8679,0,0,0,0,0,0,0,-1,1616,1737,6.62968,-42.868
399,-713,6.53748,42.0555,0,0,0,0,0,0,0,-1,1623,1737,6.53749,-42.0555
406,-713,2.49878,27.8931,0,0,0,0,0,0,0,-1,1630,1737,2.49884,-27.893
413,-713,1.36597,29.459,0,0,0,0,0,0,0,-1,1637,1737,1.36593,-29.459
420,-713,0,0,0,0,0,0,0,0,0,-1,1644,1737,0,0
427,-713,0,0,0,0,0,0,0,0,0,-1,1651,1737,0,0
434,-713,0,0,0,0,0,0,0,0,0,-1,1658,1737,0,0
441,-713,0,0,0,0,0,0,0,0,0,-1,1665,1737,0,0
448,-713,0,0,0,0,0,0,0,0,0,-1,1672,1737,0,0
455,-713,0,0,0,0,0,0,0,0,0,-1,1679,1737,0,0
462,-713,0,0,0,0,0,0,0,0,0,-1,1686,1737,0,0
469,-713,0,0,0,0,0,0,0,0,0,-1,1693,1737,0,0
476,-713,0,0,0,0,0,0,0,0,0,-1,1700,1737,0,0
483,-713,0,0,0,0,0,0,0,0,0,-1,1707,1737,0,0
490,-713,0,0,0,0,0,0,0,0,0,-1,1714,1737,0,0
497,-713,0,0,0,0,0,0,0,0,0,-1,1721,1737,0,0
504,-713,0,0,0,0,0,0,0,0,0,-1,1728,1737,0,0
511,-713,0,0,0,0,0,0,0,0,0,-1,1735,1737,0,0
518,-713,0,0,0,0,0,0,0,0,0,-1,1742,1737,0,0
525,-713,0,0,0,0,0,0,0,0,0,-1,1749,1737,0,0
532,-713,0,0,0,0,0,0,0,0,0,-1,1756,1737,0,0
539,-713,0,0,0,0,0,0,0,0,0,-1,1763,1737,0,0
546,-713,0,0,0,0,0,0,0,0,0,-1,1770,1737,0,0
553,-713,0,0,0,0,0,0,0,0,0,-1,1777,1737,0,0
560,-713,0,0,0,0,0,0,0,0,0,-1,1784,1737,0,0
567,-713,0,0,0,0,0,0,0,0,0,-1,1791,1737,0,0
574,-713,0,0,0,0,0,0,0,0,0,-1,1798,1737,0,0
581,-713,0,0,0,0,0,0,0,0,0,-1,1805,1737,0,0
588,-713,0,0,0,0,0,0,0,0,0,-1,1812,1737,0,0
595,-713,0,0,0,0,0,0,0,0,0,-1,1819,1737,0,0
602,-713,0,0,0,0,0,0,0,0,0,-1,1826,1737,0,0
609,-713,0,0,0,0,0,0,0,0,0,-1,1833,1737,0,0
616,-713,0,0,0,0,0,0,0,0,0,-1,1840,1737,0,0
623,-713,0,0,0,0,0,0,0,0,0,-1,1847,1737,0,0
630,-713,0,0,0,0,0,0,0,0,0,-1,1854,1737,0,0
637,-713,0,0,0,0,0,0,0,0,0,-1,1861,1737,0,0
644,-713,0,0,0,0,0,0,0,0,0,-1,1868,1737,0,0
651,-713,0,0,0,0,0,0,0,0,0,-1,1875,1737,0,0
658,-713,0,0,0,0,0,0,0,0,0,-1,1882,1737,0,0
665,-713,0,0,0,0,0,0,0,0,0,-1,1889,1737,0,0
672,-713,0,0,0,0,0,0,0,0,0,-1,1896,1737,0,0
679,-713,0,0,0,0,0,0,0,0,0,-1,1903,1737,0,0
686,-713,0,0,0,0,0,0,0,0,0,-1,1910,1737,0,0
693,-713,0,0,0,0,0,0,0,0,0,-1,1917,1737,0,0
700,-713,0,0,0,0,0,0,0,0,0,-1,1924,1737,0,0
707,-713,0,0,0,0,0,0,0,0,0,-1,1931,1737,0,0
714,-713,0,0,0,0,0,0,0,0,0,-1,1938,1737,0,0
721,-713,0,0,0,0,0,0,0,0,0,-1,1945,1737,0,0
728,-713,0,0,0,0,0,0,0,0,0,-1,1952,1737,0,0
735,-713,0,0,0,0,0,0,0,0,0,-1,1959,1737,0,0
742,-713,0,0,0,0,0,0,0,0,0,-1,1966,1737,0,0
749,-713,0,0,0,0,0,0,0,0,0,-1,1973,1737,0,0
756,-713,0,0,0,0,0,0,0,0,0,-1,1980,1737,0,0
763,-713,0,0,0,0,0,0,0,0,0,-1,1987,1737,0,0
770,-713,0,0,0,0,0,0,0,0,0,-1,1994,1737,0,0
777,-713,0,0,0,0,0,0,0,0,0,-1,2001,1737,0,0
784,-713,0,0,0,0,0,0,0,0,0,-1,2008,1737,0,0
791,-713,0,0,0,0,0,0,0,0,0,-1,2015,1737,0,0
798,-713,0,0,0,0,0,0,0,0,0,-1,2022,1737,0,0
805,-713,0,0,0,0,0,0,0,0,0,-1,2029,1737,0,0
812,-713,0,0,0,0,0,0,0,0,0,-1,2036,1737,0,0
-700,-720,0,0,0,0,0,0,0,0,0,-1,524,1744,0,0
-693,-720,0,0,0,0,0,0,0,0,0,-1,531,1744,0,0
-686,-720,0,0,0,0,0,0,0,0,0,-1,538,1744,0,0
-679,-720,0,0,0,0,0,0,0,0,0,-1,545,1744,0,0
-672,-720,0,0,0,0,0,0,0,0,0,-1,552,1744,0,0
-665,-720,0,0,0,0,0,0,0,0,0,-1,559,1744,0,0
-658,-720,0,0,0,0,0,0,0,0,0,-1,566,1744,0,0
-651,-720,0,0,0,0,0,0,0,0,0,-1,573,1744,0,0
-644,-720,0,0,0,0,0,0,0,0,0,-1,580,1744,0,0
-637,-720,0,0,0,0,0,0,0,0,0,-1,587,1744,0,0
-630,-720,0,0,0,0,0,0,0,0,0,-1,594,1744,0,0
-623,-720,0,0,0,0,0,0,0,0,0,-1,601,1744,0,0
-616,-720,0,0,0,0,0,0,0,0,0,-1,608,1744,0,0
-609,-720,0,0,0,0,0,0,0,0,0,-1,615,1744,0,0
-602,-720,0,0,0,0,0,0,0,0,0,-1,622,1744,0,0
-595,-720,0,0,0,0,0,0,0,0,0,-1,629,1744,0,0
-588,-720,0,0,0,0,0,0,0,0,0,-1,636,1744,0,0
-581,-720,0,0,0,0,0,0,0,0,0,-1,643,1744,0,0
-574,-720,0,0,0,0,0,0,0,0,0,-1,650,1744,0,0
-567,-720,0,0,0,0,0,0,0,0,0,-1,657,1744,0,0
-560,-720,0,0,0,0,0,0,0,0,0,-1,664,1744,0,0
-553,-720,0,0,0,0,0,0,0,0,0,-1,671,1744,0,0
-546,-720,0,0,0,0,0,0,0,0,0,-1,678,1744,0,0
-539,-720,0,0,0,0,0,0,0,0,0,-1,685,1744,0,0
-532,-720,0,0,0,0,0,0,0,0,0,-1,692,1744,0,0
-525,-720,0,0,0,0,0,0,0,0,0,-1,699,1744,0,0
-518,-720,0,0,0,0,0,0,0,0,0,-1,706,1744,0,0
-511,-720,0,0,0,0,0,0,0,0,0,-1,713,1744,0,0
-504,-720,0,0,0,0,0,0,0,0,0,-1,720,1744,0,0
-497,-720,0,0,0,0,0,0,0,0,0,-1,727,1744,0,0
-490,-720,0,0,0,0,0,0,0,0,0,-1,734,1744,0,0
-483,-720,0,0,0,0,0,0,0,0,0,-1,741,1744,0,0
-476,-720,0,0,0,0,0,0,0,0,0,-1,748,1744,0,0
-469,-720,0,0,0,0,0,0,0,0,0,-1,755,1744,0,0
-462,-720,0,0,0,0,0,0,0,0,0,-1,762,1744,0,0
-455,-720,0,0,0,0,0,0,0,0,0,-1,769,1744,0,0
-448,-720,0,0,0,0,0,0,0,0,0,-1,776,1744,0,0
-441,-720,0,0,0,0,0,0,0,0,0,-1,783,1744,0,0
-434,-720,0,0,0,0,0,0,0,0,0,-1,790,1744,0,0
-427,-720,0,0,0,0,0,0,0,0,0,-1,797,1744,0,0
-420,-720,0,0,0,0,0,0,0,0,0,-1,804,1744,0,0
-413,-720,0,0,0,0,0,0,0,0,0,-1,811,1744,0,0
-406,-720,0,0,0,0,0,0,0,0,0,-1,818,1744,0,0
-399,-720,0,0,0,0,0,0,0,0,0,-1,825,1744,0,0
-392,-720,0,0,0,0,0,0,0,0,0,-1,832,1744,0,0
-385,-720,0,0,0,0,0,0,0,0,0,-1,839,1744,0,0
-378,-720,0,0,0,0,0,0,0,0,0,-1,846,1744,0,0
-371,-720,0,0,0,0,0,0,0,0,0,-1,853,1744,0,0
-364,-720,0,0,0,0,0,0,0,0,0,-1,860,1744,0,0
-357,-720,0,0,0,0,0,0,0,0,0,-1,867,1744,0,0
-350,-720,0,0,0,0,0,0,0,0,0,-1,874,1744,0,0
-343,-720,0,0,0,0,0,0,0,0,0,-1,881,1744,0,0
-336,-720,0,0,0,0,0,0,0,0,0,-1,888,1744,0,0
-329,-720,0,0,0,0,0,0,0,0,0,-1,895,1744,0,0
-322,-720,0,0,0,0,0,0,0,0,0,-1,902,1744,0,0
-315,-720,0,0,0,0,0,0,0,0,0,-1,909,1744,0,0
-308,-720,0,0,0,0,0,0,0,0,0,-1,916,1744,0,0
-301,-720,0,0,0,0,0,0,0,0,0,-1,923,1744,0,0
-294,-720,0,0,0,0,0,0,0,0,0,-1,930,1744,0,0
-287,-720,0,0,0,0,0,0,0,0,0,-1,937,1744,0,0
-280,-720,6.46796,22.6417,0,0,0,0,0,0,0,-1,944,1744,6.46793,-22.6417
-273,-720,8.54633,13.262,0,0,0,0,0,0,0,-1,951,1744,8.54636,-13.2619
-266,-720,7.28027,13.3165,0,0,0,0,0,0,0,-1,958,1744,7.28026,-13.3166
-259,-720,3.70563,18.6372,0,0,0,0,0,0,0,-1,965,1744,3.70564,-18.6372
-252,-720,4.00989,18.5059,0,0,0,0,0,0,0,-1,972,1744,4.00988,-18.5058
-245,-720,7.05634,33.8489,0,0,0,0,0,0,0,-1,979,1744,7.05634,-33.8489
-238,-720,5.02216,24.1455,0,0,0,0,0,0,0,-1,986,1744,5.02217,-24.1455
-231,-720,9.45819,50.8396,0,0,0,0,0,0,0,-1,993,1744,9.45816,-50.8396
-224,-720,10.0804,54.4775,0,0,0,0,0,0,0,-1,1000,1744,10.0805,-54.4775
-217,-720,9.41168,53.88,0,0,0,0,0,0,0,-1,1007,1744,9.41166,-53.88
-210,-720,8.74036,38.6686,0,0,0,0,0,0,0,-1,1014,1744,8.74035,-38.6686
-203,-720,9.30908,61.4257,0,0,0,0,0,0,0,-1,1021,1744,9.30904,-61.4256
-196,-720,9.20703,61.9097,0,0,0,0,0,0,0,-1,1028,1744,9.20704,-61.9096
-189,-720,9.32263,62.244,0,0,0,0,0,0,0,-1,1035,1744,9.32263,-62.2441
-182,-720,8.75757,63.1915,-0.00191332,-0.000955018,0.0155716,0.0141448,-0.0170132,0.800779,0.0180145,0.0464967,1042,1744,8.75756,-63.1915
-175,-720,8.76501,63.7023,-0.00153207,-0.00061793,0.0145947,0.0135269,-0.0156769,0.801052,0.016876,0.041512,1049,1744,8.76506,-63.7023
-168,-720,8.9314,64.2251,0,0,0,0,0,0,0,-1,1056,1744,8.93139,-64.2251
-161,-720,9.06604,64.7098,-0.0011786,0.000637629,0.0122831,0.0120462,-0.0125871,0.822297,0.0142232,0.0343149,1063,1744,9.06599,-64.7099
-154,-720,9.15076,65.3529,-0.00108795,0.00128968,0.0108779,0.0110435,-0.0108418,0.839826,0.0126357,0.029047,1070,1744,9.15071,-65.3529
-147,-720,9.05542,65.9639,-0.0011009,0.0021919,0.00939166,0.0100804,-0.00898938,0.872169,0.0110159,0.0290481,1077,1744,9.05546,-65.9639
-140,-720,9.04065,66.4855,-0.00122608,0.00280904,0.00806687,0.00910683,-0.00752386,0.907937,0.00961623,0.0237954,1084,1744,9.0407,-66.4855
-133,-720,8.97937,66.9264,-0.00139377,0.00300877,0.00691906,0.00806828,-0.00645328,0.939409,0.0084013,0.016376,1091,1744,8.97933,-66.9264
-126,-720,8.94202,67.4109,-0.00166647,0.00370145,0.00560275,0.00722994,-0.00519495,1.00877,0.00720551,0.0158311,1098,1744,8.942,-67.4109
-119,-720,8.90002,67.8673,-0.00193291,0.00378256,0.00454399,0.00629274,-0.00444309,1.0661,0.00622892,0.0162048,1105,1744,8.90002,-67.8673
-112,-720,8.8396,68.3577,-0.00186024,0.00380821,0.00427129,0.00610007,-0.0041521,1.07832,0.0059546,0.0150827,1112,1744,8.83955,-68.3576
-105,-720,8.82251,68.8002,-0.00189236,0.00378312,0.00375969,0.0056558,-0.00376504,1.10867,0.00547552,0.0144847,1119,1744,8.82256,-68.8002
-98,-720,8.81006,69.2408,-0.00177634,0.00379621,0.00345849,0.00545116,-0.00343129,1.12448,0.00517229,0.0112545,1126,1744,8.81007,-69.2408
-91,-720,8.7533,69.6737,-0.00154711,0.0038079,0.00316462,0.00527574,-0.00301495,1.1365,0.00484559,0.0100965,1133,1744,8.75328,-69.6737
-84,-720,8.70911,70.1025,-0.00146557,0.00318242,0.00267327,0.00440064,-0.0026838,1.14321,0.00413005,0.0115892,1140,1744,8.70914,-70.1025
-77,-720,8.69067,70.4993,-0.00120819,0.00279542,0.00231258,0.00385225,-0.00226503,1.14214,0.00357122,0.0159279,1147,1744,8.69066,-70.4992
-70,-720,8.68848,70.8546,-0.000909743,0.00265158,0.00190576,0.00347911,-0.00173728,1.16114,0.00306714,0.0137894,1154,1744,8.68842,-70.8546
-63,-720,8.66736,71.2174,-0.000748441,0.00247548,0.00154837,0.00309867,-0.00137163,1.18816,0.00264435,0.0126186,1161,1744,8.66738,-71.2174
-56,-720,8.67114,71.554,-0.00043199,0.00223958,0.00127109,0.0027477,-0.000940114,1.1905,0.00221278,0.0148695,1168,1744,8.67117,-71.5539
-49,-720,8.6095,71.8884,3.83683e-05,0.00189615,0.00103605,0.00235875,-0.000424229,1.15086,0.00173132,0.0210082,1175,1744,8.6095,-71.8884
-42,-720,8.60925,72.1498,0.000594133,0.00153218,0.000786247,0.00197867,0.000147641,1.05433,0.00127276,0.0232891,1182,1744,8.60926,-72.1498
-35,-720,8.62598,72.4153,0.00120177,0.00115839,0.000539349,0.00171986,0.000640293,0.765298,0.0010037,0.021159,1189,1744,8.62602,-72.4152
-28,-720,8.64417,72.6901,0.00178511,0.000687448,0.000328935,0.00187613,0.000596425,0.269966,0.00110687,0.0128539,1196,1744,8.64416,-72.69
-21,-720,8.64307,72.941,0.00236059,0.000128069,0.00020075,0.00237849,0.000110161,0.0889699,0.00155025,0.0104338,1203,1744,8.64309,-72.9411
-14,-720,8.64343,73.141,0.00287496,-0.000354085,0.000115884,0.00287912,-0.000358238,0.0358266,0.00204929,0.0122406,1210,1744,8.64347,-73.141
-7,-720,8.65845,73.3577,0.00331697,-0.000784846,2.36912e-05,0.0033171,-0.000784983,0.00577552,0.00251425,0.012735,1217,1744,8.65846,-73.3577
0,-720,8.66846,73.5492,0.00370653,-0.000979974,3.22249e-05,0.00370675,-0.000980195,0.00687567,0.00285456,0.0136097,1224,1744,8.66843,-73.5492
7,-720,8.68958,73.6984,0.00399544,-0.00108166,8.71796e-05,0.00399693,-0.00108315,0.0171644,0.00308962,0.0167236,1231,1744,8.68953,-73.6983
14,-720,8.72815,73.8497,0.00417806,-0.00115331,0.000170139,0.00418349,-0.00115873,0.0318697,0.00324494,0.0156085,1238,1744,8.72814,-73.8498
21,-720,8.73877,73.9626,0.00427206,-0.0011633,0.000265723,0.00428502,-0.00117626,0.0487329,0.00331899,0.0121159,1245,1744,8.73876,-73.9626
28,-720,8.73743,74.0624,0.00431796,-0.00112397,0.000340294,0.00433916,-0.00114517,0.0622087,0.00334058,0.0115438,1252,1744,8.73745,-74.0623
35,-720,8.77625,74.1465,0.00433597,-0.00108818,0.000401536,0.00436554,-0.00111774,0.0734936,0.00334576,0.0114304,1259,1744,8.77622,-74.1465
42,-720,8.81042,74.2007,0.00427711,-0.00105446,0.000488706,0.00432154,-0.00109889,0.0906559,0.00330872,0.0118457,1266,1744,8.81042,-74.2006
49,-720,8.84436,74.2069,0.00414852,-0.00122819,0.000636566,0.00422286,-0.00130253,0.116252,0.0033353,0.0156021,1273,1744,8.8444,-74.2069
56,-720,8.8678,74.2188,0.00402862,-0.00133904,0.000858626,0.00416263,-0.00147304,0.154818,0.00337501,0.0160932,1280,1744,8.86779,-74.2188
63,-720,8.89246,74.2351,0.00392203,-0.001585,0.00100098,0.00409832,-0.00176129,0.174338,0.00347158,0.0171539,1287,1744,8.89242,-74.2351
70,-720,8.94543,74.2345,0.00381905,-0.00194162,0.00107897,0.00401451,-0.00213708,0.179209,0.00360634,0.016536,1294,1744,8.94548,-74.2345
77,-720,8.95508,74.1793,0.00372058,-0.00243024,0.00116735,0.00393467,-0.00264433,0.181389,0.00382267,0.0188568,1301,1744,8.95502,-74.1793
84,-720,8.96533,74.0852,0.00354316,-0.00276975,0.00124679,0.00378048,-0.00300707,0.188093,0.00392726,0.0166541,1308,1744,8.96528,-74.0852
91,-720,8.98511,74.0051,0.00347818,-0.00259257,0.00122846,0.00371734,-0.00283173,0.192282,0.00379262,0.0164841,1315,1744,8.98514,-74.0051
98,-720,8.99243,73.9205,0.00346371,-0.00262506,0.00119365,0.00368935,-0.0028507,0.186831,0.00378624,0.0145375,1322,1744,8.99242,-73.9205
105,-720,9.02429,73.8206,0.00344053,-0.00254986,0.001145,0.00365193,-0.00276125,0.182569,0.00371453,0.0125165,1329,1744,9.02434,-73.8206
112,-720,9.04895,73.6949,0.00343827,-0.00226382,0.000983318,0.00360308,-0.00242863,0.166061,0.00350435,0.0118718,1336,1744,9.04899,-73.6949
119,-720,9.03979,73.5591,0.00339154,-0.00183823,0.000823899,0.00351827,-0.00196495,0.152617,0.0032078,0.0117548,1343,1744,9.03979,-73.5591
126,-720,9.07092,73.3538,0.00332582,-0.00132766,0.000693124,0.00342687,-0.0014287,0.144762,0.0028814,0.0116474,1350,1744,9.07093,-73.3538
133,-720,9.10413,73.1434,0.00315082,-0.000734643,0.000558274,0.00322944,-0.000813267,0.139913,0.00246911,0.0132299,1357,1744,9.10418,-73.1435
140,-720,9.14575,72.9218,0.00286795,-8.94267e-05,0.000377166,0.00291529,-0.000136771,0.124872,0.00199068,0.0196312,1364,1744,9.14574,-72.9218
147,-720,9.151,72.6421,0.00261757,0.000564493,9.78409e-05,0.00262222,0.000559841,0.0475123,0.00159463,0.0208521,1371,1744,9.15101,-72.6421
154,-720,9.11938,72.3691,0.0024079,0.00126122,-0.00021002,0.00244516,0.00122396,-0.175564,0.00141171,0.0139601,1378,1744,9.11933,-72.3692
161,-720,9.14014,72.0809,0.00217682,0.00193933,-0.000502791,0.00257469,0.00154145,-0.669438,0.00149612,0.0100281,1385,1744,9.14017,-72.0809
168,-720,9.14001,71.7715,0.00185575,0.0025445,-0.000758296,0.00303296,0.00136729,-0.998547,0.0017539,0.0104767,1392,1744,9.14,-71.7715
175,-720,9.12451,71.4507,0.00153205,0.00292451,-0.000940031,0.00339807,0.0010585,-1.10414,0.00200781,0.0170558,1399,1744,9.12456,-71.4506
182,-720,9.11633,71.1343,0.00118324,0.00317718,-0.00117795,0.00372343,0.000636998,-1.13659,0.00229955,0.0163801,1406,1744,9.11631,-71.1343
189,-720,9.10022,70.7759,0.000777245,0.00343125,-0.00151733,0.00411999,8.85036e-05,-1.14469,0.00271764,0.0137113,1413,1744,9.10027,-70.7759
196,-720,9.11169,70.3872,8.62243e-05,0.00205689,-0.00171732,0.00305147,-0.000908358,-1.04585,0.00239522,0.0147323,1420,1744,9.11174,-70.3872
203,-720,9.0863,69.9956,-0.000384869,0.00236243,-0.00201064,0.00342386,-0.00144629,-1.08508,0.00288802,0.0169323,1427,1744,9.08631,-69.9956
210,-720,9.07178,69.6012,-0.000630885,0.00291511,-0.00235685,0.0040914,-0.00180717,-1.10788,0.00348962,0.0142799,1434,1744,9.07184,-69.6012
217,-720,9.04529,69.1555,-0.000977378,0.00327438,-0.00257996,0.00449149,-0.00219448,-1.13,0.00393535,0.0133518,1441,1744,9.04532,-69.1555
224,-720,8.99536,68.7098,-0.00135796,0.00351611,-0.00276774,0.00476683,-0.00260868,-1.14637,0.00431859,0.0104421,1448,1744,8.99531,-68.7099
231,-720,8.99255,68.2755,-0.00185529,0.00357354,-0.00294864,0.00486694,-0.00314869,-1.15743,0.00466313,0.0111534,1455,1744,8.99255,-68.2755
238,-720,8.96619,67.7961,-0.00233516,0.00368468,-0.00301956,0.00493825,-0.00358873,-1.1773,0.00494356,0.00999616,1462,1744,8.96622,-67.7962
245,-720,8.91138,67.3392,-0.00283381,0.00358316,-0.0030876,0.0048275,-0.00407815,-1.1877,0.00514774,0.0129137,1469,1744,8.91138,-67.3392
252,-720,8.88538,66.8363,-0.00348841,0.00362611,-0.00314596,0.00481766,-0.00467996,-1.20874,0.00548365,0.0127888,1476,1744,8.8854,-66.8363
259,-720,8.84473,66.3064,-0.00407847,0.00355718,-0.00316893,0.004701,-0.00522229,-1.2244,0.00573185,0.0118497,1483,1744,8.84472,-66.3064
266,-720,8.78638,65.7723,-0.00464301,0.00359726,-0.00321526,0.00470334,-0.0057491,-1.23947,0.00604478,0.00883038,1490,1744,8.78642,-65.7724
273,-720,8.73206,65.2515,-0.00525218,0.00384669,-0.0033263,0.00493301,-0.00633849,-1.25513,0.00652445,0.0138799,1497,1744,8.73205,-65.2514
280,-720,8.63525,64.6967,-0.00586403,0.00414571,-0.00338065,0.0051805,-0.00689883,-1.27376,0.00699748,0.0232475,1504,1744,8.63523,-64.6966
287,-720,8.53723,64.0426,-0.00665453,0.00414533,-0.00343493,0.00514525,-0.00765444,-1.28752,0.00743709,0.0411387,1511,1744,8.53728,-64.0426
294,-720,8.53809,63.3715,0,0,0,0,0,0,0,-1,1518,1744,8.53805,-63.3715
301,-720,8.34534,62.8033,0,0,0,0,0,0,0,-1,1525,1744,8.34528,-62.8034
308,-720,8.48608,51.5551,0,0,0,0,0,0,0,-1,1532,1744,8.48612,-51.555
315,-720,8.66516,48.6633,0,0,0,0,0,0,0,-1,1539,1744,8.6651,-48.6633
322,-720,8.98181,43.5223,0,0,0,0,0,0,0,-1,1546,1744,8.98176,-43.5223
329,-720,9.15906,34.7668,0,0,0,0,0,0,0,-1,1553,1744,9.1591,-34.7669
336,-720,6.14148,26.5682,0,0,0,0,0,0,0,-1,1560,1744,6.14151,-26.5683
343,-720,6.78552,21.3625,0,0,0,0,0,0,0,-1,1567,1744,6.78551,-21.3625
350,-720,4.0741,11.1836,0,0,0,0,0,0,0,-1,1574,1744,4.07412,-11.1836
357,-720,6.90833,21.4504,0,0,0,0,0,0,0,-1,1581,1744,6.90827,-21.4505
364,-720,6.59497,44.1384,0,0,0,0,0,0,0,-1,1588,1744,6.59492,-44.1385
371,-720,6.67773,45.2386,0,0,0,0,0,0,0,-1,1595,1744,6.67779,-45.2386
378,-720,3.88257,25.5404,0,0,0,0,0,0,0,-1,1602,1744,3.88262,-25.5404
385,-720,4.672,37.3854,0,0,0,0,0,0,0,-1,1609,1744,4.67202,-37.3854
392,-720,4.89319,36.2684,0,0,0,0,0,0,0,-1,1616,1744,4.89323,-36.2684
399,-720,2.37317,24.7166,0,0,0,0,0,0,0,-1,1623,1744,2.37317,-24.7166
406,-720,0,0,0,0,0,0,0,0,0,-1,1630,1744,0,0
413,-720,0,0,0,0,0,0,0,0,0,-1,1637,1744,0,0
420,-720,0,0,0,0,0,0,0,0,0,-1,1644,1744,0,0
427,-720,0,0,0,0,0,0,0,0,0,-1,1651,1744,0,0
434,-720,0,0,0,0,0,0,0,0,0,-1,1658,1744,0,0
441,-720,0,0,0,0,0,0,0,0,0,-1,1665,1744,0,0
448,-720,0,0,0,0,0,0,0,0,0,-1,1672,1744,0,0
455,-720,0,0,0,0,0,0,0,0,0,-1,1679,1744,0,0
462,-720,0,0,0,0,0,0,0,0,0,-1,1686,1744,0,0
469,-720,0,0,0,0,0,0,0,0,0,-1,1693,1744,0,0
476,-720,0,0,0,0,0,0,0,0,0,-1,1700,1744,0,0
483,-720,0,0,0,0,0,0,0,0,0,-1,1707,1744,0,0
490,-720,0,0,0,0,0,0,0,0,0,-1,1714,1744,0,0
497,-720,0,0,0,0,0,0,0,0,0,-1,1721,1744,0,0
504,-720,0,0,0,0,0,0,0,0,0,-1,1728,1744,0,0
511,-720,0,0,0,0,0,0,0,0,0,-1,1735,1744,0,0
518,-720,0,0,0,0,0,0,0,0,0,-1,1742,1744,0,0
525,-720,0,0,0,0,0,0,0,0,0,-1,1749,1744,0,0
532,-720,0,0,0,0,0,0,0,0,0,-1,1756,1744,0,0
539,-720,0,0,0,0,0,0,0,0,0,-1,1763,1744,0,0
546,-720,0,0,0,0,0,0,0,0,0,-1,1770,1744,0,0
553,-720,0,0,0,0,0,0,0,0,0,-1,1777,1744,0,0
560,-720,0,0,0,0,0,0,0,0,0,-1,1784,1744,0,0
567,-720,0,0,0,0,0,0,0,0,0,-1,1791,1744,0,0
574,-720,0,0,0,0,0,0,0,0,0,-1,1798,1744,0,0
581,-720,0,0,0,0,0,0,0,0,0,-1,1805,1744,0,0
588,-720,0,0,0,0,0,0,0,0,0,-1,1812,1744,0,0
595,-720,0,0,0,0,0,0,0,0,0,-1,1819,1744,0,0
602,-720,0,0,0,0,0,0,0,0,0,-1,1826,1744,0,0
609,-720,0,0,0,0,0,0,0,0,0,-1,1833,1744,0,0
616,-720,0,0,0,0,0,0,0,0,0,-1,1840,1744,0,0
623,-720,0,0,0,0,0,0,0,0,0,-1,1847,1744,0,0
630,-720,0,0,0,0,0,0,0,0,0,-1,1854,1744,0,0
637,-720,0,0,0,0,0,0,0,0,0,-1,1861,1744,0,0
644,-720,0,0,0,0,0,0,0,0,0,-1,1868,1744,0,0
651,-720,0,0,0,0,0,0,0,0,0,-1,1875,1744,0,0
658,-720,0,0,0,0,0,0,0,0,0,-1,1882,1744,0,0
665,-720,0,0,0,0,0,0,0,0,0,-1,1889,1744,0,0
672,-720,0,0,0,0,0,0,0,0,0,-1,1896,1744,0,0
679,-720,0,0,0,0,0,0,0,0,0,-1,1903,1744,0,0
686,-720,0,0,0,0,0,0,0,0,0,-1,1910,1744,0,0
693,-720,0,0,0,0,0,0,0,0,0,-1,1917,1744,0,0
700,-720,0,0,0,0,0,0,0,0,0,-1,1924,1744,0,0
707,-720,0,0,0,0,0,0,0,0,0,-1,1931,1744,0,0
714,-720,0,0,0,0,0,0,0,0,0,-1,1938,1744,0,0
721,-720,0,0,0,0,0,0,0,0,0,-1,1945,1744,0,0
728,-720,0,0,0,0,0,0,0,0,0,-1,1952,1744,0,0
735,-720,0,0,0,0,0,0,0,0,0,-1,1959,1744,0,0
742,-720,0,0,0,0,0,0,0,0,0,-1,1966,1744,0,0
749,-720,0,0,0,0,0,0,0,0,0,-1,1973,1744,0,0
756,-720,0,0,0,0,0,0,0,0,0,-1,1980,1744,0,0
763,-720,0,0,0,0,0,0,0,0,0,-1,1987,1744,0,0
770,-720,0,0,0,0,0,0,0,0,0,-1,1994,1744,0,0
777,-720,0,0,0,0,0,0,0,0,0,-1,2001,1744,0,0
784,-720,0,0,0,0,0,0,0,0,0,-1,2008,1744,0,0
791,-720,0,0,0,0,0,0,0,0,0,-1,2015,1744,0,0
798,-720,0,0,0,0,0,0,0,0,0,-1,2022,1744,0,0
805,-720,0,0,0,0,0,0,0,0,0,-1,2029,1744,0,0
812,-720,0,0,0,0,0,0,0,0,0,-1,2036,1744,0,0
-700,-727,0,0,0,0,0,0,0,0,0,-1,524,1751,0,0
-693,-727,0,0,0,0,0,0,0,0,0,-1,531,1751,0,0
-686,-727,0,0,0,0,0,0,0,0,0,-1,538,1751,0,0
-679,-727,0,0,0,0,0,0,0,0,0,-1,545,1751,0,0
-672,-727,0,0,0,0,0,0,0,0,0,-1,552,1751,0,0
-665,-727,0,0,0,0,0,0,0,0,0,-1,559,1751,0,0
-658,-727,0,0,0,0,0,0,0,0,0,-1,566,1751,0,0
-651,-727,0,0,0,0,0,0,0,0,0,-1,573,1751,0,0
-644,-727,0,0,0,0,0,0,0,0,0,-1,580,1751,0,0
-637,-727,0,0,0,0,0,0,0,0,0,-1,587,1751,0,0
-630,-727,0,0,0,0,0,0,0,0,0,-1,594,1751,0,0
-623,-727,0,0,0,0,0,0,0,0,0,-1,601,1751,0,0
-616,-727,0,0,0,0,0,0,0,0,0,-1,608,1751,0,0
-609,-727,0,0,0,0,0,0,0,0,0,-1,615,1751,0,0
-602,-727,0,0,0,0,0,0,0,0,0,-1,622,1751,0,0
-595,-727,0,0,0,0,0,0,0,0,0,-1,629,1751,0,0
-588,-727,0,0,0,0,0,0,0,0,0,-1,636,1751,0,0
-581,-727,0,0,0,0,0,0,0,0,0,-1,643,1751,0,0
-574,-727,0,0,0,0,0,0,0,0,0,-1,650,1751,0,0
-567,-727,0,0,0,0,0,0,0,0,0,-1,657,1751,0,0
-560,-727,0,0,0,0,0,0,0,0,0,-1,664,1751,0,0
-553,-727,0,0,0,0,0,0,0,0,0,-1,671,1751,0,0
-546,-727,0,0,0,0,0,0,0,0,0,-1,678,1751,0,0
-539,-727,0,0,0,0,0,0,0,0,0,-1,685,1751,0,0
-532,-727,0,0,0,0,0,0,0,0,0,-1,692,1751,0,0
-525,-727,0,0,0,0,0,0,0,0,0,-1,699,1751,0,0
-518,-727,0,0,0,0,0,0,0,0,0,-1,706,1751,0,0
-511,-727,0,0,0,0,0,0,0,0,0,-1,713,1751,0,0
-504,-727,0,0,0,0,0,0,0,0,0,-1,720,1751,0,0
-497,-727,0,0,0,0,0,0,0,0,0,-1,727,1751,0,0
-490,-727,0,0,0,0,0,0,0,0,0,-1,734,1751,0,0
-483,-727,0,0,0,0,0,0,0,0,0,-1,741,1751,0,0
-476,-727,0,0,0,0,0,0,0,0,0,-1,748,1751,0,0
-469,-727,0,0,0,0,0,0,0,0,0,-1,755,1751,0,0
-462,-727,0,0,0,0,0,0,0,0,0,-1,762,1751,0,0
-455,-727,0,0,0,0,0,0,0,0,0,-1,769,1751,0,0
-448,-727,0,0,0,0,0,0,0,0,0,-1,776,1751,0,0
-441,-727,0,0,0,0,0,0,0,0,0,-1,783,1751,0,0
-434,-727,0,0,0,0,0,0,0,0,0,-1,790,1751,0,0
-427,-727,0,0,0,0,0,0,0,0,0,-1,797,1751,0,0
-420,-727,0,0,0,0,0,0,0,0,0,-1,804,1751,0,0
-413,-727,0,0,0,0,0,0,0,0,0,-1,811,1751,0,0
-406,-727,0,0,0,0,0,0,0,0,0,-1,818,1751,0,0
-399,-727,0,0,0,0,0,0,0,0,0,-1,825,1751,0,0
-392,-727,0,0,0,0,0,0,0,0,0,-1,832,1751,0,0
-385,-727,0,0,0,0,0,0,0,0,0,-1,839,1751,0,0
-378,-727,0,0,0,0,0,0,0,0,0,-1,846,1751,0,0
-371,-727,0,0,0,0,0,0,0,0,0,-1,853,1751,0,0
-364,-727,0,0,0,0,0,0,0,0,0,-1,860,1751,0,0
-357,-727,0,0,0,0,0,0,0,0,0,-1,867,1751,0,0
-350,-727,0,0,0,0,0,0,0,0,0,-1,874,1751,0,0
-343,-727,0,0,0,0,0,0,0,0,0,-1,881,1751,0,0
-336,-727,0,0,0,0,0,0,0,0,0,-1,888,1751,0,0
-329,-727,0,0,0,0,0,0,0,0,0,-1,895,1751,0,0
-322,-727,0,0,0,0,0,0,0,0,0,-1,902,1751,0,0
-315,-727,0,0,0,0,0,0,0,0,0,-1,909,1751,0,0
-308,-727,0,0,0,0,0,0,0,0,0,-1,916,1751,0,0
-301,-727,0,0,0,0,0,0,0,0,0,-1,923,1751,0,0
-294,-727,0,0,0,0,0,0,0,0,0,-1,930,1751,0,0
-287,-727,0,0,0,0,0,0,0,0,0,-1,937,1751,0,0
-280,-727,0,0,0,0,0,0,0,0,0,-1,944,1751,0,0
-273,-727,0,0,0,0,0,0,0,0,0,-1,951,1751,0,0
-266,-727,4.24805,7.61145,0,0,0,0,0,0,0,-1,958,1751,4.24802,-7.6115
-259,-727,3.65228,5.4082,0,0,0,0,0,0,0,-1,965,1751,3.65229,-5.40818
-252,-727,5.8797,32.9292,0,0,0,0,0,0,0,-1,972,1751,5.87972,-32.9292
-245,-727,6.59198,32.2588,0,0,0,0,0,0,0,-1,979,1751,6.59195,-32.2587
-238,-727,6.6189,30.4597,0,0,0,0,0,0,0,-1,986,1751,6.61889,-30.4598
-231,-727,9.95819,51.5021,0,0,0,0,0,0,0,-1,993,1751,9.95818,-51.5021
-224,-727,10.0845,52.0088,0,0,0,0,0,0,0,-1,1000,1751,10.0845,-52.0088
-217,-727,10.2109,52.5154,0,0,0,0,0,0,0,-1,1007,1751,10.2109,-52.5154
-210,-727,5.0921,32.4524,0,0,0,0,0,0,0,-1,1014,1751,5.09209,-32.4523
-203,-727,14.1763,48.6819,0,0,0,0,0,0,0,-1,1021,1751,14.1763,-48.6819
-196,-727,13.0454,48.5956,0,0,0,0,0,0,0,-1,1028,1751,13.0455,-48.5955
-189,-727,10.3168,48.1697,0,0,0,0,0,0,0,-1,1035,1751,10.3168,-48.1697
-182,-727,8.80798,63.5084,0,0,0,0,0,0,0,-1,1042,1751,8.80798,-63.5084
-175,-727,8.73145,63.9547,0,0,0,0,0,0,0,-1,1049,1751,8.73144,-63.9547
-168,-727,9.92529,63.7582,0,0,0,0,0,0,0,-1,1056,1751,9.92527,-63.7582
-161,-727,9.28748,64.8701,0,0,0,0,0,0,0,-1,1063,1751,9.28752,-64.8701
-154,-727,9.65369,65.2406,0,0,0,0,0,0,0,-1,1070,1751,9.65363,-65.2406
-147,-727,9.64124,66.0226,0,0,0,0,0,0,0,-1,1077,1751,9.64122,-66.0226
-140,-727,9.35303,66.1821,-0.00115688,0.00438494,0.0110906,0.0130455,-0.00981745,0.907814,0.0132437,0.0375574,1084,1751,9.35305,-66.1822
-133,-727,9.46899,66.7925,-0.00163096,0.00479831,0.0095869,0.0116952,-0.00852783,0.947165,0.0117234,0.0286446,1091,1751,9.46904,-66.7924
-126,-727,9.37415,67.4347,-0.00219849,0.00576252,0.00791681,0.0106432,-0.00707915,1.01834,0.0103007,0.0334581,1098,1751,9.37414,-67.4347
-119,-727,9.34204,67.9885,0,0,0,0,0,0,0,-1,1105,1751,9.34201,-67.9885
-112,-727,9.28943,68.4513,0,0,0,0,0,0,0,-1,1112,1751,9.28939,-68.4513
-105,-727,9.23682,68.8467,0,0,0,0,0,0,0,-1,1119,1751,9.23686,-68.8467
-98,-727,9.17957,69.2207,-0.00320391,0.00600936,0.005162,0.00832134,-0.0055159,1.1497,0.00804348,0.0194908,1126,1751,9.17953,-69.2207
-91,-727,9.14233,69.6594,-0.00308336,0.0059765,0.00478279,0.00803408,-0.00514094,1.16452,0.00766749,0.0135603,1133,1751,9.14231,-69.6594
-84,-727,9.0907,70.0814,-0.00320524,0.00493448,0.0041161,0.00665306,-0.00492382,1.17527,0.00670872,0.0130997,1140,1751,9.09069,-70.0815
-77,-727,9.04126,70.4635,-0.00310419,0.0042421,0.00364379,0.00574285,-0.00460494,1.1801,0.00598633,0.014349,1147,1751,9.04124,-70.4635
-70,-727,9.02649,70.8597,-0.00292593,0.00404277,0.00311642,0.00523311,-0.00411628,1.20594,0.0054107,0.0158757,1154,1751,9.0265,-70.8598
-63,-727,9.00757,71.2296,-0.00296302,0.00387337,0.00264886,0.00477958,-0.00386924,1.24116,0.00500261,0.0127422,1161,1751,9.00761,-71.2296
-56,-727,8.96826,71.5547,-0.00279036,0.00368875,0.0023386,0.00444467,-0.00354627,1.25816,0.00462328,0.0129333,1168,1751,8.96825,-71.5547
-49,-727,8.91968,71.8708,-0.00235292,0.00340646,0.00206083,0.0040679,-0.00301437,1.26022,0.004104,0.0160485,1175,1751,8.91971,-71.8709
-42,-727,8.90137,72.151,-0.00165162,0.00341166,0.00168406,0.00392062,-0.00216058,1.2773,0.00355966,0.019662,1182,1751,8.90135,-72.1511
-35,-727,8.86768,72.4181,-0.000944913,0.00334605,0.00135376,0.00373745,-0.00133631,1.28935,0.00303671,0.0172318,1189,1751,8.86765,-72.4181
-28,-727,8.87561,72.671,-0.000316177,0.003109,0.00118916,0.00348137,-0.000688548,1.26733,0.00258122,0.0102922,1196,1751,8.87558,-72.671
-21,-727,8.86279,72.9329,0.000207049,0.00282031,0.00106286,0.00319801,-0.000170648,1.22936,0.00219111,0.0120171,1203,1751,8.86275,-72.9328
-14,-727,8.8573,73.1379,0.000690257,0.00254577,0.000961849,0.00295439,0.000281644,1.16908,0.00188275,0.0130288,1210,1751,8.85731,-73.138
-7,-727,8.85779,73.3535,0.00108925,0.00227082,0.000836312,0.00270397,0.0006561,1.09291,0.00162861,0.0153732,1217,1751,8.85778,-73.3535
0,-727,8.8363,73.5691,0.00140973,0.00217331,0.00079739,0.0026756,0.000907441,1.00867,0.00157118,0.0151142,1224,1751,8.83626,-73.569
7,-727,8.84668,73.6951,0.00161523,0.00211432,0.000807711,0.00271015,0.00101939,0.935223,0.00158063,0.014785,1231,1751,8.84671,-73.6951
14,-727,8.86768,73.8354,0.00169864,0.0020307,0.000828305,0.00270945,0.00101989,0.884312,0.00158015,0.0152365,1238,1751,8.86768,-73.8354
21,-727,8.8363,73.9601,0.00169109,0.00197335,0.00084138,0.00268535,0.000979081,0.868493,0.00156922,0.0132116,1245,1751,8.83636,-73.9601
28,-727,8.84595,74.0569,0.00163786,0.00192156,0.000822432,0.00261429,0.000945136,0.870798,0.00152853,0.0119507,1252,1751,8.8459,-74.0569
35,-727,8.87292,74.1488,0.00155295,0.00183297,0.00078075,0.00248617,0.000899759,0.874119,0.00145352,0.0127196,1259,1751,8.87293,-74.1488
42,-727,8.85144,74.1902,0.00138556,0.00183608,0.000828493,0.00246939,0.000752249,0.918136,0.00146153,0.0129444,1266,1751,8.85147,-74.1902
49,-727,8.83838,74.2219,0.00117386,0.00174666,0.000911663,0.00241585,0.000504665,0.937593,0.00147148,0.0117296,1273,1751,8.83836,-74.2219
56,-727,8.8241,74.2676,0.00100239,0.00178515,0.00104665,0.0025112,0.00027634,0.964318,0.00159004,0.011406,1280,1751,8.82405,-74.2676
63,-727,8.86914,74.2549,0.000844893,0.00173169,0.00107181,0.0024482,0.000128385,0.981524,0.00159106,0.0138955,1287,1751,8.86916,-74.2548
70,-727,8.92798,74.2188,0.000748888,0.0016888,0.00100223,0.00232579,0.0001119,1.00463,0.0015146,0.0167545,1294,1751,8.92801,-74.2188
77,-727,8.9104,74.1704,0.000773531,0.00160981,0.000906694,0.00219013,0.000193204,1.00145,0.00140014,0.0199166,1301,1751,8.9104,-74.1704
84,-727,8.8988,74.0625,0.000861636,0.00164195,0.00080151,0.00214322,0.000360366,1.0119,0.00132512,0.0196177,1308,1751,8.89882,-74.0625
91,-727,8.90295,73.951,0.00107734,0.0025464,0.00061043,0.00276694,0.000856799,1.2241,0.00163562,0.0212129,1315,1751,8.90294,-73.9511
98,-727,8.90076,73.8882,0.00130939,0.00290199,0.000382164,0.00298894,0.00122243,1.34707,0.00173517,0.0171159,1322,1751,8.90075,-73.8881
105,-727,8.9093,73.7859,0.00151732,0.00332148,0.000133241,0.00333127,0.00150753,1.49747,0.00192619,0.0141382,1329,1751,8.90924,-73.7859
112,-727,8.91394,73.6619,0.00174479,0.00389947,-0.000235575,0.00392493,0.00171934,-1.46316,0.00227185,0.0118446,1336,1751,8.91389,-73.6619
119,-727,8.90442,73.5239,0.00192556,0.00455254,-0.000595721,0.00468132,0.00179678,-1.3579,0.00272698,0.00977297,1343,1751,8.90445,-73.524
126,-727,8.91577,73.3165,0.00209847,0.0052176,-0.000891079,0.00545422,0.00186185,-1.31125,0.00320139,0.0109999,1350,1751,8.91578,-73.3166
133,-727,8.90125,73.1267,0.00216724,0.00589885,-0.00113865,0.00621885,0.00184724,-1.29683,0.00368774,0.0157304,1357,1751,8.90121,-73.1267
140,-727,8.92529,72.9419,0.00209606,0.00652113,-0.0013647,0.00690816,0.00170904,-1.29445,0.00415463,0.0229933,1364,1751,8.92527,-72.9418
147,-727,8.91382,72.6553,0.00204222,0.00700736,-0.00168575,0.00752561,0.00152397,-1.27254,0.00459412,0.0196903,1371,1751,8.91376,-72.6553
154,-727,8.86865,72.3502,0.0019246,0.00744419,-0.00197317,0.00807701,0.00129177,-1.26044,0.00500991,0.0126497,1378,1751,8.8686,-72.3502
161,-727,8.85107,72.083,0.00167778,0.00773731,-0.00221897,0.00846298,0.000952108,-1.25473,0.00535292,0.00992379,1385,1751,8.85102,-72.083
168,-727,8.82385,71.8029,0.00126644,0.00784042,-0.00229704,0.0085635,0.000543355,-1.26583,0.00553678,0.0119793,1392,1751,8.82386,-71.8029
175,-727,8.80994,71.4811,0.000812325,0.00764538,-0.00226186,0.00832625,0.000131453,-1.2784,0.00550754,0.0173234,1399,1751,8.80993,-71.4811
182,-727,8.8158,71.1398,0.000270148,0.00721608,-0.00227032,0.00789231,-0.000406082,-1.28131,0.00540199,0.0201572,1406,1751,8.81578,-71.1398
189,-727,8.75293,70.7552,-0.000466322,0.00671704,-0.00241986,0.00745616,-0.00120545,-1.27435,0.00541748,0.0129727,1413,1751,8.75287,-70.7552
196,-727,8.72327,70.3616,-0.00180646,0.0028428,-0.0025145,0.00394258,-0.00290624,-1.15849,0.00396923,0.0150971,1420,1751,8.72321,-70.3616
203,-727,8.69324,69.9708,-0.0024534,0.00322111,-0.00285709,0.00441039,-0.00364268,-1.17636,0.00465648,0.0181297,1427,1751,8.69323,-69.9708
210,-727,8.66992,69.5952,-0.00257862,0.00409858,-0.00330066,0.00545473,-0.00393476,-1.18095,0.00544465,0.017147,1434,1751,8.66991,-69.5952
217,-727,8.63416,69.1833,-0.00280708,0.00457012,-0.00358386,0.00602446,-0.00426142,-1.1853,0.00596756,0.0130099,1441,1751,8.63413,-69.1834
224,-727,8.57434,68.7031,-0.00306301,0.00487745,-0.00377604,0.00638638,-0.00457194,-1.19063,0.00635563,0.013853,1448,1751,8.57429,-68.7031
231,-727,8.53857,68.2583,-0.00350598,0.00491931,-0.00398007,0.00650212,-0.00508879,-1.19229,0.00670858,0.0132506,1455,1751,8.53858,-68.2583
238,-727,8.55554,67.6101,-0.0039556,0.00503321,-0.00408209,0.0066103,-0.00553269,-1.20212,0.00701996,0.0343822,1462,1751,8.55557,-67.6101
245,-727,8.47058,67.3602,0,0,0,0,0,0,0,-1,1469,1751,8.47052,-67.3602
252,-727,8.4082,66.8441,0,0,0,0,0,0,0,-1,1476,1751,8.40819,-66.8441
259,-727,8.36462,66.2891,0,0,0,0,0,0,0,-1,1483,1751,8.36461,-66.289
266,-727,8.30249,65.7012,0,0,0,0,0,0,0,-1,1490,1751,8.30252,-65.7012
273,-727,8.28772,65.1857,0,0,0,0,0,0,0,-1,1497,1751,8.28777,-65.1857
280,-727,8.12524,64.7188,0,0,0,0,0,0,0,-1,1504,1751,8.12521,-64.7188
287,-727,8.02332,63.9521,0,0,0,0,0,0,0,-1,1511,1751,8.02334,-63.9522
294,-727,8.48657,53.1189,0,0,0,0,0,0,0,-1,1518,1751,8.48656,-53.1189
301,-727,8.44385,46.1619,0,0,0,0,0,0,0,-1,1525,1751,8.4439,-46.1619
308,-727,8.77002,44.8007,0,0,0,0,0,0,0,-1,1532,1751,8.76996,-44.8006
315,-727,8.10571,41.24,0,0,0,0,0,0,0,-1,1539,1751,8.10567,-41.2399
322,-727,8.24133,40.2081,0,0,0,0,0,0,0,-1,1546,1751,8.24136,-40.2082
329,-727,5.54419,31.0325,0,0,0,0,0,0,0,-1,1553,1751,5.54425,-31.0325
336,-727,5.55823,20.2439,0,0,0,0,0,0,0,-1,1560,1751,5.55829,-20.2438
343,-727,2.41699,8.72095,0,0,0,0,0,0,0,-1,1567,1751,2.41702,-8.72098
350,-727,3.89783,7.50195,0,0,0,0,0,0,0,-1,1574,1751,3.89782,-7.50193
357,-727,4.48462,10.2948,0,0,0,0,0,0,0,-1,1581,1751,4.48464,-10.2948
364,-727,6.96729,17.2365,0,0,0,0,0,0,0,-1,1588,1751,6.96732,-17.2365
371,-727,5.04565,23.2227,0,0,0,0,0,0,0,-1,1595,1751,5.04564,-23.2227
378,-727,4.56726,23.0574,0,0,0,0,0,0,0,-1,1602,1751,4.56727,-23.0574
385,-727,3.52307,22.6431,0,0,0,0,0,0,0,-1,1609,1751,3.52303,-22.643
392,-727,0,0,0,0,0,0,0,0,0,-1,1616,1751,0,0
399,-727,0,0,0,0,0,0,0,0,0,-1,1623,1751,0,0
406,-727,0,0,0,0,0,0,0,0,0,-1,1630,1751,0,0
413,-727,0,0,0,0,0,0,0,0,0,-1,1637,1751,0,0
420,-727,0,0,0,0,0,0,0,0,0,-1,1644,1751,0,0
427,-727,0,0,0,0,0,0,0,0,0,-1,1651,1751,0,0
434,-727,0,0,0,0,0,0,0,0,0,-1,1658,1751,0,0
441,-727,0,0,0,0,0,0,0,0,0,-1,1665,1751,0,0
448,-727,0,0,0,0,0,0,0,0,0,-1,1672,1751,0,0
455,-727,0,0,0,0,0,0,0,0,0,-1,1679,1751,0,0
462,-727,0,0,0,0,0,0,0,0,0,-1,1686,1751,0,0
469,-727,0,0,0,0,0,0,0,0,0,-1,1693,1751,0,0
476,-727,0,0,0,0,0,0,0,0,0,-1,1700,1751,0,0
483,-727,0,0,0,0,0,0,0,0,0,-1,1707,1751,0,0
490,-727,0,0,0,0,0,0,0,0,0,-1,1714,1751,0,0
497,-727,0,0,0,0,0,0,0,0,0,-1,1721,1751,0,0
504,-727,0,0,0,0,0,0,0,0,0,-1,1728,1751,0,0
511,-727,0,0,0,0,0,0,0,0,0,-1,1735,1751,0,0
518,-727,0,0,0,0,0,0,0,0,0,-1,1742,1751,0,0
525,-727,0,0,0,0,0,0,0,0,0,-1,1749,1751,0,0
532,-727,0,0,0,0,0,0,0,0,0,-1,1756,1751,0,0
539,-727,0,0,0,0,0,0,0,0,0,-1,1763,1751,0,0
546,-727,0,0,0,0,0,0,0,0,0,-1,1770,1751,0,0
553,-727,0,0,0,0,0,0,0,0,0,-1,1777,1751,0,0
560,-727,0,0,0,0,0,0,0,0,0,-1,1784,1751,0,0
567,-727,0,0,0,0,0,0,0,0,0,-1,1791,1751,0,0
574,-727,0,0,0,0,0,0,0,0,0,-1,1798,1751,0,0
581,-727,0,0,0,0,0,0,0,0,0,-1,1805,1751,0,0
588,-727,0,0,0,0,0,0,0,0,0,-1,1812,1751,0,0
595,-727,0,0,0,0,0,0,0,0,0,-1,1819,1751,0,0
602,-727,0,0,0,0,0,0,0,0,0,-1,1826,1751,0,0
609,-727,0,0,0,0,0,0,0,0,0,-1,1833,1751,0,0
616,-727,0,0,0,0,0,0,0,0,0,-1,1840,1751,0,0
623,-727,0,0,0,0,0,0,0,0,0,-1,1847,1751,0,0
630,-727,0,0,0,0,0,0,0,0,0,-1,1854,1751,0,0
637,-727,0,0,0,0,0,0,0,0,0,-1,1861,1751,0,0
644,-727,0,0,0,0,0,0,0,0,0,-1,1868,1751,0,0
651,-727,0,0,0,0,0,0,0,0,0,-1,1875,1751,0,0
658,-727,0,0,0,0,0,0,0,0,0,-1,1882,1751,0,0
665,-727,0,0,0,0,0,0,0,0,0,-1,1889,1751,0,0
672,-727,0,0,0,0,0,0,0,0,0,-1,1896,1751,0,0
679,-727,0,0,0,0,0,0,0,0,0,-1,1903,1751,0,0
686,-727,0,0,0,0,0,0,0,0,0,-1,1910,1751,0,0
693,-727,0,0,0,0,0,0,0,0,0,-1,1917,1751,0,0
700,-727,0,0,0,0,0,0,0,0,0,-1,1924,1751,0,0
707,-727,0,0,0,0,0,0,0,0,0,-1,1931,1751,0,0
714,-727,0,0,0,0,0,0,0,0,0,-1,1938,1751,0,0
721,-727,0,0,0,0,0,0,0,0,0,-1,1945,1751,0,0
728,-727,0,0,0,0,0,0,0,0,0,-1,1952,1751,0,0
735,-727,0,0,0,0,0,0,0,0,0,-1,1959,1751,0,0
742,-727,0,0,0,0,0,0,0,0,0,-1,1966,1751,0,0
749,-727,0,0,0,0,0,0,0,0,0,-1,1973,1751,0,0
756,-727,0,0,0,0,0,0,0,0,0,-1,1980,1751,0,0
763,-727,0,0,0,0,0,0,0,0,0,-1,1987,1751,0,0
770,-727,0,0,0,0,0,0,0,0,0,-1,1994,1751,0,0
777,-727,0,0,0,0,0,0,0,0,0,-1,2001,1751,0,0
784,-727,0,0,0,0,0,0,0,0,0,-1,2008,1751,0,0
791,-727,0,0,0,0,0,0,0,0,0,-1,2015,1751,0,0
798,-727,0,0,0,0,0,0,0,0,0,-1,2022,1751,0,0
805,-727,0,0,0,0,0,0,0,0,0,-1,2029,1751,0,0
812,-727,0,0,0,0,0,0,0,0,0,-1,2036,1751,0,0
-700,-734,0,0,0,0,0,0,0,0,0,-1,524,1758,0,0
-693,-734,0,0,0,0,0,0,0,0,0,-1,531,1758,0,0
-686,-734,0,0,0,0,0,0,0,0,0,-1,538,1758,0,0
-679,-734,0,0,0,0,0,0,0,0,0,-1,545,1758,0,0
-672,-734,0,0,0,0,0,0,0,0,0,-1,552,1758,0,0
-665,-734,0,0,0,0,0,0,0,0,0,-1,559,1758,0,0
-658,-734,0,0,0,0,0,0,0,0,0,-1,566,1758,0,0
-651,-734,0,0,0,0,0,0,0,0,0,-1,573,1758,0,0
-644,-734,0,0,0,0,0,0,0,0,0,-1,580,1758,0,0
-637,-734,0,0,0,0,0,0,0,0,0,-1,587,1758,0,0
-630,-734,0,0,0,0,0,0,0,0,0,-1,594,1758,0,0
-623,-734,0,0,0,0,0,0,0,0,0,-1,601,1758,0,0
-616,-734,0,0,0,0,0,0,0,0,0,-1,608,1758,0,0
-609,-734,0,0,0,0,0,0,0,0,0,-1,615,1758,0,0
-602,-734,0,0,0,0,0,0,0,0,0,-1,622,1758,0,0
-595,-734,0,0,0,0,0,0,0,0,0,-1,629,1758,0,0
-588,-734,0,0,0,0,0,0,0,0,0,-1,636,1758,0,0
-581,-734,0,0,0,0,0,0,0,0,0,-1,643,1758,0,0
-574,-734,0,0,0,0,0,0,0,0,0,-1,650,1758,0,0
-567,-734,0,0,0,0,0,0,0,0,0,-1,657,1758,0,0
-560,-734,0,0,0,0,0,0,0,0,0,-1,664,1758,0,0
-553,-734,0,0,0,0,0,0,0,0,0,-1,671,1758,0,0
-546,-734,0,0,0,0,0,0,0,0,0,-1,678,1758,0,0
-539,-734,0,0,0,0,0,0,0,0,0,-1,685,1758,0,0
-532,-734,0,0,0,0,0,0,0,0,0,-1,692,1758,0,0
-525,-734,0,0,0,0,0,0,0,0,0,-1,699,1758,0,0
-518,-734,0,0,0,0,0,0,0,0,0,-1,706,1758,0,0
-511,-734,0,0,0,0,0,0,0,0,0,-1,713,1758,0,0
-504,-734,0,0,0,0,0,0,0,0,0,-1,720,1758,0,0
-497,-734,0,0,0,0,0,0,0,0,0,-1,727,1758,0,0
-490,-734,0,0,0,0,0,0,0,0,0,-1,734,1758,0,0
-483,-734,0,0,0,0,0,0,0,0,0,-1,741,1758,0,0
-476,-734,0,0,0,0,0,0,0,0,0,-1,748,1758,0,0
-469,-734,0,0,0,0,0,0,0,0,0,-1,755,1758,0,0
-462,-734,0,0,0,0,0,0,0,0,0,-1,762,1758,0,0
-455,-734,0,0,0,0,0,0,0,0,0,-1,769,1758,0,0
-448,-734,0,0,0,0,0,0,0,0,0,-1,776,1758,0,0
-441,-734,0,0,0,0,0,0,0,0,0,-1,783,1758,0,0
-434,-734,0,0,0,0,0,0,0,0,0,-1,790,1758,0,0
-427,-734,0,0,0,0,0,0,0,0,0,-1,797,1758,0,0
-420,-734,0,0,0,0,0,0,0,0,0,-1,804,1758,0,0
-413,-734,0,0,0,0,0,0,0,0,0,-1,811,1758,0,0
-406,-734,0,0,0,0,0,0,0,0,0,-1,818,1758,0,0
-399,-734,0,0,0,0,0,0,0,0,0,-1,825,1758,0,0
-392,-734,0,0,0,0,0,0,0,0,0,-1,832,1758,0,0
-385,-734,0,0,0,0,0,0,0,0,0,-1,839,1758,0,0
-378,-734,0,0,0,0,0,0,0,0,0,-1,846,1758,0,0
-371,-734,0,0,0,0,0,0,0,0,0,-1,853,1758,0,0
-364,-734,0,0,0,0,0,0,0,0,0,-1,860,1758,0,0
-357,-734,0,0,0,0,0,0,0,0,0,-1,867,1758,0,0
-350,-734,0,0,0,0,0,0,0,0,0,-1,874,1758,0,0
-343,-734,0,0,0,0,0,0,0,0,0,-1,881,1758,0,0
-336,-734,0,0,0,0,0,0,0,0,0,-1,888,1758,0,0
-329,-734,0,0,0,0,0,0,0,0,0,-1,895,1758,0,0
-322,-734,0,0,0,0,0,0,0,0,0,-1,902,1758,0,0
-315,-734,0,0,0,0,0,0,0,0,0,-1,909,1758,0,0
-308,-734,0,0,0,0,0,0,0,0,0,-1,916,1758,0,0
-301,-734,0,0,0,0,0,0,0,0,0,-1,923,1758,0,0
-294,-734,0,0,0,0,0,0,0,0,0,-1,930,1758,0,0
-287,-734,0,0,0,0,0,0,0,0,0,-1,937,1758,0,0
-280,-734,0,0,0,0,0,0,0,0,0,-1,944,1758,0,0
-273,-734,0,0,0,0,0,0,0,0,0,-1,951,1758,0,0
-266,-734,0,0,0,0,0,0,0,0,0,-1,958,1758,0,0
-259,-734,0,0,0,0,0,0,0,0,0,-1,965,1758,0,0
-252,-734,5.73883,31.5245,0,0,0,0,0,0,0,-1,972,1758,5.73884,-31.5246
-245,-734,6.32513,30.9761,0,0,0,0,0,0,0,-1,979,1758,6.32511,-30.9761
-238,-734,6.82385,30.0449,0,0,0,0,0,0,0,-1,986,1758,6.82387,-30.0449
-231,-734,7.1958,29.1666,0,0,0,0,0,0,0,-1,993,1758,7.19578,-29.1666
-224,-734,10.8631,52.8424,0,0,0,0,0,0,0,-1,1000,1758,10.8631,-52.8424
-217,-734,7.45984,28.4386,0,0,0,0,0,0,0,-1,1007,1758,7.45986,-28.4386
-210,-734,7.45483,28.4388,0,0,0,0,0,0,0,-1,1014,1758,7.45482,-28.4388
-203,-734,14.3309,49.7766,0,0,0,0,0,0,0,-1,1021,1758,14.3309,-49.7766
-196,-734,13.0366,49.6821,0,0,0,0,0,0,0,-1,1028,1758,13.0366,-49.6822
-189,-734,11.8075,49.2727,0,0,0,0,0,0,0,-1,1035,1758,11.8075,-49.2728
-182,-734,10.8073,48.8035,0,0,0,0,0,0,0,-1,1042,1758,10.8072,-48.8035
-175,-734,9.47937,63.9219,0,0,0,0,0,0,0,-1,1049,1758,9.47937,-63.9219
-168,-734,10.7595,63.7695,0,0,0,0,0,0,0,-1,1056,1758,10.7595,-63.7695
-161,-734,10.8724,64.5072,0,0,0,0,0,0,0,-1,1063,1758,10.8724,-64.5072
-154,-734,10.3014,52.4893,0,0,0,0,0,0,0,-1,1070,1758,10.3014,-52.4893
-147,-734,10.325,56.6101,0,0,0,0,0,0,0,-1,1077,1758,10.3249,-56.6101
-140,-734,9.82092,66.153,0,0,0,0,0,0,0,-1,1084,1758,9.82092,-66.1529
-133,-734,9.8551,66.8009,0,0,0,0,0,0,0,-1,1091,1758,9.85516,-66.8009
-126,-734,9.77124,67.3184,0,0,0,0,0,0,0,-1,1098,1758,9.77125,-67.3184
-119,-734,9.82996,66.3767,0,0,0,0,0,0,0,-1,1105,1758,9.82997,-66.3767
-112,-734,9.52307,61.2794,0,0,0,0,0,0,0,-1,1112,1758,9.52313,-61.2794
-105,-734,9.39783,63.9799,0,0,0,0,0,0,0,-1,1119,1758,9.39786,-63.9798
-98,-734,9.51892,69.1396,0,0,0,0,0,0,0,-1,1126,1758,9.51886,-69.1396
-91,-734,9.52222,69.6355,0,0,0,0,0,0,0,-1,1133,1758,9.52222,-69.6354
-84,-734,9.44849,70.051,0,0,0,0,0,0,0,-1,1140,1758,9.44851,-70.0511
-77,-734,9.39099,70.4844,0,0,0,0,0,0,0,-1,1147,1758,9.39098,-70.4843
-70,-734,9.23364,70.5844,0,0,0,0,0,0,0,-1,1154,1758,9.23358,-70.5843
-63,-734,9.24072,71.004,-0.00522919,0.00527047,0.00373036,0.00646085,-0.00641958,1.2619,0.00743653,0.0369779,1161,1758,9.2407,-71.004
-56,-734,9.25818,71.4856,-0.00513427,0.00518566,0.00344016,0.0062273,-0.00617591,1.27678,0.00716102,0.0194837,1168,1758,9.25817,-71.4855
-49,-734,9.20374,71.8448,-0.00423232,0.00506638,0.00314267,0.00602888,-0.00519482,1.2736,0.00648597,0.0156023,1175,1758,9.20378,-71.8449
-42,-734,9.17896,72.1744,-0.00304942,0.00548064,0.00258509,0.00620291,-0.00377169,1.29835,0.00581558,0.0160174,1182,1758,9.17897,-72.1744
-35,-734,9.16394,72.4449,-0.00208789,0.00578502,0.00211649,0.00631793,-0.0026208,1.32414,0.00530588,0.0149695,1189,1758,9.16391,-72.445
-28,-734,9.13196,72.6707,-0.00122967,0.00595897,0.00200135,0.0064786,-0.00174929,1.31677,0.00500512,0.0102228,1196,1758,9.13191,-72.6706
-21,-734,9.14307,72.9014,-0.000635637,0.00611977,0.00187265,0.00660416,-0.00112002,1.31768,0.00481969,0.0164734,1203,1758,9.14306,-72.9014
-14,-734,9.07239,73.1594,-0.000156023,0.00616112,0.0017525,0.00661473,-0.000609628,1.31752,0.00462644,0.017034,1210,1758,9.0724,-73.1594
-7,-734,9.03601,73.3568,0.000236192,0.00614363,0.00158044,0.00653988,-0.000160053,1.32514,0.00441424,0.0175778,1217,1758,9.03597,-73.3568
0,-734,8.99963,73.5293,0.000484651,0.00625504,0.00149285,0.00661837,0.000121313,1.33205,0.00437237,0.0173949,1224,1758,8.99965,-73.5294
7,-734,8.98792,73.6982,0.000561013,0.00636121,0.0014687,0.0067119,0.000210319,1.33641,0.00440617,0.0137184,1231,1758,8.98791,-73.6983
14,-734,8.97437,73.8402,0.000459299,0.00637693,0.00145197,0.00671399,0.000122238,1.3427,0.00443581,0.0146905,1238,1758,8.97438,-73.8402
21,-734,8.91882,73.9423,0.000239788,0.00636174,0.00141662,0.00667365,-7.21253e-05,1.35407,0.00447334,0.0132945,1245,1758,8.91886,-73.9423
28,-734,8.91504,74.0527,-7.34338e-05,0.00633462,0.00143349,0.00664067,-0.000379492,1.36045,0.00455888,0.0125375,1252,1758,8.91506,-74.0527
35,-734,8.9187,74.1595,-0.000459633,0.00619425,0.00145343,0.00649788,-0.000763257,1.36486,0.00460746,0.0154201,1259,1758,8.91867,-74.1596
42,-734,8.90845,74.1967,-0.000975882,0.0062319,0.00165802,0.00659501,-0.00133898,1.3552,0.00490431,0.0129201,1266,1758,8.90847,-74.1967
49,-734,8.86707,74.2308,-0.00149408,0.00624675,0.00189288,0.00668482,-0.00193216,1.34337,0.00522116,0.0107467,1273,1758,8.86702,-74.2308
56,-734,8.83435,74.2644,-0.00188171,0.00649121,0.00215108,0.00701151,-0.00240202,1.33348,0.00564792,0.010778,1280,1758,8.83435,-74.2644
63,-734,8.84534,74.234,-0.00217584,0.00667545,0.00223278,0.00720678,-0.00270717,1.33717,0.00591707,0.014116,1287,1758,8.84537,-74.234
70,-734,8.8468,74.2151,-0.00228255,0.00692237,0.00212414,0.00738889,-0.00274908,1.3546,0.00605405,0.0146776,1294,1758,8.84677,-74.2151
77,-734,8.83508,74.1987,-0.00220526,0.00715588,0.00185079,0.00750851,-0.0025579,1.38252,0.00604158,0.0195279,1301,1758,8.83506,-74.1987
84,-734,8.80286,74.1255,-0.00188414,0.00749773,0.00152705,0.00774003,-0.00212643,1.41344,0.00599586,0.0190014,1308,1758,8.80291,-74.1255
91,-734,8.78223,74.0574,-0.00129792,0.00921194,0.00106428,0.00931863,-0.00140461,1.47088,0.00672966,0.0229133,1315,1758,8.78221,-74.0574
98,-734,8.8042,73.9449,-0.000740186,0.00999284,0.000522801,0.0100182,-0.000765592,1.52224,0.0069481,0.0165834,1322,1758,8.80425,-73.945
105,-734,8.78723,73.8126,-0.000221621,0.0107973,-7.83793e-05,0.0107978,-0.000222178,-1.56368,0.00727375,0.0162311,1329,1758,8.78725,-73.8127
112,-734,8.78638,73.6509,0.000317506,0.0117015,-0.000838523,0.011763,0.000256074,-1.49766,0.00775803,0.0139513,1336,1758,8.78634,-73.6509
119,-734,8.79517,73.4758,0.000806135,0.0126258,-0.00159691,0.0128378,0.000594182,-1.43884,0.00836749,0.0147541,1343,1758,8.79512,-73.4759
126,-734,8.75964,73.2753,0.0012857,0.0134963,-0.00225282,0.0138987,0.000883321,-1.39405,0.00898586,0.0169527,1350,1758,8.75961,-73.2752
133,-734,8.6864,73.0862,0.00167576,0.0142997,-0.00285073,0.0149136,0.00106186,-1.35869,0.009608,0.0155331,1357,1758,8.68639,-73.0861
140,-734,8.68848,72.9031,0.00188413,0.0149444,-0.00330669,0.0157339,0.00109465,-1.33643,0.0101441,0.0204182,1364,1758,8.68843,-72.9031
147,-734,8.65479,72.623,0.0020964,0.0152927,-0.00380855,0.016313,0.00107611,-1.30905,0.0105349,0.0151583,1371,1758,8.65484,-72.6231
154,-734,8.60303,72.3625,0.00209324,0.015465,-0.00416165,0.0166544,0.000903819,-1.29241,0.0108143,0.0114368,1378,1758,8.60305,-72.3626
161,-734,8.57788,72.1072,0.00177697,0.015308,-0.00438533,0.016605,0.000480026,-1.28325,0.0109135,0.00985647,1385,1758,8.57785,-72.1072
168,-734,8.52271,71.7947,0.00120364,0.0147984,-0.00423999,0.0160124,-1.0347e-05,-1.29194,0.0106784,0.0142789,1392,1758,8.52275,-71.7947
175,-734,8.48401,71.469,0.00066349,0.0139297,-0.00387385,0.014978,-0.000384864,-1.3065,0.0101161,0.0181699,1399,1758,8.48404,-71.469
182,-734,8.48901,71.1075,3.20677e-05,0.0127206,-0.00354946,0.0136461,-0.000893353,-1.31575,0.00940931,0.0169974,1406,1758,8.48904,-71.1075
189,-734,8.43188,70.7418,-0.00116433,0.0113006,-0.00344895,0.0121913,-0.00205498,-1.31808,0.00889201,0.0127946,1413,1758,8.43194,-70.7418
196,-734,8.37927,70.3639,-0.00344389,0.00358415,-0.00333029,0.00491153,-0.00477127,-1.19152,0.00559056,0.0155888,1420,1758,8.37922,-70.3639
203,-734,8.36621,69.9436,-0.00444374,0.00401984,-0.00373955,0.00543538,-0.00585928,-1.20893,0.0065225,0.0226098,1427,1758,8.36627,-69.9436
210,-734,8.34717,69.521,-0.00444196,0.00538924,-0.00434836,0.00703651,-0.00608924,-1.20867,0.00758473,0.0395861,1434,1758,8.34722,-69.521
217,-734,8.23853,69.2113,0,0,0,0,0,0,0,-1,1441,1758,8.2385,-69.2113
224,-734,8.1886,68.7596,0,0,0,0,0,0,0,-1,1448,1758,8.18855,-68.7597
231,-734,8.04871,68.2251,0,0,0,0,0,0,0,-1,1455,1758,8.04871,-68.2251
238,-734,8.13745,67.2288,0,0,0,0,0,0,0,-1,1462,1758,8.13744,-67.2288
245,-734,8.29065,60.4988,0,0,0,0,0,0,0,-1,1469,1758,8.29062,-60.4987
252,-734,8.17517,58.5679,0,0,0,0,0,0,0,-1,1476,1758,8.1752,-58.5678
259,-734,8.07666,59.5597,0,0,0,0,0,0,0,-1,1483,1758,8.07667,-59.5597
266,-734,7.97253,63.3893,0,0,0,0,0,0,0,-1,1490,1758,7.97259,-63.3893
273,-734,8.22437,62.0486,0,0,0,0,0,0,0,-1,1497,1758,8.22438,-62.0485
280,-734,7.90149,52.7294,0,0,0,0,0,0,0,-1,1504,1758,7.90153,-52.7294
287,-734,7.56177,50.5933,0,0,0,0,0,0,0,-1,1511,1758,7.56172,-50.5933
294,-734,7.42676,47.7545,0,0,0,0,0,0,0,-1,1518,1758,7.4268,-47.7545
301,-734,7.21814,42.6078,0,0,0,0,0,0,0,-1,1525,1758,7.21809,-42.6078
308,-734,8.0509,41.5156,0,0,0,0,0,0,0,-1,1532,1758,8.05087,-41.5157
315,-734,7.93787,40.8274,0,0,0,0,0,0,0,-1,1539,1758,7.93784,-40.8273
322,-734,7.82483,40.139,0,0,0,0,0,0,0,-1,1546,1758,7.82481,-40.139
329,-734,5.73267,19.656,0,0,0,0,0,0,0,-1,1553,1758,5.73262,-19.656
336,-734,6.71375,23.7469,0,0,0,0,0,0,0,-1,1560,1758,6.71372,-23.7469
343,-734,5.54968,5.14221,0,0,0,0,0,0,0,-1,1567,1758,5.54973,-5.14225
350,-734,5.07397,6.73242,0,0,0,0,0,0,0,-1,1574,1758,5.07402,-6.73243
357,-734,5.05542,7.19189,0,0,0,0,0,0,0,-1,1581,1758,5.05541,-7.19184
364,-734,4.43896,10.4904,0,0,0,0,0,0,0,-1,1588,1758,4.43893,-10.4904
371,-734,7.36975,17.4751,0,0,0,0,0,0,0,-1,1595,1758,7.36972,-17.4752
378,-734,0,0,0,0,0,0,0,0,0,-1,1602,1758,0,0
385,-734,0,0,0,0,0,0,0,0,0,-1,1609,1758,0,0
392,-734,0,0,0,0,0,0,0,0,0,-1,1616,1758,0,0
399,-734,0,0,0,0,0,0,0,0,0,-1,1623,1758,0,0
406,-734,0,0,0,0,0,0,0,0,0,-1,1630,1758,0,0
413,-734,0,0,0,0,0,0,0,0,0,-1,1637,1758,0,0
420,-734,0,0,0,0,0,0,0,0,0,-1,1644,1758,0,0
427,-734,0,0,0,0,0,0,0,0,0,-1,1651,1758,0,0
434,-734,0,0,0,0,0,0,0,0,0,-1,1658,1758,0,0
441,-734,0,0,0,0,0,0,0,0,0,-1,1665,1758,0,0
448,-734,0,0,0,0,0,0,0,0,0,-1,1672,1758,0,0
455,-734,0,0,0,0,0,0,0,0,0,-1,1679,1758,0,0
462,-734,0,0,0,0,0,0,0,0,0,-1,1686,1758,0,0
469,-734,0,0,0,0,0,0,0,0,0,-1,1693,1758,0,0
476,-734,0,0,0,0,0,0,0,0,0,-1,1700,1758,0,0
483,-734,0,0,0,0,0,0,0,0,0,-1,1707,1758,0,0
490,-734,0,0,0,0,0,0,0,0,0,-1,1714,1758,0,0
497,-734,0,0,0,0,0,0,0,0,0,-1,1721,1758,0,0
504,-734,0,0,0,0,0,0,0,0,0,-1,1728,1758,0,0
511,-734,0,0,0,0,0,0,0,0,0,-1,1735,1758,0,0
518,-734,0,0,0,0,0,0,0,0,0,-1,1742,1758,0,0
525,-734,0,0,0,0,0,0,0,0,0,-1,1749,1758,0,0
532,-734,0,0,0,0,0,0,0,0,0,-1,1756,1758,0,0
539,-734,0,0,0,0,0,0,0,0,0,-1,1763,1758,0,0
546,-734,0,0,0,0,0,0,0,0,0,-1,1770,1758,0,0
553,-734,0,0,0,0,0,0,0,0,0,-1,1777,1758,0,0
560,-734,0,0,0,0,0,0,0,0,0,-1,1784,1758,0,0
567,-734,0,0,0,0,0,0,0,0,0,-1,1791,1758,0,0
574,-734,0,0,0,0,0,0,0,0,0,-1,1798,1758,0,0
581,-734,0,0,0,0,0,0,0,0,0,-1,1805,1758,0,0
588,-734,0,0,0,0,0,0,0,0,0,-1,1812,1758,0,0
595,-734,0,0,0,0,0,0,0,0,0,-1,1819,1758,0,0
602,-734,0,0,0,0,0,0,0,0,0,-1,1826,1758,0,0
609,-734,0,0,0,0,0,0,0,0,0,-1,1833,1758,0,0
616,-734,0,0,0,0,0,0,0,0,0,-1,1840,1758,0,0
623,-734,0,0,0,0,0,0,0,0,0,-1,1847,1758,0,0
630,-734,0,0,0,0,0,0,0,0,0,-1,1854,1758,0,0
637,-734,0,0,0,0,0,0,0,0,0,-1,1861,1758,0,0
644,-734,0,0,0,0,0,0,0,0,0,-1,1868,1758,0,0
651,-734,0,0,0,0,0,0,0,0,0,-1,1875,1758,0,0
658,-734,0,0,0,0,0,0,0,0,0,-1,1882,1758,0,0
665,-734,0,0,0,0,0,0,0,0,0,-1,1889,1758,0,0
672,-734,0,0,0,0,0,0,0,0,0,-1,1896,1758,0,0
679,-734,0,0,0,0,0,0,0,0,0,-1,1903,1758,0,0
686,-734,0,0,0,0,0,0,0,0,0,-1,1910,1758,0,0
693,-734,0,0,0,0,0,0,0,0,0,-1,1917,1758,0,0
700,-734,0,0,0,0,0,0,0,0,0,-1,1924,1758,0,0
707,-734,0,0,0,0,0,0,0,0,0,-1,1931,1758,0,0
714,-734,0,0,0,0,0,0,0,0,0,-1,1938,1758,0,0
721,-734,0,0,0,0,0,0,0,0,0,-1,1945,1758,0,0
728,-734,0,0,0,0,0,0,0,0,0,-1,1952,1758,0,0
735,-734,0,0,0,0,0,0,0,0,0,-1,1959,1758,0,0
742,-734,0,0,0,0,0,0,0,0,0,-1,1966,1758,0,0
749,-734,0,0,0,0,0,0,0,0,0,-1,1973,1758,0,0
756,-734,0,0,0,0,0,0,0,0,0,-1,1980,1758,0,0
763,-734,0,0,0,0,0,0,0,0,0,-1,1987,1758,0,0
770,-734,0,0,0,0,0,0,0,0,0,-1,1994,1758,0,0
777,-734,0,0,0,0,0,0,0,0,0,-1,2001,1758,0,0
784,-734,0,0,0,0,0,0,0,0,0,-1,2008,1758,0,0
791,-734,0,0,0,0,0,0,0,0,0,-1,2015,1758,0,0
798,-734,0,0,0,0,0,0,0,0,0,-1,2022,1758,0,0
805,-734,0,0,0,0,0,0,0,0,0,-1,2029,1758,0,0
812,-734,0,0,0,0,0,0,0,0,0,-1,2036,1758,0,0
-700,-741,0,0,0,0,0,0,0,0,0,-1,524,1765,0,0
-693,-741,0,0,0,0,0,0,0,0,0,-1,531,1765,0,0
-686,-741,0,0,0,0,0,0,0,0,0,-1,538,1765,0,0
-679,-741,0,0,0,0,0,0,0,0,0,-1,545,1765,0,0
-672,-741,0,0,0,0,0,0,0,0,0,-1,552,1765,0,0
-665,-741,0,0,0,0,0,0,0,0,0,-1,559,1765,0,0
-658,-741,0,0,0,0,0,0,0,0,0,-1,566,1765,0,0
-651,-741,0,0,0,0,0,0,0,0,0,-1,573,1765,0,0
-644,-741,0,0,0,0,0,0,0,0,0,-1,580,1765,0,0
-637,-741,0,0,0,0,0,0,0,0,0,-1,587,1765,0,0
-630,-741,0,0,0,0,0,0,0,0,0,-1,594,1765,0,0
-623,-741,0,0,0,0,0,0,0,0,0,-1,601,1765,0,0
-616,-741,0,0,0,0,0,0,0,0,0,-1,608,1765,0,0
-609,-741,0,0,0,0,0,0,0,0,0,-1,615,1765,0,0
-602,-741,0,0,0,0,0,0,0,0,0,-1,622,1765,0,0
-595,-741,0,0,0,0,0,0,0,0,0,-1,629,1765,0,0
-588,-741,0,0,0,0,0,0,0,0,0,-1,636,1765,0,0
-581,-741,0,0,0,0,0,0,0,0,0,-1,643,1765,0,0
-574,-741,0,0,0,0,0,0,0,0,0,-1,650,1765,0,0
-567,-741,0,0,0,0,0,0,0,0,0,-1,657,1765,0,0
-560,-741,0,0,0,0,0,0,0,0,0,-1,664,1765,0,0
-553,-741,0,0,0,0,0,0,0,0,0,-1,671,1765,0,0
-546,-741,0,0,0,0,0,0,0,0,0,-1,678,1765,0,0
-539,-741,0,0,0,0,0,0,0,0,0,-1,685,1765,0,0
-532,-741,0,0,0,0,0,0,0,0,0,-1,692,1765,0,0
-525,-741,0,0,0,0,0,0,0,0,0,-1,699,1765,0,0
-518,-741,0,0,0,0,0,0,0,0,0,-1,706,1765,0,0
-511,-741,0,0,0,0,0,0,0,0,0,-1,713,1765,0,0
-504,-741,0,0,0,0,0,0,0,0,0,-1,720,1765,0,0
-497,-741,0,0,0,0,0,0,0,0,0,-1,727,1765,0,0
-490,-741,0,0,0,0,0,0,0,0,0,-1,734,1765,0,0
-483,-741,0,0,0,0,0,0,0,0,0,-1,741,1765,0,0
-476,-741,0,0,0,0,0,0,0,0,0,-1,748,1765,0,0
-469,-741,0,0,0,0,0,0,0,0,0,-1,755,1765,0,0
-462,-741,0,0,0,0,0,0,0,0,0,-1,762,1765,0,0
-455,-741,0,0,0,0,0,0,0,0,0,-1,769,1765,0,0
-448,-741,0,0,0,0,0,0,0,0,0,-1,776,1765,0,0
-441,-741,0,0,0,0,0,0,0,0,0,-1,783,1765,0,0
-434,-741,0,0,0,0,0,0,0,0,0,-1,790,1765,0,0
-427,-741,0,0,0,0,0,0,0,0,0,-1,797,1765,0,0
-420,-741,0,0,0,0,0,0,0,0,0,-1,804,1765,0,0
-413,-741,0,0,0,0,0,0,0,0,0,-1,811,1765,0,0
-406,-741,0,0,0,0,0,0,0,0,0,-1,818,1765,0,0
-399,-741,0,0,0,0,0,0,0,0,0,-1,825,1765,0,0
-392,-741,0,0,0,0,0,0,0,0,0,-1,832,1765,0,0
-385,-741,0,0,0,0,0,0,0,0,0,-1,839,1765,0,0
-378,-741,0,0,0,0,0,0,0,0,0,-1,846,1765,0,0
-371,-741,0,0,0,0,0,0,0,0,0,-1,853,1765,0,0
-364,-741,0,0,0,0,0,0,0,0,0,-1,860,1765,0,0
-357,-741,0,0,0,0,0,0,0,0,0,-1,867,1765,0,0
-350,-741,0,0,0,0,0,0,0,0,0,-1,874,1765,0,0
-343,-741,0,0,0,0,0,0,0,0,0,-1,881,1765,0,0
-336,-741,0,0,0,0,0,0,0,0,0,-1,888,1765,0,0
-329,-741,0,0,0,0,0,0,0,0,0,-1,895,1765,0,0
-322,-741,0,0,0,0,0,0,0,0,0,-1,902,1765,0,0
-315,-741,0,0,0,0,0,0,0,0,0,-1,909,1765,0,0
-308,-741,0,0,0,0,0,0,0,0,0,-1,916,1765,0,0
-301,-741,0,0,0,0,0,0,0,0,0,-1,923,1765,0,0
-294,-741,0,0,0,0,0,0,0,0,0,-1,930,1765,0,0
-287,-741,0,0,0,0,0,0,0,0,0,-1,937,1765,0,0
-280,-741,0,0,0,0,0,0,0,0,0,-1,944,1765,0,0
-273,-741,0,0,0,0,0,0,0,0,0,-1,951,1765,0,0
-266,-741,0,0,0,0,0,0,0,0,0,-1,958,1765,0,0
-259,-741,0,0,0,0,0,0,0,0,0,-1,965,1765,0,0
-252,-741,0,0,0,0,0,0,0,0,0,-1,972,1765,0,0
-245,-741,0,0,0,0,0,0,0,0,0,-1,979,1765,0,0
-238,-741,7.13855,29.8348,0,0,0,0,0,0,0,-1,986,1765,7.13856,-29.8348
-231,-741,7.74182,29.3066,0,0,0,0,0,0,0,-1,993,1765,7.74183,-29.3066
-224,-741,7.80078,29.0964,0,0,0,0,0,0,0,-1,1000,1765,7.80079,-29.0964
-217,-741,8.15863,29.113,0,0,0,0,0,0,0,-1,1007,1765,8.15863,-29.1131
-210,-741,8.37024,29.3896,0,0,0,0,0,0,0,-1,1014,1765,8.37022,-29.3896
-203,-741,7.703,44.0701,0,0,0,0,0,0,0,-1,1021,1765,7.70306,-44.0701
-196,-741,13.1698,50.7012,0,0,0,0,0,0,0,-1,1028,1765,13.1698,-50.7012
-189,-741,12.3024,50.0712,0,0,0,0,0,0,0,-1,1035,1765,12.3023,-50.0712
-182,-741,11.3236,49.675,0,0,0,0,0,0,0,-1,1042,1765,11.3236,-49.675
-175,-741,11.5299,64.0309,0,0,0,0,0,0,0,-1,1049,1765,11.53,-64.0309
-168,-741,11.5565,64.798,0,0,0,0,0,0,0,-1,1056,1765,11.5566,-64.798
-161,-741,11.5831,65.5651,0,0,0,0,0,0,0,-1,1063,1765,11.5832,-65.5651
-154,-741,7.93201,50.9395,0,0,0,0,0,0,0,-1,1070,1765,7.93195,-50.9395
-147,-741,10.9515,48.8568,0,0,0,0,0,0,0,-1,1077,1765,10.9515,-48.8569
-140,-741,10.5068,51.2876,0,0,0,0,0,0,0,-1,1084,1765,10.5068,-51.2876
-133,-741,10.6208,54.5072,0,0,0,0,0,0,0,-1,1091,1765,10.6208,-54.5072
-126,-741,9.89746,52.7167,0,0,0,0,0,0,0,-1,1098,1765,9.8975,-52.7167
-119,-741,9.33801,50.1482,0,0,0,0,0,0,0,-1,1105,1765,9.33802,-50.1482
-112,-741,9.6283,47.2815,0,0,0,0,0,0,0,-1,1112,1765,9.62827,-47.2815
-105,-741,9.61792,45.9158,0,0,0,0,0,0,0,-1,1119,1765,9.61797,-45.9158
-98,-741,9.19971,40.25,0,0,0,0,0,0,0,-1,1126,1765,9.19971,-40.25
-91,-741,8.40002,36.3687,0,0,0,0,0,0,0,-1,1133,1765,8.40002,-36.3687
-84,-741,7.8877,35.0892,0,0,0,0,0,0,0,-1,1140,1765,7.88776,-35.0892
-77,-741,7.73303,34.1174,0,0,0,0,0,0,0,-1,1147,1765,7.73304,-34.1174
-70,-741,7.5437,32.0275,0,0,0,0,0,0,0,-1,1154,1765,7.5437,-32.0275
-63,-741,9.30103,70.614,0,0,0,0,0,0,0,-1,1161,1765,9.30104,-70.614
-56,-741,9.5741,71.3673,0,0,0,0,0,0,0,-1,1168,1765,9.57413,-71.3673
-49,-741,9.47815,71.8921,0,0,0,0,0,0,0,-1,1175,1765,9.47812,-71.8921
-42,-741,9.42212,72.2672,0,0,0,0,0,0,0,-1,1182,1765,9.42212,-72.2672
-35,-741,9.4165,72.4436,-0.00167795,0.00887065,0.00304196,0.00968501,-0.00249231,1.30922,0.00742815,0.0243988,1189,1765,9.41651,-72.4436
-28,-741,9.39893,72.678,-0.000615496,0.00947063,0.00300063,0.0102958,-0.00144068,1.30243,0.00739105,0.0147029,1196,1765,9.39887,-72.678
-21,-741,9.36157,72.9125,1.60269e-05,0.0100577,0.00293963,0.010855,-0.000781226,1.30596,0.00751062,0.0185209,1203,1765,9.36152,-72.9124
-14,-741,9.26648,73.1722,0.000455539,0.0103842,0.00281745,0.011128,-0.000288246,1.31269,0.0075166,0.0186141,1210,1765,9.26653,-73.1722
-7,-741,9.22815,73.3549,0.000776212,0.0106297,0.00262899,0.0112872,0.000118655,1.32571,0.00748557,0.0153455,1217,1765,9.22816,-73.3549
0,-741,9.17871,73.4943,0.000791098,0.0109036,0.00252535,0.0114992,0.00019553,1.33919,0.00760178,0.0157287,1224,1765,9.17876,-73.4943
7,-741,9.12646,73.6682,0.000522549,0.0110762,0.00249109,0.0116347,-3.58978e-05,1.35026,0.00776846,0.0188788,1231,1765,9.12644,-73.6682
14,-741,9.09888,73.859,-7.06086e-05,0.01213,0.00241056,0.012589,-0.00052961,1.38264,0.00857467,0.0182731,1238,1765,9.0989,-73.859
21,-741,9.03979,73.9474,-0.000868259,0.0126249,0.00224352,0.0129881,-0.00123151,1.41028,0.00909707,0.0153948,1245,1765,9.03984,-73.9474
28,-741,8.98792,74.0552,-0.00176877,0.0131471,0.00231997,0.0134996,-0.00212128,1.42,0.00978381,0.0153287,1252,1765,8.98794,-74.0552
35,-741,8.98779,74.1383,-0.00276912,0.01364,0.00248823,0.014009,-0.00313813,1.42357,0.0105422,0.0158457,1259,1765,8.98775,-74.1383
42,-741,8.96436,74.1871,-0.0039142,0.0143369,0.00293932,0.0147986,-0.00437589,1.41499,0.0116027,0.016628,1266,1765,8.96433,-74.1871
49,-741,8.91711,74.2207,-0.00498186,0.0149992,0.00343095,0.0155719,-0.00555458,1.4054,0.0126461,0.0109121,1273,1765,8.91711,-74.2207
56,-741,8.85828,74.2528,-0.00583385,0.0158338,0.00391751,0.0165203,-0.00652039,1.39731,0.0137138,0.0106806,1280,1765,8.85827,-74.2529
63,-741,8.84326,74.2327,-0.00643925,0.0164858,0.00421911,0.0172377,-0.00719107,1.39445,0.0144961,0.0163555,1287,1765,8.84321,-74.2327
70,-741,8.82141,74.2152,-0.00666627,0.0169498,0.00416289,0.0176622,-0.00737859,1.40133,0.0148581,0.0195116,1294,1765,8.82143,-74.2152
77,-741,8.7821,74.1868,-0.006551,0.0172562,0.0037943,0.0178463,-0.00714109,1.41651,0.0148613,0.0163337,1301,1765,8.78206,-74.1868
84,-741,8.72717,74.1409,-0.00594593,0.0175074,0.00329662,0.017962,-0.00640049,1.43377,0.0145841,0.01814,1308,1765,8.72722,-74.1409
91,-741,8.69727,74.0698,-0.00488691,0.0195334,0.00255959,0.0197988,-0.00515231,1.46748,0.0152104,0.0154969,1315,1765,8.69732,-74.0698
98,-741,8.67102,73.9268,-0.0038498,0.0202383,0.0016316,0.0203483,-0.00395981,1.50347,0.01506,0.0112458,1322,1765,8.67106,-73.9267
105,-741,8.64758,73.772,-0.00283024,0.0210618,0.000540212,0.021074,-0.00284245,1.5482,0.0150863,0.0116061,1329,1765,8.64753,-73.772
112,-741,8.65442,73.6122,-0.00176585,0.0219804,-0.000817804,0.0220085,-0.00179398,-1.53641,0.0153054,0.0123696,1336,1765,8.65445,-73.6122
119,-741,8.61975,73.4414,-0.00072658,0.0222868,-0.00218055,0.0224915,-0.000931369,-1.47716,0.0153143,0.015364,1343,1765,8.61976,-73.4414
126,-741,8.58643,73.245,0.000286923,0.0233675,-0.00339796,0.0238573,-0.000202933,-1.42762,0.015973,0.0203801,1350,1765,8.58642,-73.245
133,-741,8.52454,73.0482,0.00114156,0.0243619,-0.00463616,0.0252533,0.00025013,-1.38084,0.0167528,0.0159477,1357,1765,8.52448,-73.0482
140,-741,8.44568,72.8378,0.00174782,0.025094,-0.00558352,0.0263607,0.00048118,-1.34772,0.0174156,0.0124696,1364,1765,8.44565,-72.8377
147,-741,8.40247,72.6012,0.00233827,0.025451,-0.00642738,0.0271182,0.000671138,-1.31701,0.0178593,0.0119455,1371,1765,8.40247,-72.6012
154,-741,8.35889,72.3743,0.00257278,0.0254622,-0.00695572,0.0274102,0.000624825,-1.29774,0.0180688,0.0106272,1378,1765,8.35886,-72.3743
161,-741,8.33704,72.0895,0.00228232,0.0249821,-0.00715836,0.027051,0.000213494,-1.28945,0.0179632,0.0120656,1385,1765,8.33704,-72.0895
168,-741,8.28601,71.7875,0.00165015,0.0239412,-0.006785,0.025844,-0.000252648,-1.29738,0.0173142,0.0263963,1392,1765,8.28597,-71.7874
175,-741,8.21777,71.5093,0,0,0,0,0,0,0,-1,1399,1765,8.21773,-71.5093
182,-741,8.16907,71.0796,0,0,0,0,0,0,0,-1,1406,1765,8.16903,-71.0796
189,-741,8.09485,70.771,0,0,0,0,0,0,0,-1,1413,1765,8.09485,-70.771
196,-741,8.04492,70.413,0,0,0,0,0,0,0,-1,1420,1765,8.04487,-70.413
203,-741,7.98914,69.8906,0,0,0,0,0,0,0,-1,1427,1765,7.98912,-69.8906
210,-741,7.87183,69.1774,0,0,0,0,0,0,0,-1,1434,1765,7.87187,-69.1774
217,-741,8.4032,40.1213,0,0,0,0,0,0,0,-1,1441,1765,8.40325,-40.1214
224,-741,8.0719,38.4249,0,0,0,0,0,0,0,-1,1448,1765,8.07187,-38.4249
231,-741,7.95923,39.0671,0,0,0,0,0,0,0,-1,1455,1765,7.9592,-39.0671
238,-741,7.96619,42.4865,0,0,0,0,0,0,0,-1,1462,1765,7.96621,-42.4864
245,-741,8.53577,45.7744,0,0,0,0,0,0,0,-1,1469,1765,8.53581,-45.7744
252,-741,8.59167,47.473,0,0,0,0,0,0,0,-1,1476,1765,8.59162,-47.473
259,-741,8.47412,48.5269,0,0,0,0,0,0,0,-1,1483,1765,8.47412,-48.5269
266,-741,8.50134,48.3838,0,0,0,0,0,0,0,-1,1490,1765,8.50132,-48.3838
273,-741,8.81421,49.1227,0,0,0,0,0,0,0,-1,1497,1765,8.81426,-49.1227
280,-741,7.33093,51.4729,0,0,0,0,0,0,0,-1,1504,1765,7.33092,-51.4729
287,-741,7.52783,49.7068,0,0,0,0,0,0,0,-1,1511,1765,7.52783,-49.7068
294,-741,5.91187,43.7742,0,0,0,0,0,0,0,-1,1518,1765,5.91188,-43.7742
301,-741,6.20667,38.5165,0,0,0,0,0,0,0,-1,1525,1765,6.20667,-38.5165
308,-741,7.99036,42.5969,0,0,0,0,0,0,0,-1,1532,1765,7.99037,-42.5969
315,-741,7.83838,41.6693,0,0,0,0,0,0,0,-1,1539,1765,7.83835,-41.6694
322,-741,7.68628,40.7418,0,0,0,0,0,0,0,-1,1546,1765,7.68633,-40.7418
329,-741,4.74414,17.928,0,0,0,0,0,0,0,-1,1553,1765,4.74414,-17.928
336,-741,5.74304,22.0945,0,0,0,0,0,0,0,-1,1560,1765,5.74306,-22.0945
343,-741,7.09888,26.501,0,0,0,0,0,0,0,-1,1567,1765,7.09885,-26.501
350,-741,4.90369,5.44666,0,0,0,0,0,0,0,-1,1574,1765,4.90368,-5.44664
357,-741,4.02063,5.16626,0,0,0,0,0,0,0,-1,1581,1765,4.02058,-5.1662
364,-741,0,0,0,0,0,0,0,0,0,-1,1588,1765,0,0
371,-741,0,0,0,0,0,0,0,0,0,-1,1595,1765,0,0
378,-741,0,0,0,0,0,0,0,0,0,-1,1602,1765,0,0
385,-741,0,0,0,0,0,0,0,0,0,-1,1609,1765,0,0
392,-741,0,0,0,0,0,0,0,0,0,-1,1616,1765,0,0
399,-741,0,0,0,0,0,0,0,0,0,-1,1623,1765,0,0
406,-741,0,0,0,0,0,0,0,0,0,-1,1630,1765,0,0
413,-741,0,0,0,0,0,0,0,0,0,-1,1637,1765,0,0
420,-741,0,0,0,0,0,0,0,0,0,-1,1644,1765,0,0
427,-741,0,0,0,0,0,0,0,0,0,-1,1651,1765,0,0
434,-741,0,0,0,0,0,0,0,0,0,-1,1658,1765,0,0
441,-741,0,0,0,0,0,0,0,0,0,-1,1665,1765,0,0
448,-741,0,0,0,0,0,0,0,0,0,-1,1672,1765,0,0
455,-741,0,0,0,0,0,0,0,0,0,-1,1679,1765,0,0
462,-741,0,0,0,0,0,0,0,0,0,-1,1686,1765,0,0
469,-741,0,0,0,0,0,0,0,0,0,-1,1693,1765,0,0
476,-741,0,0,0,0,0,0,0,0,0,-1,1700,1765,0,0
483,-741,0,0,0,0,0,0,0,0,0,-1,1707,1765,0,0
490,-741,0,0,0,0,0,0,0,0,0,-1,1714,1765,0,0
497,-741,0,0,0,0,0,0,0,0,0,-1,1721,1765,0,0
504,-741,0,0,0,0,0,0,0,0,0,-1,1728,1765,0,0
511,-741,0,0,0,0,0,0,0,0,0,-1,1735,1765,0,0
518,-741,0,0,0,0,0,0,0,0,0,-1,1742,1765,0,0
525,-741,0,0,0,0,0,0,0,0,0,-1,1749,1765,0,0
532,-741,0,0,0,0,0,0,0,0,0,-1,1756,1765,0,0
539,-741,0,0,0,0,0,0,0,0,0,-1,1763,1765,0,0
546,-741,0,0,0,0,0,0,0,0,0,-1,1770,1765,0,0
553,-741,0,0,0,0,0,0,0,0,0,-1,1777,1765,0,0
560,-741,0,0,0,0,0,0,0,0,0,-1,1784,1765,0,0
567,-741,0,0,0,0,0,0,0,0,0,-1,1791,1765,0,0
574,-741,0,0,0,0,0,0,0,0,0,-1,1798,1765,0,0
581,-741,0,0,0,0,0,0,0,0,0,-1,1805,1765,0,0
588,-741,0,0,0,0,0,0,0,0,0,-1,1812,1765,0,0
595,-741,0,0,0,0,0,0,0,0,0,-1,1819,1765,0,0
602,-741,0,0,0,0,0,0,0,0,0,-1,1826,1765,0,0
609,-741,0,0,0,0,0,0,0,0,0,-1,1833,1765,0,0
616,-741,0,0,0,0,0,0,0,0,0,-1,1840,1765,0,0
623,-741,0,0,0,0,0,0,0,0,0,-1,1847,1765,0,0
630,-741,0,0,0,0,0,0,0,0,0,-1,1854,1765,0,0
637,-741,0,0,0,0,0,0,0,0,0,-1,1861,1765,0,0
644,-741,0,0,0,0,0,0,0,0,0,-1,1868,1765,0,0
651,-741,0,0,0,0,0,0,0,0,0,-1,1875,1765,0,0
658,-741,0,0,0,0,0,0,0,0,0,-1,1882,1765,0,0
665,-741,0,0,0,0,0,0,0,0,0,-1,1889,1765,0,0
672,-741,0,0,0,0,0,0,0,0,0,-1,1896,1765,0,0
679,-741,0,0,0,0,0,0,0,0,0,-1,1903,1765,0,0
686,-741,0,0,0,0,0,0,0,0,0,-1,1910,1765,0,0
693,-741,0,0,0,0,0,0,0,0,0,-1,1917,1765,0,0
700,-741,0,0,0,0,0,0,0,0,0,-1,1924,1765,0,0
707,-741,0,0,0,0,0,0,0,0,0,-1,1931,1765,0,0
714,-741,0,0,0,0,0,0,0,0,0,-1,1938,1765,0,0
721,-741,0,0,0,0,0,0,0,0,0,-1,1945,1765,0,0
728,-741,0,0,0,0,0,0,0,0,0,-1,1952,1765,0,0
735,-741,0,0,0,0,0,0,0,0,0,-1,1959,1765,0,0
742,-741,0,0,0,0,0,0,0,0,0,-1,1966,1765,0,0
749,-741,0,0,0,0,0,0,0,0,0,-1,1973,1765,0,0
756,-741,0,0,0,0,0,0,0,0,0,-1,1980,1765,0,0
763,-741,0,0,0,0,0,0,0,0,0,-1,1987,1765,0,0
770,-741,0,0,0,0,0,0,0,0,0,-1,1994,1765,0,0
777,-741,0,0,0,0,0,0,0,0,0,-1,2001,1765,0,0
784,-741,0,0,0,0,0,0,0,0,0,-1,2008,1765,0,0
791,-741,0,0,0,0,0,0,0,0,0,-1,2015,1765,0,0
798,-741,0,0,0,0,0,0,0,0,0,-1,2022,1765,0,0
805,-741,0,0,0,0,0,0,0,0,0,-1,2029,1765,0,0
812,-741,0,0,0,0,0,0,0,0,0,-1,2036,1765,0,0
-700,-748,0,0,0,0,0,0,0,0,0,-1,524,1772,0,0
-693,-748,0,0,0,0,0,0,0,0,0,-1,531,1772,0,0
-686,-748,0,0,0,0,0,0,0,0,0,-1,538,1772,0,0
-679,-748,0,0,0,0,0,0,0,0,0,-1,545,1772,0,0
-672,-748,0,0,0,0,0,0,0,0,0,-1,552,1772,0,0
-665,-748,0,0,0,0,0,0,0,0,0,-1,559,1772,0,0
-658,-748,0,0,0,0,0,0,0,0,0,-1,566,1772,0,0
-651,-748,0,0,0,0,0,0,0,0,0,-1,573,1772,0,0
-644,-748,0,0,0,0,0,0,0,0,0,-1,580,1772,0,0
-637,-748,0,0,0,0,0,0,0,0,0,-1,587,1772,0,0
-630,-748,0,0,0,0,0,0,0,0,0,-1,594,1772,0,0
-623,-748,0,0,0,0,0,0,0,0,0,-1,601,1772,0,0
-616,-748,0,0,0,0,0,0,0,0,0,-1,608,1772,0,0
-609,-748,0,0,0,0,0,0,0,0,0,-1,615,1772,0,0
-602,-748,0,0,0,0,0,0,0,0,0,-1,622,1772,0,0
-595,-748,0,0,0,0,0,0,0,0,0,-1,629,1772,0,0
-588,-748,0,0,0,0,0,0,0,0,0,-1,636,1772,0,0
-581,-748,0,0,0,0,0,0,0,0,0,-1,643,1772,0,0
-574,-748,0,0,0,0,0,0,0,0,0,-1,650,1772,0,0
-567,-748,0,0,0,0,0,0,0,0,0,-1,657,1772,0,0
-560,-748,0,0,0,0,0,0,0,0,0,-1,664,1772,0,0
-553,-748,0,0,0,0,0,0,0,0,0,-1,671,1772,0,0
-546,-748,0,0,0,0,0,0,0,0,0,-1,678,1772,0,0
-539,-748,0,0,0,0,0,0,0,0,0,-1,685,1772,0,0
-532,-748,0,0,0,0,0,0,0,0,0,-1,692,1772,0,0
-525,-748,0,0,0,0,0,0,0,0,0,-1,699,1772,0,0
-518,-748,0,0,0,0,0,0,0,0,0,-1,706,1772,0,0
-511,-748,0,0,0,0,0,0,0,0,0,-1,713,1772,0,0
-504,-748,0,0,0,0,0,0,0,0,0,-1,720,1772,0,0
-497,-748,0,0,0,0,0,0,0,0,0,-1,727,1772,0,0
-490,-748,0,0,0,0,0,0,0,0,0,-1,734,1772,0,0
-483,-748,0,0,0,0,0,0,0,0,0,-1,741,1772,0,0
-476,-748,0,0,0,0,0,0,0,0,0,-1,748,1772,0,0
-469,-748,0,0,0,0,0,0,0,0,0,-1,755,1772,0,0
-462,-748,0,0,0,0,0,0,0,0,0,-1,762,1772,0,0
-455,-748,0,0,0,0,0,0,0,0,0,-1,769,1772,0,0
-448,-748,0,0,0,0,0,0,0,0,0,-1,776,1772,0,0
-441,-748,0,0,0,0,0,0,0,0,0,-1,783,1772,0,0
-434,-748,0,0,0,0,0,0,0,0,0,-1,790,1772,0,0
-427,-748,0,0,0,0,0,0,0,0,0,-1,797,1772,0,0
-420,-748,0,0,0,0,0,0,0,0,0,-1,804,1772,0,0
-413,-748,0,0,0,0,0,0,0,0,0,-1,811,1772,0,0
-406,-748,0,0,0,0,0,0,0,0,0,-1,818,1772,0,0
-399,-748,0,0,0,0,0,0,0,0,0,-1,825,1772,0,0
-392,-748,0,0,0,0,0,0,0,0,0,-1,832,1772,0,0
-385,-748,0,0,0,0,0,0,0,0,0,-1,839,1772,0,0
-378,-748,0,0,0,0,0,0,0,0,0,-1,846,1772,0,0
-371,-748,0,0,0,0,0,0,0,0,0,-1,853,1772,0,0
-364,-748,0,0,0,0,0,0,0,0,0,-1,860,1772,0,0
-357,-748,0,0,0,0,0,0,0,0,0,-1,867,1772,0,0
-350,-748,0,0,0,0,0,0,0,0,0,-1,874,1772,0,0
-343,-748,0,0,0,0,0,0,0,0,0,-1,881,1772,0,0
-336,-748,0,0,0,0,0,0,0,0,0,-1,888,1772,0,0
-329,-748,0,0,0,0,0,0,0,0,0,-1,895,1772,0,0
-322,-748,0,0,0,0,0,0,0,0,0,-1,902,1772,0,0
-315,-748,0,0,0,0,0,0,0,0,0,-1,909,1772,0,0
-308,-748,0,0,0,0,0,0,0,0,0,-1,916,1772,0,0
-301,-748,0,0,0,0,0,0,0,0,0,-1,923,1772,0,0
-294,-748,0,0,0,0,0,0,0,0,0,-1,930,1772,0,0
-287,-748,0,0,0,0,0,0,0,0,0,-1,937,1772,0,0
-280,-748,0,0,0,0,0,0,0,0,0,-1,944,1772,0,0
-273,-748,0,0,0,0,0,0,0,0,0,-1,951,1772,0,0
-266,-748,0,0,0,0,0,0,0,0,0,-1,958,1772,0,0
-259,-748,0,0,0,0,0,0,0,0,0,-1,965,1772,0,0
-252,-748,0,0,0,0,0,0,0,0,0,-1,972,1772,0,0
-245,-748,0,0,0,0,0,0,0,0,0,-1,979,1772,0,0
-238,-748,0,0,0,0,0,0,0,0,0,-1,986,1772,0,0
-231,-748,0,0,0,0,0,0,0,0,0,-1,993,1772,0,0
-224,-748,0,0,0,0,0,0,0,0,0,-1,1000,1772,0,0
-217,-748,8.97742,29.9884,0,0,0,0,0,0,0,-1,1007,1772,8.97744,-29.9884
-210,-748,8.8941,30.14,0,0,0,0,0,0,0,-1,1014,1772,8.8941,-30.14
-203,-748,7.88,43.3942,0,0,0,0,0,0,0,-1,1021,1772,7.87999,-43.3941
-196,-748,7.95483,43.9952,0,0,0,0,0,0,0,-1,1028,1772,7.95478,-43.9953
-189,-748,8.18359,44.5873,0,0,0,0,0,0,0,-1,1035,1772,8.18358,-44.5873
-182,-748,8.49304,45.5183,0,0,0,0,0,0,0,-1,1042,1772,8.49308,-45.5183
-175,-748,12.344,65.4003,0,0,0,0,0,0,0,-1,1049,1772,12.344,-65.4002
-168,-748,12.4545,65.7625,0,0,0,0,0,0,0,-1,1056,1772,12.4545,-65.7625
-161,-748,12.5651,66.1248,0,0,0,0,0,0,0,-1,1063,1772,12.565,-66.1247
-154,-748,11.4552,48.7113,0,0,0,0,0,0,0,-1,1070,1772,11.4552,-48.7113
-147,-748,11.7789,49.4792,0,0,0,0,0,0,0,-1,1077,1772,11.7789,-49.4793
-140,-748,10.4108,44.9001,0,0,0,0,0,0,0,-1,1084,1772,10.4107,-44.9001
-133,-748,7.44727,22.0308,0,0,0,0,0,0,0,-1,1091,1772,7.44728,-22.0308
-126,-748,5.98035,22.6067,0,0,0,0,0,0,0,-1,1098,1772,5.9803,-22.6067
-119,-748,6.63342,26.309,0,0,0,0,0,0,0,-1,1105,1772,6.6334,-26.3089
-112,-748,6.91333,24.923,0,0,0,0,0,0,0,-1,1112,1772,6.91339,-24.923
-105,-748,6.83313,25.0537,0,0,0,0,0,0,0,-1,1119,1772,6.83311,-25.0537
-98,-748,8.13623,30.8743,0,0,0,0,0,0,0,-1,1126,1772,8.13628,-30.8742
-91,-748,4.85352,15.3033,0,0,0,0,0,0,0,-1,1133,1772,4.85351,-15.3033
-84,-748,-0.192017,7.26196,0,0,0,0,0,0,0,-1,1140,1772,-0.192047,-7.26201
-77,-748,4.42615,13.5537,0,0,0,0,0,0,0,-1,1147,1772,4.4261,-13.5538
-70,-748,4.46191,13.7446,0,0,0,0,0,0,0,-1,1154,1772,4.4619,-13.7446
-63,-748,4.49768,13.9355,0,0,0,0,0,0,0,-1,1161,1772,4.49769,-13.9355
-56,-748,3.05762,7.87817,0,0,0,0,0,0,0,-1,1168,1772,3.05768,-7.87822
-49,-748,3.04102,7.82471,0,0,0,0,0,0,0,-1,1175,1772,3.04096,-7.82468
-42,-748,0.793457,14.9474,0,0,0,0,0,0,0,-1,1182,1772,0.793413,-14.9474
-35,-748,9.729,72.381,0,0,0,0,0,0,0,-1,1189,1772,9.72905,-72.381
-28,-748,9.66467,72.697,0.00122116,0.0135603,0.00438821,0.0149617,-0.00018027,1.26167,0.0100351,0.0486044,1196,1772,9.66465,-72.697
-21,-748,9.53845,72.9327,0.00179515,0.0146487,0.0043197,0.0159656,0.000478331,1.27491,0.0104879,0.0239382,1203,1772,9.53844,-72.9327
-14,-748,9.43213,73.0906,0.002078,0.0154257,0.00373378,0.0163991,0.00110454,1.31576,0.0105838,0.0178494,1210,1772,9.43217,-73.0906
-7,-748,9.40259,73.3085,0.00222689,0.0159504,0.00341153,0.0167517,0.00142561,1.3401,0.0107243,0.0168645,1217,1772,9.40263,-73.3084
0,-748,9.32239,73.4756,0.00184927,0.0163213,0.00317897,0.0169889,0.00118176,1.36383,0.0109533,0.0169663,1224,1772,9.32236,-73.4756
7,-748,9.25427,73.5973,0.0010351,0.0164034,0.00281053,0.0169013,0.000537238,1.39548,0.0110928,0.0172498,1231,1772,9.25429,-73.5973
14,-748,9.21057,73.8064,-0.000249575,0.018937,0.00232939,0.0192157,-0.000528332,1.45169,0.0129902,0.0190122,1238,1772,9.21058,-73.8064
21,-748,9.17078,73.9326,-0.00180801,0.0201362,0.00193129,0.0203049,-0.00197668,1.48368,0.0142413,0.0139152,1245,1772,9.17083,-73.9327
28,-748,9.09912,74.0323,-0.00352281,0.0214678,0.00196205,0.0216209,-0.00367591,1.49292,0.0157826,0.0136867,1252,1772,9.09917,-74.0323
35,-748,9.05566,74.089,-0.00531492,0.0230264,0.00230132,0.023212,-0.00550057,1.4903,0.0175971,0.0138576,1259,1772,9.05568,-74.089
42,-748,9.02783,74.1412,-0.00710829,0.0247135,0.00318236,0.0250286,-0.00742342,1.47209,0.0196337,0.015213,1266,1772,9.02783,-74.1413
49,-748,8.95984,74.1597,-0.00881168,0.0263466,0.00411507,0.0268218,-0.0092869,1.45582,0.0216512,0.0114385,1273,1772,8.95984,-74.1596
56,-748,8.86755,74.2052,-0.0101738,0.0281104,0.00510263,0.0287788,-0.0108422,1.44054,0.0236436,0.0113767,1280,1772,8.86761,-74.2053
63,-748,8.83228,74.2004,-0.0111335,0.029547,0.00596604,0.0304039,-0.0119904,1.42814,0.0252342,0.0144328,1287,1772,8.83226,-74.2005
70,-748,8.80823,74.1713,-0.011547,0.0304009,0.00634499,0.0313396,-0.0124858,1.42391,0.0260714,0.0169658,1294,1772,8.8082,-74.1713
77,-748,8.7533,74.1329,-0.0113836,0.0308372,0.00627404,0.0317498,-0.0122962,1.42635,0.0262437,0.0154445,1301,1772,8.75326,-74.1329
84,-748,8.67078,74.0938,-0.0103982,0.030904,0.00594824,0.0317436,-0.0112378,1.43057,0.0257395,0.016454,1308,1772,8.67079,-74.0937
91,-748,8.62317,74.027,-0.00872479,0.0329391,0.00528567,0.0335992,-0.00938489,1.44655,0.0260965,0.0133375,1315,1772,8.62321,-74.0269
98,-748,8.56372,73.9059,-0.00702213,0.0332816,0.00394812,0.0336647,-0.00740525,1.47406,0.0252758,0.0120481,1322,1772,8.56374,-73.9059
105,-748,8.52576,73.7349,-0.00531601,0.0339346,0.00226303,0.0340646,-0.00544606,1.51339,0.0247258,0.0127734,1329,1772,8.52571,-73.7348
112,-748,8.47681,73.5839,-0.00351415,0.0346811,0.000232985,0.0346825,-0.00351557,1.5647,0.0243782,0.0161235,1336,1772,8.47686,-73.5838
119,-748,8.4342,73.4174,-0.00172658,0.0336637,-0.00192954,0.0337686,-0.00183147,-1.51649,0.023147,0.0147237,1343,1772,8.43417,-73.4174
126,-748,8.40186,73.2594,-1.14558e-05,0.0349695,-0.00413807,0.0354523,-0.000494303,-1.45464,0.0238014,0.0162013,1350,1772,8.40189,-73.2594
133,-748,8.28845,73.051,0.00149507,0.0362358,-0.00634972,0.03736,0.000370886,-1.39557,0.0247839,0.0101721,1357,1772,8.28843,-73.051
140,-748,8.22742,72.803,0.00258697,0.0371461,-0.00815286,0.0389729,0.000760186,-1.35037,0.0257323,0.0133302,1364,1772,8.22742,-72.803
147,-748,8.18262,72.5729,0.00351316,0.0377548,-0.00967521,0.0402995,0.000968471,-1.31361,0.0265494,0.0151549,1371,1772,8.18266,-72.5728
154,-748,8.11279,72.3514,0.0040247,0.0377914,-0.0103907,0.0407327,0.00108344,-1.29495,0.0268013,0.0135622,1378,1772,8.1128,-72.3515
161,-748,8.07471,72.0817,0.00379035,0.0370804,-0.0105759,0.0401561,0.000714675,-1.28778,0.0265357,0.0208194,1385,1772,8.07467,-72.0816
168,-748,8.0575,71.821,0,0,0,0,0,0,0,-1,1392,1772,8.05754,-71.821
175,-748,11.6235,16.8242,0,0,0,0,0,0,0,-1,1399,1772,11.6236,-16.8242
182,-748,7.62476,10.3058,0,0,0,0,0,0,0,-1,1406,1772,7.62476,-10.3058
189,-748,6.15857,6.95898,0,0,0,0,0,0,0,-1,1413,1772,6.15862,-6.95896
196,-748,3.9425,8.46021,0,0,0,0,0,0,0,-1,1420,1772,3.9425,-8.46026
203,-748,3.9668,12.9835,0,0,0,0,0,0,0,-1,1427,1772,3.96678,-12.9836
210,-748,4.71472,16.8318,0,0,0,0,0,0,0,-1,1434,1772,4.71471,-16.8317
217,-748,5.38452,21.5551,0,0,0,0,0,0,0,-1,1441,1772,5.38455,-21.555
224,-748,6.14258,25.2345,0,0,0,0,0,0,0,-1,1448,1772,6.14263,-25.2345
231,-748,6.46045,29.7867,0,0,0,0,0,0,0,-1,1455,1772,6.46049,-29.7867
238,-748,7.41565,32.8574,0,0,0,0,0,0,0,-1,1462,1772,7.41562,-32.8574
245,-748,7.84912,32.0914,0,0,0,0,0,0,0,-1,1469,1772,7.84914,-32.0914
252,-748,7.57336,29.4369,0,0,0,0,0,0,0,-1,1476,1772,7.57337,-29.4369
259,-748,9.47351,46.1896,0,0,0,0,0,0,0,-1,1483,1772,9.4735,-46.1895
266,-748,8.36536,48.6908,0,0,0,0,0,0,0,-1,1490,1772,8.36541,-48.6909
273,-748,7.31421,46.6743,0,0,0,0,0,0,0,-1,1497,1772,7.31415,-46.6743
280,-748,8.76538,40.4501,0,0,0,0,0,0,0,-1,1504,1772,8.76537,-40.45
287,-748,14.161,8.32813,0,0,0,0,0,0,0,-1,1511,1772,14.161,-8.32808
294,-748,6.38525,32.4724,0,0,0,0,0,0,0,-1,1518,1772,6.38521,-32.4725
301,-748,5.40393,38.9807,0,0,0,0,0,0,0,-1,1525,1772,5.40397,-38.9807
308,-748,5.95227,37.1827,0,0,0,0,0,0,0,-1,1532,1772,5.95229,-37.1827
315,-748,7.71741,42.637,0,0,0,0,0,0,0,-1,1539,1772,7.71738,-42.637
322,-748,4.26538,29.0557,0,0,0,0,0,0,0,-1,1546,1772,4.26537,-29.0556
329,-748,3.87256,16.1473,0,0,0,0,0,0,0,-1,1553,1772,3.87259,-16.1474
336,-748,4.81006,19.6141,0,0,0,0,0,0,0,-1,1560,1772,4.81011,-19.6141
343,-748,0,0,0,0,0,0,0,0,0,-1,1567,1772,0,0
350,-748,0,0,0,0,0,0,0,0,0,-1,1574,1772,0,0
357,-748,0,0,0,0,0,0,0,0,0,-1,1581,1772,0,0
364,-748,0,0,0,0,0,0,0,0,0,-1,1588,1772,0,0
371,-748,0,0,0,0,0,0,0,0,0,-1,1595,1772,0,0
378,-748,0,0,0,0,0,0,0,0,0,-1,1602,1772,0,0
385,-748,0,0,0,0,0,0,0,0,0,-1,1609,1772,0,0
392,-748,0,0,0,0,0,0,0,0,0,-1,1616,1772,0,0
399,-748,0,0,0,0,0,0,0,0,0,-1,1623,1772,0,0
406,-748,0,0,0,0,0,0,0,0,0,-1,1630,1772,0,0
413,-748,0,0,0,0,0,0,0,0,0,-1,1637,1772,0,0
420,-748,0,0,0,0,0,0,0,0,0,-1,1644,1772,0,0
427,-748,0,0,0,0,0,0,0,0,0,-1,1651,1772,0,0
434,-748,0,0,0,0,0,0,0,0,0,-1,1658,1772,0,0
441,-748,0,0,0,0,0,0,0,0,0,-1,1665,1772,0,0
448,-748,0,0,0,0,0,0,0,0,0,-1,1672,1772,0,0
455,-748,0,0,0,0,0,0,0,0,0,-1,1679,1772,0,0
462,-748,0,0,0,0,0,0,0,0,0,-1,1686,1772,0,0
469,-748,0,0,0,0,0,0,0,0,0,-1,1693,1772,0,0
476,-748,0,0,0,0,0,0,0,0,0,-1,1700,1772,0,0
483,-748,0,0,0,0,0,0,0,0,0,-1,1707,1772,0,0
490,-748,0,0,0,0,0,0,0,0,0,-1,1714,1772,0,0
497,-748,0,0,0,0,0,0,0,0,0,-1,1721,1772,0,0
504,-748,0,0,0,0,0,0,0,0,0,-1,1728,1772,0,0
511,-748,0,0,0,0,0,0,0,0,0,-1,1735,1772,0,0
518,-748,0,0,0,0,0,0,0,0,0,-1,1742,1772,0,0
525,-748,0,0,0,0,0,0,0,0,0,-1,1749,1772,0,0
532,-748,0,0,0,0,0,0,0,0,0,-1,1756,1772,0,0
539,-748,0,0,0,0,0,0,0,0,0,-1,1763,1772,0,0
546,-748,0,0,0,0,0,0,0,0,0,-1,1770,1772,0,0
553,-748,0,0,0,0,0,0,0,0,0,-1,1777,1772,0,0
560,-748,0,0,0,0,0,0,0,0,0,-1,1784,1772,0,0
567,-748,0,0,0,0,0,0,0,0,0,-1,1791,1772,0,0
574,-748,0,0,0,0,0,0,0,0,0,-1,1798,1772,0,0
581,-748,0,0,0,0,0,0,0,0,0,-1,1805,1772,0,0
588,-748,0,0,0,0,0,0,0,0,0,-1,1812,1772,0,0
595,-748,0,0,0,0,0,0,0,0,0,-1,1819,1772,0,0
602,-748,0,0,0,0,0,0,0,0,0,-1,1826,1772,0,0
609,-748,0,0,0,0,0,0,0,0,0,-1,1833,1772,0,0
616,-748,0,0,0,0,0,0,0,0,0,-1,1840,1772,0,0
623,-748,0,0,0,0,0,0,0,0,0,-1,1847,1772,0,0
630,-748,0,0,0,0,0,0,0,0,0,-1,1854,1772,0,0
637,-748,0,0,0,0,0,0,0,0,0,-1,1861,1772,0,0
644,-748,0,0,0,0,0,0,0,0,0,-1,1868,1772,0,0
651,-748,0,0,0,0,0,0,0,0,0,-1,1875,1772,0,0
658,-748,0,0,0,0,0,0,0,0,0,-1,1882,1772,0,0
665,-748,0,0,0,0,0,0,0,0,0,-1,1889,1772,0,0
672,-748,0,0,0,0,0,0,0,0,0,-1,1896,1772,0,0
679,-748,0,0,0,0,0,0,0,0,0,-1,1903,1772,0,0
686,-748,0,0,0,0,0,0,0,0,0,-1,1910,1772,0,0
693,-748,0,0,0,0,0,0,0,0,0,-1,1917,1772,0,0
700,-748,0,0,0,0,0,0,0,0,0,-1,1924,1772,0,0
707,-748,0,0,0,0,0,0,0,0,0,-1,1931,1772,0,0
714,-748,0,0,0,0,0,0,0,0,0,-1,1938,1772,0,0
721,-748,0,0,0,0,0,0,0,0,0,-1,1945,1772,0,0
728,-748,0,0,0,0,0,0,0,0,0,-1,1952,1772,0,0
735,-748,0,0,0,0,0,0,0,0,0,-1,1959,1772,0,0
742,-748,0,0,0,0,0,0,0,0,0,-1,1966,1772,0,0
749,-748,0,0,0,0,0,0,0,0,0,-1,1973,1772,0,0
756,-748,0,0,0,0,0,0,0,0,0,-1,1980,1772,0,0
763,-748,0,0,0,0,0,0,0,0,0,-1,1987,1772,0,0
770,-748,0,0,0,0,0,0,0,0,0,-1,1994,1772,0,0
777,-748,0,0,0,0,0,0,0,0,0,-1,2001,1772,0,0
784,-748,0,0,0,0,0,0,0,0,0,-1,2008,1772,0,0
791,-748,0,0,0,0,0,0,0,0,0,-1,2015,1772,0,0
798,-748,0,0,0,0,0,0,0,0,0,-1,2022,1772,0,0
805,-748,0,0,0,0,0,0,0,0,0,-1,2029,1772,0,0
812,-748,0,0,0,0,0,0,0,0,0,-1,2036,1772,0,0
-700,-755,0,0,0,0,0,0,0,0,0,-1,524,1779,0,0
-693,-755,0,0,0,0,0,0,0,0,0,-1,531,1779,0,0
-686,-755,0,0,0,0,0,0,0,0,0,-1,538,1779,0,0
-679,-755,0,0,0,0,0,0,0,0,0,-1,545,1779,0,0
-672,-755,0,0,0,0,0,0,0,0,0,-1,552,1779,0,0
-665,-755,0,0,0,0,0,0,0,0,0,-1,559,1779,0,0
-658,-755,0,0,0,0,0,0,0,0,0,-1,566,1779,0,0
-651,-755,0,0,0,0,0,0,0,0,0,-1,573,1779,0,0
-644,-755,0,0,0,0,0,0,0,0,0,-1,580,1779,0,0
-637,-755,0,0,0,0,0,0,0,0,0,-1,587,1779,0,0
-630,-755,0,0,0,0,0,0,0,0,0,-1,594,1779,0,0
-623,-755,0,0,0,0,0,0,0,0,0,-1,601,1779,0,0
-616,-755,0,0,0,0,0,0,0,0,0,-1,608,1779,0,0
-609,-755,0,0,0,0,0,0,0,0,0,-1,615,1779,0,0
-602,-755,0,0,0,0,0,0,0,0,0,-1,622,1779,0,0
-595,-755,0,0,0,0,0,0,0,0,0,-1,629,1779,0,0
-588,-755,0,0,0,0,0,0,0,0,0,-1,636,1779,0,0
-581,-755,0,0,0,0,0,0,0,0,0,-1,643,1779,0,0
-574,-755,0,0,0,0,0,0,0,0,0,-1,650,1779,0,0
-567,-755,0,0,0,0,0,0,0,0,0,-1,657,1779,0,0
-560,-755,0,0,0,0,0,0,0,0,0,-1,664,1779,0,0
-553,-755,0,0,0,0,0,0,0,0,0,-1,671,1779,0,0
-546,-755,0,0,0,0,0,0,0,0,0,-1,678,1779,0,0
-539,-755,0,0,0,0,0,0,0,0,0,-1,685,1779,0,0
-532,-755,0,0,0,0,0,0,0,0,0,-1,692,1779,0,0
-525,-755,0,0,0,0,0,0,0,0,0,-1,699,1779,0,0
-518,-755,0,0,0,0,0,0,0,0,0,-1,706,1779,0,0
-511,-755,0,0,0,0,0,0,0,0,0,-1,713,1779,0,0
-504,-755,0,0,0,0,0,0,0,0,0,-1,720,1779,0,0
-497,-755,0,0,0,0,0,0,0,0,0,-1,727,1779,0,0
-490,-755,0,0,0,0,0,0,0,0,0,-1,734,1779,0,0
-483,-755,0,0,0,0,0,0,0,0,0,-1,741,1779,0,0
-476,-755,0,0,0,0,0,0,0,0,0,-1,748,1779,0,0
-469,-755,0,0,0,0,0,0,0,0,0,-1,755,1779,0,0
-462,-755,0,0,0,0,0,0,0,0,0,-1,762,1779,0,0
-455,-755,0,0,0,0,0,0,0,0,0,-1,769,1779,0,0
-448,-755,0,0,0,0,0,0,0,0,0,-1,776,1779,0,0
-441,-755,0,0,0,0,0,0,0,0,0,-1,783,1779,0,0
-434,-755,0,0,0,0,0,0,0,0,0,-1,790,1779,0,0
-427,-755,0,0,0,0,0,0,0,0,0,-1,797,1779,0,0
-420,-755,0,0,0,0,0,0,0,0,0,-1,804,1779,0,0
-413,-755,0,0,0,0,0,0,0,0,0,-1,811,1779,0,0
-406,-755,0,0,0,0,0,0,0,0,0,-1,818,1779,0,0
-399,-755,0,0,0,0,0,0,0,0,0,-1,825,1779,0,0
-392,-755,0,0,0,0,0,0,0,0,0,-1,832,1779,0,0
-385,-755,0,0,0,0,0,0,0,0,0,-1,839,1779,0,0
-378,-755,0,0,0,0,0,0,0,0,0,-1,846,1779,0,0
-371,-755,0,0,0,0,0,0,0,0,0,-1,853,1779,0,0
-364,-755,0,0,0,0,0,0,0,0,0,-1,860,1779,0,0
-357,-755,0,0,0,0,0,0,0,0,0,-1,867,1779,0,0
-350,-755,0,0,0,0,0,0,0,0,0,-1,874,1779,0,0
-343,-755,0,0,0,0,0,0,0,0,0,-1,881,1779,0,0
-336,-755,0,0,0,0,0,0,0,0,0,-1,888,1779,0,0
-329,-755,0,0,0,0,0,0,0,0,0,-1,895,1779,0,0
-322,-755,0,0,0,0,0,0,0,0,0,-1,902,1779,0,0
-315,-755,0,0,0,0,0,0,0,0,0,-1,909,1779,0,0
-308,-755,0,0,0,0,0,0,0,0,0,-1,916,1779,0,0
-301,-755,0,0,0,0,0,0,0,0,0,-1,923,1779,0,0
-294,-755,0,0,0,0,0,0,0,0,0,-1,930,1779,0,0
-287,-755,0,0,0,0,0,0,0,0,0,-1,937,1779,0,0
-280,-755,0,0,0,0,0,0,0,0,0,-1,944,1779,0,0
-273,-755,0,0,0,0,0,0,0,0,0,-1,951,1779,0,0
-266,-755,0,0,0,0,0,0,0,0,0,-1,958,1779,0,0
-259,-755,0,0,0,0,0,0,0,0,0,-1,965,1779,0,0
-252,-755,0,0,0,0,0,0,0,0,0,-1,972,1779,0,0
-245,-755,0,0,0,0,0,0,0,0,0,-1,979,1779,0,0
-238,-755,0,0,0,0,0,0,0,0,0,-1,986,1779,0,0
-231,-755,0,0,0,0,0,0,0,0,0,-1,993,1779,0,0
-224,-755,0,0,0,0,0,0,0,0,0,-1,1000,1779,0,0
-217,-755,0,0,0,0,0,0,0,0,0,-1,1007,1779,0,0
-210,-755,0,0,0,0,0,0,0,0,0,-1,1014,1779,0,0
-203,-755,8.97363,30.5414,0,0,0,0,0,0,0,-1,1021,1779,8.97362,-30.5414
-196,-755,8.08667,43.2203,0,0,0,0,0,0,0,-1,1028,1779,8.08666,-43.2204
-189,-755,0.725098,39.8892,0,0,0,0,0,0,0,-1,1035,1779,0.725055,-39.8891
-182,-755,1.80835,40.9692,0,0,0,0,0,0,0,-1,1042,1779,1.80838,-40.9692
-175,-755,13.1752,66.5742,0,0,0,0,0,0,0,-1,1049,1779,13.1752,-66.5742
-168,-755,13.4839,66.8397,0,0,0,0,0,0,0,-1,1056,1779,13.4839,-66.8397
-161,-755,13.7926,67.1051,0,0,0,0,0,0,0,-1,1063,1779,13.7926,-67.1051
-154,-755,7.71094,44.9023,0,0,0,0,0,0,0,-1,1070,1779,7.71089,-44.9023
-147,-755,-6.45593,10.2422,0,0,0,0,0,0,0,-1,1077,1779,-6.45594,-10.2422
-140,-755,1.33521,21.3856,0,0,0,0,0,0,0,-1,1084,1779,1.33522,-21.3857
-133,-755,2.89417,21.0964,0,0,0,0,0,0,0,-1,1091,1779,2.89422,-21.0964
-126,-755,3.26404,20.9304,0,0,0,0,0,0,0,-1,1098,1779,3.26399,-20.9305
-119,-755,5.17761,21.9325,0,0,0,0,0,0,0,-1,1105,1779,5.17761,-21.9325
-112,-755,5.40247,24.5646,0,0,0,0,0,0,0,-1,1112,1779,5.40244,-24.5646
-105,-755,7.01294,20.1539,0,0,0,0,0,0,0,-1,1119,1779,7.01295,-20.154
-98,-755,5.50708,16.9628,0,0,0,0,0,0,0,-1,1126,1779,5.5071,-16.9628
-91,-755,5.51025,12.0438,0,0,0,0,0,0,0,-1,1133,1779,5.51022,-12.0439
-84,-755,0.169312,8.66443,0,0,0,0,0,0,0,-1,1140,1779,0.16932,-8.66446
-77,-755,-0.0491943,6.87439,0,0,0,0,0,0,0,-1,1147,1779,-0.0491385,-6.87443
-70,-755,4.5686,13.2169,0,0,0,0,0,0,0,-1,1154,1779,4.56865,-13.2169
-63,-755,-1.36316,7.3147,0,0,0,0,0,0,0,-1,1161,1779,-1.36312,-7.31473
-56,-755,0.0483398,5.06079,0,0,0,0,0,0,0,-1,1168,1779,0.0483138,-5.06084
-49,-755,-1.32263,5.33716,0,0,0,0,0,0,0,-1,1175,1779,-1.32264,-5.33718
-42,-755,-2.03613,4.01672,0,0,0,0,0,0,0,-1,1182,1779,-2.0361,-4.01671
-35,-755,-2.72498,2.37476,0,0,0,0,0,0,0,-1,1189,1779,-2.72502,-2.37473
-28,-755,9.81055,72.7603,0,0,0,0,0,0,0,-1,1196,1779,9.8105,-72.7602
-21,-755,9.68066,72.9944,0,0,0,0,0,0,0,-1,1203,1779,9.68062,-72.9944
-14,-755,9.58557,72.99,0.00474861,0.0209938,0.00473513,0.0222733,0.00346918,1.3069,0.0138382,0.0362447,1210,1779,9.58553,-72.99
-7,-755,9.49963,73.1532,0.00453426,0.0218411,0.00432522,0.0228618,0.00351353,1.33904,0.0142155,0.0265611,1217,1779,9.49963,-73.1533
0,-755,9.44629,73.3513,0.00348931,0.0223178,0.00410192,0.0231726,0.00263449,1.36534,0.0146494,0.0165768,1224,1779,9.44629,-73.3513
7,-755,9.38696,73.5347,0.00183704,0.0222009,0.00363925,0.0228318,0.00120621,1.39916,0.0148355,0.0155933,1231,1779,9.38702,-73.5347
14,-755,9.34827,73.7098,-0.000377377,0.0257849,0.0029532,0.0261141,-0.000706591,1.45978,0.0176497,0.0140996,1238,1779,9.3483,-73.7099
21,-755,9.23413,73.8868,-0.00291974,0.0274578,0.00242641,0.0276504,-0.00311233,1.49159,0.0195538,0.0185577,1245,1779,9.2341,-73.8869
28,-755,9.16833,73.9423,-0.00559736,0.02931,0.00253714,0.0294934,-0.0057808,1.49862,0.0218457,0.022445,1252,1779,9.16828,-73.9423
35,-755,9.13416,74.0254,-0.00830981,0.0315359,0.00314775,0.031783,-0.00855694,1.49245,0.0245434,0.0220469,1259,1779,9.13412,-74.0253
42,-755,9.05713,74.0851,-0.0108493,0.0338728,0.00449508,0.0343202,-0.0112966,1.47161,0.0274322,0.0151543,1266,1779,9.05707,-74.0851
49,-755,8.97998,74.1019,-0.0131872,0.0362192,0.00590411,0.0369149,-0.013883,1.4535,0.0303164,0.010596,1273,1779,8.97999,-74.102
56,-755,8.89185,74.144,-0.0150208,0.0387602,0.00735409,0.0397477,-0.0160083,1.43732,0.0331491,0.0107429,1280,1779,8.89186,-74.144
63,-755,8.83777,74.175,-0.0162741,0.04096,0.00867332,0.0422455,-0.0175596,1.42366,0.0354954,0.0111199,1287,1779,8.83779,-74.1751
70,-755,8.80725,74.1118,-0.0167759,0.0423097,0.00930045,0.0437391,-0.0182052,1.4183,0.0367624,0.015661,1294,1779,8.8073,-74.1118
77,-755,8.71997,74.043,-0.0165093,0.0431136,0.00932124,0.0445369,-0.0179326,1.41928,0.037141,0.0151587,1301,1779,8.71999,-74.043
84,-755,8.64612,74.0128,-0.0151108,0.0433864,0.00898665,0.0447359,-0.0164603,1.42175,0.0365672,0.0157523,1308,1779,8.64616,-74.0129
91,-755,8.56604,73.9344,-0.0127751,0.0458907,0.00826531,0.047033,-0.0139174,1.43347,0.0368804,0.0159146,1315,1779,8.56606,-73.9344
98,-755,8.45813,73.8541,-0.0104045,0.0463075,0.00639372,0.0470194,-0.0111164,1.45991,0.0356345,0.01608,1322,1779,8.45814,-73.8541
105,-755,8.3844,73.7351,-0.00797142,0.047359,0.0039724,0.0476428,-0.00825516,1.49949,0.0348411,0.0198169,1329,1779,8.38446,-73.7351
112,-755,8.30029,73.5718,-0.00533877,0.0484933,0.00103787,0.0485133,-0.00535877,1.55153,0.0342684,0.0261185,1336,1779,8.30026,-73.5718
119,-755,8.23633,73.3881,-0.00269163,0.0465153,-0.00211258,0.0466058,-0.00278216,-1.52797,0.0320382,0.027327,1343,1779,8.23628,-73.3881
126,-755,8.20129,73.3147,-0.000109082,0.0483128,-0.00546241,0.0489213,-0.000717638,-1.45985,0.032856,0.0300018,1350,1779,8.20124,-73.3146
133,-755,8.05713,73.0856,0.00223889,0.0501306,-0.00884035,0.0517103,0.000659151,-1.39397,0.0342559,0.028784,1357,1779,8.05711,-73.0855
140,-755,7.89453,72.8467,0.00406053,0.0515478,-0.011622,0.0542396,0.00136873,-1.3432,0.0357122,0.0342118,1364,1779,7.89454,-72.8467
147,-755,8.0105,72.6017,0.00557852,0.052791,-0.0138476,0.0565528,0.00181671,-1.30554,0.0371111,0.0353618,1371,1779,8.01049,-72.6017
154,-755,7.90894,72.5411,0.00662784,0.0532591,-0.0148345,0.0575782,0.00230871,-1.28747,0.0376395,0.0332311,1378,1779,7.90898,-72.5412
161,-755,7.73889,72.3569,0,0,0,0,0,0,0,-1,1385,1779,7.73895,-72.357
168,-755,3.98181,7.35901,0,0,0,0,0,0,0,-1,1392,1779,3.98184,-7.35904
175,-755,8.17065,1.34363,0,0,0,0,0,0,0,-1,1399,1779,8.1706,-1.34368
182,-755,8.09216,2.96924,0,0,0,0,0,0,0,-1,1406,1779,8.09213,-2.9693
189,-755,8.04419,4.68042,0,0,0,0,0,0,0,-1,1413,1779,8.04419,-4.68046
196,-755,7.74841,7.4541,0,0,0,0,0,0,0,-1,1420,1779,7.74842,-7.45405
203,-755,4.80554,6.88696,0,0,0,0,0,0,0,-1,1427,1779,4.80554,-6.88697
210,-755,25.1694,7.35693,0,0,0,0,0,0,0,-1,1434,1779,25.1694,-7.35688
217,-755,5.01648,16.411,0,0,0,0,0,0,0,-1,1441,1779,5.01646,-16.411
224,-755,5.18103,22.6283,0,0,0,0,0,0,0,-1,1448,1779,5.18101,-22.6283
231,-755,5.7489,30.15,0,0,0,0,0,0,0,-1,1455,1779,5.74885,-30.15
238,-755,6.56323,29.2726,0,0,0,0,0,0,0,-1,1462,1779,6.56327,-29.2726
245,-755,8.29639,28.2113,0,0,0,0,0,0,0,-1,1469,1779,8.29639,-28.2113
252,-755,6.8877,28.8699,0,0,0,0,0,0,0,-1,1476,1779,6.88774,-28.8698
259,-755,6.42676,30.8574,0,0,0,0,0,0,0,-1,1483,1779,6.42677,-30.8575
266,-755,17.255,7.86096,0,0,0,0,0,0,0,-1,1490,1779,17.255,-7.86092
273,-755,15.7932,7.59778,0,0,0,0,0,0,0,-1,1497,1779,15.7932,-7.59777
280,-755,14.6255,7.34802,0,0,0,0,0,0,0,-1,1504,1779,14.6254,-7.34806
287,-755,13.8279,7.83105,0,0,0,0,0,0,0,-1,1511,1779,13.8279,-7.83104
294,-755,12.5695,7.96814,0,0,0,0,0,0,0,-1,1518,1779,12.5694,-7.9682
301,-755,11.2659,8.27087,0,0,0,0,0,0,0,-1,1525,1779,11.2658,-8.27087
308,-755,5.17737,37.2896,0,0,0,0,0,0,0,-1,1532,1779,5.17742,-37.2896
315,-755,0.828613,31.032,0,0,0,0,0,0,0,-1,1539,1779,0.828668,-31.032
322,-755,0,0,0,0,0,0,0,0,0,-1,1546,1779,0,0
329,-755,0,0,0,0,0,0,0,0,0,-1,1553,1779,0,0
336,-755,0,0,0,0,0,0,0,0,0,-1,1560,1779,0,0
343,-755,0,0,0,0,0,0,0,0,0,-1,1567,1779,0,0
350,-755,0,0,0,0,0,0,0,0,0,-1,1574,1779,0,0
357,-755,0,0,0,0,0,0,0,0,0,-1,1581,1779,0,0
364,-755,0,0,0,0,0,0,0,0,0,-1,1588,1779,0,0
371,-755,0,0,0,0,0,0,0,0,0,-1,1595,1779,0,0
378,-755,0,0,0,0,0,0,0,0,0,-1,1602,1779,0,0
385,-755,0,0,0,0,0,0,0,0,0,-1,1609,1779,0,0
392,-755,0,0,0,0,0,0,0,0,0,-1,1616,1779,0,0
399,-755,0,0,0,0,0,0,0,0,0,-1,1623,1779,0,0
406,-755,0,0,0,0,0,0,0,0,0,-1,1630,1779,0,0
413,-755,0,0,0,0,0,0,0,0,0,-1,1637,1779,0,0
420,-755,0,0,0,0,0,0,0,0,0,-1,1644,1779,0,0
427,-755,0,0,0,0,0,0,0,0,0,-1,1651,1779,0,0
434,-755,0,0,0,0,0,0,0,0,0,-1,1658,1779,0,0
441,-755,0,0,0,0,0,0,0,0,0,-1,1665,1779,0,0
448,-755,0,0,0,0,0,0,0,0,0,-1,1672,1779,0,0
455,-755,0,0,0,0,0,0,0,0,0,-1,1679,1779,0,0
462,-755,0,0,0,0,0,0,0,0,0,-1,1686,1779,0,0
469,-755,0,0,0,0,0,0,0,0,0,-1,1693,1779,0,0
476,-755,0,0,0,0,0,0,0,0,0,-1,1700,1779,0,0
483,-755,0,0,0,0,0,0,0,0,0,-1,1707,1779,0,0
490,-755,0,0,0,0,0,0,0,0,0,-1,1714,1779,0,0
497,-755,0,0,0,0,0,0,0,0,0,-1,1721,1779,0,0
504,-755,0,0,0,0,0,0,0,0,0,-1,1728,1779,0,0
511,-755,0,0,0,0,0,0,0,0,0,-1,1735,1779,0,0
518,-755,0,0,0,0,0,0,0,0,0,-1,1742,1779,0,0
525,-755,0,0,0,0,0,0,0,0,0,-1,1749,1779,0,0
532,-755,0,0,0,0,0,0,0,0,0,-1,1756,1779,0,0
539,-755,0,0,0,0,0,0,0,0,0,-1,1763,1779,0,0
546,-755,0,0,0,0,0,0,0,0,0,-1,1770,1779,0,0
553,-755,0,0,0,0,0,0,0,0,0,-1,1777,1779,0,0
560,-755,0,0,0,0,0,0,0,0,0,-1,1784,1779,0,0
567,-755,0,0,0,0,0,0,0,0,0,-1,1791,1779,0,0
574,-755,0,0,0,0,0,0,0,0,0,-1,1798,1779,0,0
581,-755,0,0,0,0,0,0,0,0,0,-1,1805,1779,0,0
588,-755,0,0,0,0,0,0,0,0,0,-1,1812,1779,0,0
595,-755,0,0,0,0,0,0,0,0,0,-1,1819,1779,0,0
602,-755,0,0,0,0,0,0,0,0,0,-1,1826,1779,0,0
609,-755,0,0,0,0,0,0,0,0,0,-1,1833,1779,0,0
616,-755,0,0,0,0,0,0,0,0,0,-1,1840,1779,0,0
623,-755,0,0,0,0,0,0,0,0,0,-1,1847,1779,0,0
630,-755,0,0,0,0,0,0,0,0,0,-1,1854,1779,0,0
637,-755,0,0,0,0,0,0,0,0,0,-1,1861,1779,0,0
644,-755,0,0,0,0,0,0,0,0,0,-1,1868,1779,0,0
651,-755,0,0,0,0,0,0,0,0,0,-1,1875,1779,0,0
658,-755,0,0,0,0,0,0,0,0,0,-1,1882,1779,0,0
665,-755,0,0,0,0,0,0,0,0,0,-1,1889,1779,0,0
672,-755,0,0,0,0,0,0,0,0,0,-1,1896,1779,0,0
679,-755,0,0,0,0,0,0,0,0,0,-1,1903,1779,0,0
686,-755,0,0,0,0,0,0,0,0,0,-1,1910,1779,0,0
693,-755,0,0,0,0,0,0,0,0,0,-1,1917,1779,0,0
700,-755,0,0,0,0,0,0,0,0,0,-1,1924,1779,0,0
707,-755,0,0,0,0,0,0,0,0,0,-1,1931,1779,0,0
714,-755,0,0,0,0,0,0,0,0,0,-1,1938,1779,0,0
721,-755,0,0,0,0,0,0,0,0,0,-1,1945,1779,0,0
728,-755,0,0,0,0,0,0,0,0,0,-1,1952,1779,0,0
735,-755,0,0,0,0,0,0,0,0,0,-1,1959,1779,0,0
742,-755,0,0,0,0,0,0,0,0,0,-1,1966,1779,0,0
749,-755,0,0,0,0,0,0,0,0,0,-1,1973,1779,0,0
756,-755,0,0,0,0,0,0,0,0,0,-1,1980,1779,0,0
763,-755,0,0,0,0,0,0,0,0,0,-1,1987,1779,0,0
770,-755,0,0,0,0,0,0,0,0,0,-1,1994,1779,0,0
777,-755,0,0,0,0,0,0,0,0,0,-1,2001,1779,0,0
784,-755,0,0,0,0,0,0,0,0,0,-1,2008,1779,0,0
791,-755,0,0,0,0,0,0,0,0,0,-1,2015,1779,0,0
798,-755,0,0,0,0,0,0,0,0,0,-1,2022,1779,0,0
805,-755,0,0,0,0,0,0,0,0,0,-1,2029,1779,0,0
812,-755,0,0,0,0,0,0,0,0,0,-1,2036,1779,0,0
-700,-762,0,0,0,0,0,0,0,0,0,-1,524,1786,0,0
-693,-762,0,0,0,0,0,0,0,0,0,-1,531,1786,0,0
-686,-762,0,0,0,0,0,0,0,0,0,-1,538,1786,0,0
-679,-762,0,0,0,0,0,0,0,0,0,-1,545,1786,0,0
-672,-762,0,0,0,0,0,0,0,0,0,-1,552,1786,0,0
-665,-762,0,0,0,0,0,0,0,0,0,-1,559,1786,0,0
-658,-762,0,0,0,0,0,0,0,0,0,-1,566,1786,0,0
-651,-762,0,0,0,0,0,0,0,0,0,-1,573,1786,0,0
-644,-762,0,0,0,0,0,0,0,0,0,-1,580,1786,0,0
-637,-762,0,0,0,0,0,0,0,0,0,-1,587,1786,0,0
-630,-762,0,0,0,0,0,0,0,0,0,-1,594,1786,0,0
-623,-762,0,0,0,0,0,0,0,0,0,-1,601,1786,0,0
-616,-762,0,0,0,0,0,0,0,0,0,-1,608,1786,0,0
-609,-762,0,0,0,0,0,0,0,0,0,-1,615,1786,0,0
-602,-762,0,0,0,0,0,0,0,0,0,-1,622,1786,0,0
-595,-762,0,0,0,0,0,0,0,0,0,-1,629,1786,0,0
-588,-762,0,0,0,0,0,0,0,0,0,-1,636,1786,0,0
-581,-762,0,0,0,0,0,0,0,0,0,-1,643,1786,0,0
-574,-762,0,0,0,0,0,0,0,0,0,-1,650,1786,0,0
-567,-762,0,0,0,0,0,0,0,0,0,-1,657,1786,0,0
-560,-762,0,0,0,0,0,0,0,0,0,-1,664,1786,0,0
-553,-762,0,0,0,0,0,0,0,0,0,-1,671,1786,0,0
-546,-762,0,0,0,0,0,0,0,0,0,-1,678,1786,0,0
-539,-762,0,0,0,0,0,0,0,0,0,-1,685,1786,0,0
-532,-762,0,0,0,0,0,0,0,0,0,-1,692,1786,0,0
-525,-762,0,0,0,0,0,0,0,0,0,-1,699,1786,0,0
-518,-762,0,0,0,0,0,0,0,0,0,-1,706,1786,0,0
-511,-762,0,0,0,0,0,0,0,0,0,-1,713,1786,0,0
-504,-762,0,0,0,0,0,0,0,0,0,-1,720,1786,0,0
-497,-762,0,0,0,0,0,0,0,0,0,-1,727,1786,0,0
-490,-762,0,0,0,0,0,0,0,0,0,-1,734,1786,0,0
-483,-762,0,0,0,0,0,0,0,0,0,-1,741,1786,0,0
-476,-762,0,0,0,0,0,0,0,0,0,-1,748,1786,0,0
-469,-762,0,0,0,0,0,0,0,0,0,-1,755,1786,0,0
-462,-762,0,0,0,0,0,0,0,0,0,-1,762,1786,0,0
-455,-762,0,0,0,0,0,0,0,0,0,-1,769,1786,0,0
-448,-762,0,0,0,0,0,0,0,0,0,-1,776,1786,0,0
-441,-762,0,0,0,0,0,0,0,0,0,-1,783,1786,0,0
-434,-762,0,0,0,0,0,0,0,0,0,-1,790,1786,0,0
-427,-762,0,0,0,0,0,0,0,0,0,-1,797,1786,0,0
-420,-762,0,0,0,0,0,0,0,0,0,-1,804,1786,0,0
-413,-762,0,0,0,0,0,0,0,0,0,-1,811,1786,0,0
-406,-762,0,0,0,0,0,0,0,0,0,-1,818,1786,0,0
-399,-762,0,0,0,0,0,0,0,0,0,-1,825,1786,0,0
-392,-762,0,0,0,0,0,0,0,0,0,-1,832,1786,0,0
-385,-762,0,0,0,0,0,0,0,0,0,-1,839,1786,0,0
-378,-762,0,0,0,0,0,0,0,0,0,-1,846,1786,0,0
-371,-762,0,0,0,0,0,0,0,0,0,-1,853,1786,0,0
-364,-762,0,0,0,0,0,0,0,0,0,-1,860,1786,0,0
-357,-762,0,0,0,0,0,0,0,0,0,-1,867,1786,0,0
-350,-762,0,0,0,0,0,0,0,0,0,-1,874,1786,0,0
-343,-762,0,0,0,0,0,0,0,0,0,-1,881,1786,0,0
-336,-762,0,0,0,0,0,0,0,0,0,-1,888,1786,0,0
-329,-762,0,0,0,0,0,0,0,0,0,-1,895,1786,0,0
-322,-762,0,0,0,0,0,0,0,0,0,-1,902,1786,0,0
-315,-762,0,0,0,0,0,0,0,0,0,-1,909,1786,0,0
-308,-762,0,0,0,0,0,0,0,0,0,-1,916,1786,0,0
-301,-762,0,0,0,0,0,0,0,0,0,-1,923,1786,0,0
-294,-762,0,0,0,0,0,0,0,0,0,-1,930,1786,0,0
-287,-762,0,0,0,0,0,0,0,0,0,-1,937,1786,0,0
-280,-762,0,0,0,0,0,0,0,0,0,-1,944,1786,0,0
-273,-762,0,0,0,0,0,0,0,0,0,-1,951,1786,0,0
-266,-762,0,0,0,0,0,0,0,0,0,-1,958,1786,0,0
-259,-762,0,0,0,0,0,0,0,0,0,-1,965,1786,0,0
-252,-762,0,0,0,0,0,0,0,0,0,-1,972,1786,0,0
-245,-762,0,0,0,0,0,0,0,0,0,-1,979,1786,0,0
-238,-762,0,0,0,0,0,0,0,0,0,-1,986,1786,0,0
-231,-762,0,0,0,0,0,0,0,0,0,-1,993,1786,0,0
-224,-762,0,0,0,0,0,0,0,0,0,-1,1000,1786,0,0
-217,-762,0,0,0,0,0,0,0,0,0,-1,1007,1786,0,0
-210,-762,0,0,0,0,0,0,0,0,0,-1,1014,1786,0,0
-203,-762,0,0,0,0,0,0,0,0,0,-1,1021,1786,0,0
-196,-762,0,0,0,0,0,0,0,0,0,-1,1028,1786,0,0
-189,-762,0,0,0,0,0,0,0,0,0,-1,1035,1786,0,0
-182,-762,4.44226,13.2462,0,0,0,0,0,0,0,-1,1042,1786,4.44227,-13.2462
-175,-762,2.39929,44.7904,0,0,0,0,0,0,0,-1,1049,1786,2.39932,-44.7903
-168,-762,14.4796,67.9244,0,0,0,0,0,0,0,-1,1056,1786,14.4797,-67.9245
-161,-762,-3.29077,11.9508,0,0,0,0,0,0,0,-1,1063,1786,-3.29076,-11.9508
-154,-762,-4.55823,11.1176,0,0,0,0,0,0,0,-1,1070,1786,-4.55828,-11.1175
-147,-762,-6.52454,9.41418,0,0,0,0,0,0,0,-1,1077,1786,-6.52458,-9.41419
-140,-762,4.99792,5.28589,0,0,0,0,0,0,0,-1,1084,1786,4.99793,-5.28587
-133,-762,0.689819,19.2172,0,0,0,0,0,0,0,-1,1091,1786,0.689867,-19.2171
-126,-762,1.48743,19.9288,0,0,0,0,0,0,0,-1,1098,1786,1.48738,-19.9289
-119,-762,2.65637,20.208,0,0,0,0,0,0,0,-1,1105,1786,2.65632,-20.208
-112,-762,6.84705,25.5554,0,0,0,0,0,0,0,-1,1112,1786,6.84706,-25.5554
-105,-762,5.57947,21.618,0,0,0,0,0,0,0,-1,1119,1786,5.57948,-21.618
-98,-762,5.0636,17.9901,0,0,0,0,0,0,0,-1,1126,1786,5.06361,-17.9901
-91,-762,4.54773,14.3622,0,0,0,0,0,0,0,-1,1133,1786,4.54774,-14.3622
-84,-762,3.96375,10.4547,0,0,0,0,0,0,0,-1,1140,1786,3.96371,-10.4548
-77,-762,0.305054,8.49365,0,0,0,0,0,0,0,-1,1147,1786,0.305008,-8.49362
-70,-762,0.183716,6.74622,0,0,0,0,0,0,0,-1,1154,1786,0.183696,-6.74621
-63,-762,-0.883057,9.08813,0,0,0,0,0,0,0,-1,1161,1786,-0.88311,-9.08808
-56,-762,-0.578979,5.10254,0,0,0,0,0,0,0,-1,1168,1786,-0.578951,-5.10249
-49,-762,-2.04541,3.66321,0,0,0,0,0,0,0,-1,1175,1786,-2.0454,-3.66319
-42,-762,-2.23462,3.474,0,0,0,0,0,0,0,-1,1182,1786,-2.23459,-3.47399
-35,-762,-3.28992,1.68164,0,0,0,0,0,0,0,-1,1189,1786,-3.28998,-1.68164
-28,-762,-3.75378,1.37769,0,0,0,0,0,0,0,-1,1196,1786,-3.75373,-1.37767
-21,-762,9.75891,72.8085,0,0,0,0,0,0,0,-1,1203,1786,9.75889,-72.8085
-14,-762,9.6123,72.9326,0.00940387,0.0271644,0.00594684,0.0289717,0.00759656,1.27576,0.0173459,0.0487037,1210,1786,9.61231,-72.9326
-7,-762,9.37231,73.0511,0.00867464,0.0283293,0.00543834,0.0297337,0.00727023,1.31808,0.0178982,0.0484385,1217,1786,9.37231,-73.0511
0,-762,9.47925,73.3154,0.00681312,0.0290243,0.0051643,0.0301663,0.00567109,1.35316,0.0185124,0.0396105,1224,1786,9.47927,-73.3154
7,-762,9.53931,73.4762,0.00410171,0.0287943,0.00449392,0.0295868,0.00330927,1.39626,0.0187192,0.0247069,1231,1786,9.53928,-73.4762
14,-762,9.46082,73.8567,0.000658299,0.0337871,0.00348737,0.0341502,0.000295173,1.46704,0.0226691,0.0414062,1238,1786,9.46086,-73.8567
21,-762,9.35583,74.1975,0,0,0,0,0,0,0,-1,1245,1786,9.35579,-74.1975
28,-762,9.22107,73.8228,0,0,0,0,0,0,0,-1,1252,1786,9.22101,-73.8228
35,-762,9.12744,73.9188,0,0,0,0,0,0,0,-1,1259,1786,9.12747,-73.9188
42,-762,9.18494,74.1499,0,0,0,0,0,0,0,-1,1266,1786,9.18496,-74.1499
49,-762,9.0011,74.1493,-0.017757,0.0492574,0.00779835,0.0501529,-0.0186525,1.45646,0.0410891,0.0439916,1273,1786,9.00112,-74.1493
56,-762,8.95483,74.1858,-0.0202309,0.0528928,0.00985372,0.0541974,-0.0215354,1.43917,0.0450594,0.0336115,1280,1786,8.95478,-74.1858
63,-762,8.87012,74.1943,-0.0219016,0.0561116,0.0117992,0.0578571,-0.0236471,1.42393,0.0484184,0.0304658,1287,1786,8.87007,-74.1943
70,-762,8.76331,74.1204,-0.022564,0.0580095,0.0128061,0.0599959,-0.0245504,1.41691,0.0502224,0.0319679,1294,1786,8.76325,-74.1204
77,-762,8.6908,73.9286,-0.022232,0.059136,0.0130538,0.061179,-0.0242749,1.41556,0.0508473,0.0418151,1301,1786,8.69076,-73.9286
84,-762,8.64624,73.9292,0,0,0,0,0,0,0,-1,1308,1786,8.64618,-73.9292
91,-762,8.5929,73.7974,0,0,0,0,0,0,0,-1,1315,1786,8.59296,-73.7973
98,-762,8.2428,73.735,0,0,0,0,0,0,0,-1,1322,1786,8.24285,-73.7349
105,-762,8.24463,73.7291,-0.0108765,0.0635641,0.00640303,0.0641109,-0.0114232,1.48561,0.0470132,0.0498703,1329,1786,8.24467,-73.7291
112,-762,8.4928,73.7351,-0.00723907,0.0648495,0.00237108,0.0649274,-0.00731697,1.53795,0.0459187,0.0460294,1336,1786,8.49282,-73.7351
119,-762,6.63379,71.5688,0,0,0,0,0,0,0,-1,1343,1786,6.63376,-71.5689
126,-762,6.47327,71.0176,0,0,0,0,0,0,0,-1,1350,1786,6.47331,-71.0176
133,-762,7.85571,73.14,0,0,0,0,0,0,0,-1,1357,1786,7.85572,-73.14
140,-762,7.63428,72.5382,0.0062675,0.0687852,-0.0160733,0.0726756,0.00237713,-1.33332,0.0476778,0.044777,1364,1786,7.6343,-72.5383
147,-762,8.00049,72.4467,0.0084514,0.0712747,-0.0192465,0.0767022,0.00302393,-1.29594,0.0501572,0.0441939,1371,1786,8.00043,-72.4467
154,-762,8.20654,72.217,0,0,0,0,0,0,0,-1,1378,1786,8.2065,-72.217
161,-762,8.65051,34.8102,0,0,0,0,0,0,0,-1,1385,1786,8.65054,-34.8101
168,-762,8.19287,0.880615,0,0,0,0,0,0,0,-1,1392,1786,8.19291,-0.880603
175,-762,8.33997,1.95947,0,0,0,0,0,0,0,-1,1399,1786,8.33997,-1.95942
182,-762,8.28418,3.56482,0,0,0,0,0,0,0,-1,1406,1786,8.28415,-3.56485
189,-762,8.21179,5.23389,0,0,0,0,0,0,0,-1,1413,1786,8.21183,-5.23383
196,-762,8.05969,6.95483,0,0,0,0,0,0,0,-1,1420,1786,8.05972,-6.9548
203,-762,24.0077,7.10425,0,0,0,0,0,0,0,-1,1427,1786,24.0077,-7.10426
210,-762,23.8073,7.6499,0,0,0,0,0,0,0,-1,1434,1786,23.8073,-7.64987
217,-762,23.3193,8.24426,0,0,0,0,0,0,0,-1,1441,1786,23.3194,-8.2442
224,-762,2.65149,20.6106,0,0,0,0,0,0,0,-1,1448,1786,2.65153,-20.6106
231,-762,5.46655,23.521,0,0,0,0,0,0,0,-1,1455,1786,5.46653,-23.521
238,-762,5.35632,29.7203,0,0,0,0,0,0,0,-1,1462,1786,5.35629,-29.7203
245,-762,6.93054,27.8312,0,0,0,0,0,0,0,-1,1469,1786,6.93058,-27.8312
252,-762,6.20215,28.3027,0,0,0,0,0,0,0,-1,1476,1786,6.20211,-28.3027
259,-762,5.46472,28.8762,0,0,0,0,0,0,0,-1,1483,1786,5.46476,-28.8762
266,-762,16.451,7.67773,0,0,0,0,0,0,0,-1,1490,1786,16.4511,-7.67773
273,-762,15.287,7.5304,0,0,0,0,0,0,0,-1,1497,1786,15.2869,-7.53044
280,-762,14.1501,7.38379,0,0,0,0,0,0,0,-1,1504,1786,14.1502,-7.38376
287,-762,12.6891,7.99133,0,0,0,0,0,0,0,-1,1511,1786,12.6891,-7.99135
294,-762,12.6959,8.30371,0,0,0,0,0,0,0,-1,1518,1786,12.6959,-8.30368
301,-762,11.4222,8.84143,0,0,0,0,0,0,0,-1,1525,1786,11.4223,-8.84149
308,-762,0,0,0,0,0,0,0,0,0,-1,1532,1786,0,0
315,-762,0,0,0,0,0,0,0,0,0,-1,1539,1786,0,0
322,-762,0,0,0,0,0,0,0,0,0,-1,1546,1786,0,0
329,-762,0,0,0,0,0,0,0,0,0,-1,1553,1786,0,0
336,-762,0,0,0,0,0,0,0,0,0,-1,1560,1786,0,0
343,-762,0,0,0,0,0,0,0,0,0,-1,1567,1786,0,0
350,-762,0,0,0,0,0,0,0,0,0,-1,1574,1786,0,0
357,-762,0,0,0,0,0,0,0,0,0,-1,1581,1786,0,0
364,-762,0,0,0,0,0,0,0,0,0,-1,1588,1786,0,0
371,-762,0,0,0,0,0,0,0,0,0,-1,1595,1786,0,0
378,-762,0,0,0,0,0,0,0,0,0,-1,1602,1786,0,0
385,-762,0,0,0,0,0,0,0,0,0,-1,1609,1786,0,0
392,-762,0,0,0,0,0,0,0,0,0,-1,1616,1786,0,0
399,-762,0,0,0,0,0,0,0,0,0,-1,1623,1786,0,0
406,-762,0,0,0,0,0,0,0,0,0,-1,1630,1786,0,0
413,-762,0,0,0,0,0,0,0,0,0,-1,1637,1786,0,0
420,-762,0,0,0,0,0,0,0,0,0,-1,1644,1786,0,0
427,-762,0,0,0,0,0,0,0,0,0,-1,1651,1786,0,0
434,-762,0,0,0,0,0,0,0,0,0,-1,1658,1786,0,0
441,-762,0,0,0,0,0,0,0,0,0,-1,1665,1786,0,0
448,-762,0,0,0,0,0,0,0,0,0,-1,1672,1786,0,0
455,-762,0,0,0,0,0,0,0,0,0,-1,1679,1786,0,0
462,-762,0,0,0,0,0,0,0,0,0,-1,1686,1786,0,0
469,-762,0,0,0,0,0,0,0,0,0,-1,1693,1786,0,0
476,-762,0,0,0,0,0,0,0,0,0,-1,1700,1786,0,0
483,-762,0,0,0,0,0,0,0,0,0,-1,1707,1786,0,0
490,-762,0,0,0,0,0,0,0,0,0,-1,1714,1786,0,0
497,-762,0,0,0,0,0,0,0,0,0,-1,1721,1786,0,0
504,-762,0,0,0,0,0,0,0,0,0,-1,1728,1786,0,0
511,-762,0,0,0,0,0,0,0,0,0,-1,1735,1786,0,0
518,-762,0,0,0,0,0,0,0,0,0,-1,1742,1786,0,0
525,-762,0,0,0,0,0,0,0,0,0,-1,1749,1786,0,0
532,-762,0,0,0,0,0,0,0,0,0,-1,1756,1786,0,0
539,-762,0,0,0,0,0,0,0,0,0,-1,1763,1786,0,0
546,-762,0,0,0,0,0,0,0,0,0,-1,1770,1786,0,0
553,-762,0,0,0,0,0,0,0,0,0,-1,1777,1786,0,0
560,-762,0,0,0,0,0,0,0,0,0,-1,1784,1786,0,0
567,-762,0,0,0,0,0,0,0,0,0,-1,1791,1786,0,0
574,-762,0,0,0,0,0,0,0,0,0,-1,1798,1786,0,0
581,-762,0,0,0,0,0,0,0,0,0,-1,1805,1786,0,0
588,-762,0,0,0,0,0,0,0,0,0,-1,1812,1786,0,0
595,-762,0,0,0,0,0,0,0,0,0,-1,1819,1786,0,0
602,-762,0,0,0,0,0,0,0,0,0,-1,1826,1786,0,0
609,-762,0,0,0,0,0,0,0,0,0,-1,1833,1786,0,0
616,-762,0,0,0,0,0,0,0,0,0,-1,1840,1786,0,0
623,-762,0,0,0,0,0,0,0,0,0,-1,1847,1786,0,0
630,-762,0,0,0,0,0,0,0,0,0,-1,1854,1786,0,0
637,-762,0,0,0,0,0,0,0,0,0,-1,1861,1786,0,0
644,-762,0,0,0,0,0,0,0,0,0,-1,1868,1786,0,0
651,-762,0,0,0,0,0,0,0,0,0,-1,1875,1786,0,0
658,-762,0,0,0,0,0,0,0,0,0,-1,1882,1786,0,0
665,-762,0,0,0,0,0,0,0,0,0,-1,1889,1786,0,0
672,-762,0,0,0,0,0,0,0,0,0,-1,1896,1786,0,0
679,-762,0,0,0,0,0,0,0,0,0,-1,1903,1786,0,0
686,-762,0,0,0,0,0,0,0,0,0,-1,1910,1786,0,0
693,-762,0,0,0,0,0,0,0,0,0,-1,1917,1786,0,0
700,-762,0,0,0,0,0,0,0,0,0,-1,1924,1786,0,0
707,-762,0,0,0,0,0,0,0,0,0,-1,1931,1786,0,0
714,-762,0,0,0,0,0,0,0,0,0,-1,1938,1786,0,0
721,-762,0,0,0,0,0,0,0,0,0,-1,1945,1786,0,0
728,-762,0,0,0,0,0,0,0,0,0,-1,1952,1786,0,0
735,-762,0,0,0,0,0,0,0,0,0,-1,1959,1786,0,0
742,-762,0,0,0,0,0,0,0,0,0,-1,1966,1786,0,0
749,-762,0,0,0,0,0,0,0,0,0,-1,1973,1786,0,0
756,-762,0,0,0,0,0,0,0,0,0,-1,1980,1786,0,0
763,-762,0,0,0,0,0,0,0,0,0,-1,1987,1786,0,0
770,-762,0,0,0,0,0,0,0,0,0,-1,1994,1786,0,0
777,-762,0,0,0,0,0,0,0,0,0,-1,2001,1786,0,0
784,-762,0,0,0,0,0,0,0,0,0,-1,2008,1786,0,0
791,-762,0,0,0,0,0,0,0,0,0,-1,2015,1786,0,0
798,-762,0,0,0,0,0,0,0,0,0,-1,2022,1786,0,0
805,-762,0,0,0,0,0,0,0,0,0,-1,2029,1786,0,0
812,-762,0,0,0,0,0,0,0,0,0,-1,2036,1786,0,0
-700,-769,0,0,0,0,0,0,0,0,0,-1,524,1793,0,0
-693,-769,0,0,0,0,0,0,0,0,0,-1,531,1793,0,0
-686,-769,0,0,0,0,0,0,0,0,0,-1,538,1793,0,0
-679,-769,0,0,0,0,0,0,0,0,0,-1,545,1793,0,0
-672,-769,0,0,0,0,0,0,0,0,0,-1,552,1793,0,0
-665,-769,0,0,0,0,0,0,0,0,0,-1,559,1793,0,0
-658,-769,0,0,0,0,0,0,0,0,0,-1,566,1793,0,0
-651,-769,0,0,0,0,0,0,0,0,0,-1,573,1793,0,0
-644,-769,0,0,0,0,0,0,0,0,0,-1,580,1793,0,0
-637,-769,0,0,0,0,0,0,0,0,0,-1,587,1793,0,0
-630,-769,0,0,0,0,0,0,0,0,0,-1,594,1793,0,0
-623,-769,0,0,0,0,0,0,0,0,0,-1,601,1793,0,0
-616,-769,0,0,0,0,0,0,0,0,0,-1,608,1793,0,0
-609,-769,0,0,0,0,0,0,0,0,0,-1,615,1793,0,0
-602,-769,0,0,0,0,0,0,0,0,0,-1,622,1793,0,0
-595,-769,0,0,0,0,0,0,0,0,0,-1,629,1793,0,0
-588,-769,0,0,0,0,0,0,0,0,0,-1,636,1793,0,0
-581,-769,0,0,0,0,0,0,0,0,0,-1,643,1793,0,0
-574,-769,0,0,0,0,0,0,0,0,0,-1,650,1793,0,0
-567,-769,0,0,0,0,0,0,0,0,0,-1,657,1793,0,0
-560,-769,0,0,0,0,0,0,0,0,0,-1,664,1793,0,0
-553,-769,0,0,0,0,0,0,0,0,0,-1,671,1793,0,0
-546,-769,0,0,0,0,0,0,0,0,0,-1,678,1793,0,0
-539,-769,0,0,0,0,0,0,0,0,0,-1,685,1793,0,0
-532,-769,0,0,0,0,0,0,0,0,0,-1,692,1793,0,0
-525,-769,0,0,0,0,0,0,0,0,0,-1,699,1793,0,0
-518,-769,0,0,0,0,0,0,0,0,0,-1,706,1793,0,0
-511,-769,0,0,0,0,0,0,0,0,0,-1,713,1793,0,0
-504,-769,0,0,0,0,0,0,0,0,0,-1,720,1793,0,0
-497,-769,0,0,0,0,0,0,0,0,0,-1,727,1793,0,0
-490,-769,0,0,0,0,0,0,0,0,0,-1,734,1793,0,0
-483,-769,0,0,0,0,0,0,0,0,0,-1,741,1793,0,0
-476,-769,0,0,0,0,0,0,0,0,0,-1,748,1793,0,0
-469,-769,0,0,0,0,0,0,0,0,0,-1,755,1793,0,0
-462,-769,0,0,0,0,0,0,0,0,0,-1,762,1793,0,0
-455,-769,0,0,0,0,0,0,0,0,0,-1,769,1793,0,0
-448,-769,0,0,0,0,0,0,0,0,0,-1,776,1793,0,0
-441,-769,0,0,0,0,0,0,0,0,0,-1,783,1793,0,0
-434,-769,0,0,0,0,0,0,0,0,0,-1,790,1793,0,0
-427,-769,0,0,0,0,0,0,0,0,0,-1,797,1793,0,0
-420,-769,0,0,0,0,0,0,0,0,0,-1,804,1793,0,0
-413,-769,0,0,0,0,0,0,0,0,0,-1,811,1793,0,0
-406,-769,0,0,0,0,0,0,0,0,0,-1,818,1793,0,0
-399,-769,0,0,0,0,0,0,0,0,0,-1,825,1793,0,0
-392,-769,0,0,0,0,0,0,0,0,0,-1,832,1793,0,0
-385,-769,0,0,0,0,0,0,0,0,0,-1,839,1793,0,0
-378,-769,0,0,0,0,0,0,0,0,0,-1,846,1793,0,0
-371,-769,0,0,0,0,0,0,0,0,0,-1,853,1793,0,0
-364,-769,0,0,0,0,0,0,0,0,0,-1,860,1793,0,0
-357,-769,0,0,0,0,0,0,0,0,0,-1,867,1793,0,0
-350,-769,0,0,0,0,0,0,0,0,0,-1,874,1793,0,0
-343,-769,0,0,0,0,0,0,0,0,0,-1,881,1793,0,0
-336,-769,0,0,0,0,0,0,0,0,0,-1,888,1793,0,0
-329,-769,0,0,0,0,0,0,0,0,0,-1,895,1793,0,0
-322,-769,0,0,0,0,0,0,0,0,0,-1,902,1793,0,0
-315,-769,0,0,0,0,0,0,0,0,0,-1,909,1793,0,0
-308,-769,0,0,0,0,0,0,0,0,0,-1,916,1793,0,0
-301,-769,0,0,0,0,0,0,0,0,0,-1,923,1793,0,0
-294,-769,0,0,0,0,0,0,0,0,0,-1,930,1793,0,0
-287,-769,0,0,0,0,0,0,0,0,0,-1,937,1793,0,0
-280,-769,0,0,0,0,0,0,0,0,0,-1,944,1793,0,0
-273,-769,0,0,0,0,0,0,0,0,0,-1,951,1793,0,0
-266,-769,0,0,0,0,0,0,0,0,0,-1,958,1793,0,0
-259,-769,0,0,0,0,0,0,0,0,0,-1,965,1793,0,0
-252,-769,0,0,0,0,0,0,0,0,0,-1,972,1793,0,0
-245,-769,0,0,0,0,0,0,0,0,0,-1,979,1793,0,0
-238,-769,0,0,0,0,0,0,0,0,0,-1,986,1793,0,0
-231,-769,0,0,0,0,0,0,0,0,0,-1,993,1793,0,0
-224,-769,0,0,0,0,0,0,0,0,0,-1,1000,1793,0,0
-217,-769,0,0,0,0,0,0,0,0,0,-1,1007,1793,0,0
-210,-769,0,0,0,0,0,0,0,0,0,-1,1014,1793,0,0
-203,-769,0,0,0,0,0,0,0,0,0,-1,1021,1793,0,0
-196,-769,0,0,0,0,0,0,0,0,0,-1,1028,1793,0,0
-189,-769,0,0,0,0,0,0,0,0,0,-1,1035,1793,0,0
-182,-769,0,0,0,0,0,0,0,0,0,-1,1042,1793,0,0
-175,-769,0,0,0,0,0,0,0,0,0,-1,1049,1793,0,0
-168,-769,0,0,0,0,0,0,0,0,0,-1,1056,1793,0,0
-161,-769,-3.61145,12.4761,0,0,0,0,0,0,0,-1,1063,1793,-3.6114,-12.476
-154,-769,-0.813232,5.32874,0,0,0,0,0,0,0,-1,1070,1793,-0.813269,-5.32872
-147,-769,4.26587,4.7002,0,0,0,0,0,0,0,-1,1077,1793,4.26593,-4.70022
-140,-769,4.10376,5.28589,0,0,0,0,0,0,0,-1,1084,1793,4.10371,-5.28584
-133,-769,6.422,8.21777,0,0,0,0,0,0,0,-1,1091,1793,6.42198,-8.21773
-126,-769,-0.352295,19.326,0,0,0,0,0,0,0,-1,1098,1793,-0.352235,-19.326
-119,-769,6.01685,16.2577,0,0,0,0,0,0,0,-1,1105,1793,6.01689,-16.2576
-112,-769,5.76416,27.2615,0,0,0,0,0,0,0,-1,1112,1793,5.7642,-27.2615
-105,-769,4.97009,22.8479,0,0,0,0,0,0,0,-1,1119,1793,4.97006,-22.8479
-98,-769,4.69373,18.9142,0,0,0,0,0,0,0,-1,1126,1793,4.69376,-18.9142
-91,-769,4.41748,14.9805,0,0,0,0,0,0,0,-1,1133,1793,4.41746,-14.9805
-84,-769,3.2207,12.4565,0,0,0,0,0,0,0,-1,1140,1793,3.22066,-12.4565
-77,-769,2.48816,8.98486,0,0,0,0,0,0,0,-1,1147,1793,2.48815,-8.98489
-70,-769,1.04944,11.9852,0,0,0,0,0,0,0,-1,1154,1793,1.04947,-11.9852
-63,-769,-2.39709,9.60339,0,0,0,0,0,0,0,-1,1161,1793,-2.39706,-9.6034
-56,-769,-5.84363,7.22156,0,0,0,0,0,0,0,-1,1168,1793,-5.84359,-7.22157
-49,-769,-2.41443,3.95471,0,0,0,0,0,0,0,-1,1175,1793,-2.41446,-3.95471
-42,-769,-3.1991,2.64941,0,0,0,0,0,0,0,-1,1182,1793,-3.19914,-2.64944
-35,-769,-3.50183,1.73389,0,0,0,0,0,0,0,-1,1189,1793,-3.50189,-1.7339
-28,-769,-3.96985,1.14075,0,0,0,0,0,0,0,-1,1196,1793,-3.96985,-1.14078
-21,-769,9.98193,66.4116,0,0,0,0,0,0,0,-1,1203,1793,9.98188,-66.4116
-14,-769,9.57471,72.7966,0,0,0,0,0,0,0,-1,1210,1793,9.57467,-72.7966
-7,-769,9.23975,72.887,0,0,0,0,0,0,0,-1,1217,1793,9.23969,-72.887
0,-769,9.39368,73.2985,0.0117087,0.0363832,0.00628674,0.0378926,0.0101992,1.33516,0.0226411,0.0455906,1224,1793,9.39373,-73.2985
7,-769,9.59778,73.3092,0.0075439,0.0359961,0.00536106,0.0369727,0.00656727,1.3906,0.0227772,0.0425625,1231,1793,9.59772,-73.3092
14,-769,9.98523,73.3585,0.00245839,0.0424486,0.00394969,0.0428349,0.00207203,1.47329,0.0278916,0.0404826,1238,1793,9.98524,-73.3585
21,-769,10.4093,73.4824,-0.0031355,0.0459972,0.00291778,0.0461699,-0.00330817,1.51169,0.0319398,0.0424844,1245,1793,10.4094,-73.4825
28,-769,9.76819,73.8098,0,0,0,0,0,0,0,-1,1252,1793,9.76818,-73.8098
35,-769,9.5791,73.8207,-0.0142231,0.0549242,0.00447795,0.055213,-0.0145119,1.5064,0.0424804,0.0459375,1259,1793,9.57913,-73.8207
42,-769,9.34546,73.8955,-0.0188445,0.0596323,0.00713428,0.0602756,-0.0194878,1.48087,0.0480165,0.0457585,1266,1793,9.34546,-73.8956
49,-769,9.02954,74.1251,-0.0229792,0.0644562,0.00990842,0.065565,-0.024088,1.45936,0.0535758,0.0464048,1273,1793,9.02957,-74.1252
56,-769,8.69226,73.9812,-0.0262045,0.0694719,0.0127289,0.0711364,-0.027869,1.44077,0.0589522,0.046365,1280,1793,8.6923,-73.9812
63,-769,8.40039,73.9872,-0.0283427,0.0739884,0.015491,0.076282,-0.0306363,1.4238,0.0635768,0.0476858,1287,1793,8.40044,-73.9872
70,-769,8.38147,73.7395,-0.0291792,0.0766106,0.0170294,0.0792843,-0.0318529,1.41506,0.0660843,0.0460022,1294,1793,8.38146,-73.7395
77,-769,8.53467,73.7458,-0.0287769,0.0781861,0.0176549,0.0810248,-0.0316156,1.41137,0.0670861,0.0475796,1301,1793,8.53465,-73.7459
84,-769,8.61206,73.7911,0,0,0,0,0,0,0,-1,1308,1793,8.61208,-73.7911
91,-769,8.62903,73.7716,-0.0226517,0.0815019,0.017285,0.0842956,-0.0254454,1.41056,0.0663263,0.0437557,1315,1793,8.62904,-73.7716
98,-769,8.02673,73.6193,-0.018516,0.0812516,0.0141069,0.0832079,-0.0204723,1.433,0.0634074,0.0420624,1322,1793,8.02674,-73.6193
105,-769,7.73352,73.3687,-0.0141994,0.0825606,0.00977196,0.0835376,-0.0151764,1.47115,0.0613791,0.0429539,1329,1793,7.73349,-73.3687
112,-769,7.56311,72.9994,0,0,0,0,0,0,0,-1,1336,1793,7.56307,-72.9994
119,-769,6.65991,71.1061,-0.00435621,0.0786361,-0.00173455,0.0786723,-0.00439245,-1.54991,0.053972,0.04536,1343,1793,6.65991,-71.1061
126,-769,6.66821,70.2095,0.000611323,0.0818186,-0.00872943,0.0827463,-0.000316456,-1.46491,0.05527,0.0466368,1350,1793,6.66824,-70.2095
133,-769,7.09583,69.4064,0.00525675,0.0854412,-0.0157971,0.0884412,0.0022568,-1.38313,0.0582231,0.0497353,1357,1793,7.09581,-69.4064
140,-769,7.68677,68.2671,0.009029,0.0889672,-0.0217457,0.0944998,0.0034964,-1.32166,0.0618673,0.0498075,1364,1793,7.68671,-68.2671
147,-769,7.83228,72.2373,0,0,0,0,0,0,0,-1,1371,1793,7.83231,-72.2373
154,-769,7.29382,55.4241,0,0,0,0,0,0,0,-1,1378,1793,7.29384,-55.4241
161,-769,6.57019,1.53223,0,0,0,0,0,0,0,-1,1385,1793,6.57019,-1.53226
168,-769,8.27637,0.756958,0,0,0,0,0,0,0,-1,1392,1793,8.27639,-0.756944
175,-769,8.47144,2.41174,0,0,0,0,0,0,0,-1,1399,1793,8.47147,-2.4118
182,-769,8.41479,4.05994,0,0,0,0,0,0,0,-1,1406,1793,8.41479,-4.05997
189,-769,8.25049,5.68433,0,0,0,0,0,0,0,-1,1413,1793,8.25054,-5.68428
196,-769,7.97729,7.42847,0,0,0,0,0,0,0,-1,1420,1793,7.9773,-7.42848
203,-769,22.0977,6.73889,0,0,0,0,0,0,0,-1,1427,1793,22.0977,-6.7389
210,-769,22.1115,7.77246,0,0,0,0,0,0,0,-1,1434,1793,22.1115,-7.77248
217,-769,22.4723,8.79102,0,0,0,0,0,0,0,-1,1441,1793,22.4723,-8.79099
224,-769,22.1348,9.35278,0,0,0,0,0,0,0,-1,1448,1793,22.1348,-9.35283
231,-769,3.13318,19.7184,0,0,0,0,0,0,0,-1,1455,1793,3.13323,-19.7184
238,-769,5.74512,18.6597,0,0,0,0,0,0,0,-1,1462,1793,5.74512,-18.6596
245,-769,5.80798,22.87,0,0,0,0,0,0,0,-1,1469,1793,5.80796,-22.87
252,-769,6.20837,28.394,0,0,0,0,0,0,0,-1,1476,1793,6.20833,-28.3941
259,-769,10.974,17.7698,0,0,0,0,0,0,0,-1,1483,1793,10.974,-17.7698
266,-769,15.8488,7.3905,0,0,0,0,0,0,0,-1,1490,1793,15.8488,-7.39046
273,-769,14.8075,7.56152,0,0,0,0,0,0,0,-1,1497,1793,14.8075,-7.56152
280,-769,13.6519,7.43054,0,0,0,0,0,0,0,-1,1504,1793,13.6518,-7.43058
287,-769,0,0,0,0,0,0,0,0,0,-1,1511,1793,0,0
294,-769,0,0,0,0,0,0,0,0,0,-1,1518,1793,0,0
301,-769,0,0,0,0,0,0,0,0,0,-1,1525,1793,0,0
308,-769,0,0,0,0,0,0,0,0,0,-1,1532,1793,0,0
315,-769,0,0,0,0,0,0,0,0,0,-1,1539,1793,0,0
322,-769,0,0,0,0,0,0,0,0,0,-1,1546,1793,0,0
329,-769,0,0,0,0,0,0,0,0,0,-1,1553,1793,0,0
336,-769,0,0,0,0,0,0,0,0,0,-1,1560,1793,0,0
343,-769,0,0,0,0,0,0,0,0,0,-1,1567,1793,0,0
350,-769,0,0,0,0,0,0,0,0,0,-1,1574,1793,0,0
357,-769,0,0,0,0,0,0,0,0,0,-1,1581,1793,0,0
364,-769,0,0,0,0,0,0,0,0,0,-1,1588,1793,0,0
371,-769,0,0,0,0,0,0,0,0,0,-1,1595,1793,0,0
378,-769,0,0,0,0,0,0,0,0,0,-1,1602,1793,0,0
385,-769,0,0,0,0,0,0,0,0,0,-1,1609,1793,0,0
392,-769,0,0,0,0,0,0,0,0,0,-1,1616,1793,0,0
399,-769,0,0,0,0,0,0,0,0,0,-1,1623,1793,0,0
406,-769,0,0,0,0,0,0,0,0,0,-1,1630,1793,0,0
413,-769,0,0,0,0,0,0,0,0,0,-1,1637,1793,0,0
420,-769,0,0,0,0,0,0,0,0,0,-1,1644,1793,0,0
427,-769,0,0,0,0,0,0,0,0,0,-1,1651,1793,0,0
434,-769,0,0,0,0,0,0,0,0,0,-1,1658,1793,0,0
441,-769,0,0,0,0,0,0,0,0,0,-1,1665,1793,0,0
448,-769,0,0,0,0,0,0,0,0,0,-1,1672,1793,0,0
455,-769,0,0,0,0,0,0,0,0,0,-1,1679,1793,0,0
462,-769,0,0,0,0,0,0,0,0,0,-1,1686,1793,0,0
469,-769,0,0,0,0,0,0,0,0,0,-1,1693,1793,0,0
476,-769,0,0,0,0,0,0,0,0,0,-1,1700,1793,0,0
483,-769,0,0,0,0,0,0,0,0,0,-1,1707,1793,0,0
490,-769,0,0,0,0,0,0,0,0,0,-1,1714,1793,0,0
497,-769,0,0,0,0,0,0,0,0,0,-1,1721,1793,0,0
504,-769,0,0,0,0,0,0,0,0,0,-1,1728,1793,0,0
511,-769,0,0,0,0,0,0,0,0,0,-1,1735,1793,0,0
518,-769,0,0,0,0,0,0,0,0,0,-1,1742,1793,0,0
525,-769,0,0,0,0,0,0,0,0,0,-1,1749,1793,0,0
532,-769,0,0,0,0,0,0,0,0,0,-1,1756,1793,0,0
539,-769,0,0,0,0,0,0,0,0,0,-1,1763,1793,0,0
546,-769,0,0,0,0,0,0,0,0,0,-1,1770,1793,0,0
553,-769,0,0,0,0,0,0,0,0,0,-1,1777,1793,0,0
560,-769,0,0,0,0,0,0,0,0,0,-1,1784,1793,0,0
567,-769,0,0,0,0,0,0,0,0,0,-1,1791,1793,0,0
574,-769,0,0,0,0,0,0,0,0,0,-1,1798,1793,0,0
581,-769,0,0,0,0,0,0,0,0,0,-1,1805,1793,0,0
588,-769,0,0,0,0,0,0,0,0,0,-1,1812,1793,0,0
595,-769,0,0,0,0,0,0,0,0,0,-1,1819,1793,0,0
602,-769,0,0,0,0,0,0,0,0,0,-1,1826,1793,0,0
609,-769,0,0,0,0,0,0,0,0,0,-1,1833,1793,0,0
616,-769,0,0,0,0,0,0,0,0,0,-1,1840,1793,0,0
623,-769,0,0,0,0,0,0,0,0,0,-1,1847,1793,0,0
630,-769,0,0,0,0,0,0,0,0,0,-1,1854,1793,0,0
637,-769,0,0,0,0,0,0,0,0,0,-1,1861,1793,0,0
644,-769,0,0,0,0,0,0,0,0,0,-1,1868,1793,0,0
651,-769,0,0,0,0,0,0,0,0,0,-1,1875,1793,0,0
658,-769,0,0,0,0,0,0,0,0,0,-1,1882,1793,0,0
665,-769,0,0,0,0,0,0,0,0,0,-1,1889,1793,0,0
672,-769,0,0,0,0,0,0,0,0,0,-1,1896,1793,0,0
679,-769,0,0,0,0,0,0,0,0,0,-1,1903,1793,0,0
686,-769,0,0,0,0,0,0,0,0,0,-1,1910,1793,0,0
693,-769,0,0,0,0,0,0,0,0,0,-1,1917,1793,0,0
700,-769,0,0,0,0,0,0,0,0,0,-1,1924,1793,0,0
707,-769,0,0,0,0,0,0,0,0,0,-1,1931,1793,0,0
714,-769,0,0,0,0,0,0,0,0,0,-1,1938,1793,0,0
721,-769,0,0,0,0,0,0,0,0,0,-1,1945,1793,0,0
728,-769,0,0,0,0,0,0,0,0,0,-1,1952,1793,0,0
735,-769,0,0,0,0,0,0,0,0,0,-1,1959,1793,0,0
742,-769,0,0,0,0,0,0,0,0,0,-1,1966,1793,0,0
749,-769,0,0,0,0,0,0,0,0,0,-1,1973,1793,0,0
756,-769,0,0,0,0,0,0,0,0,0,-1,1980,1793,0,0
763,-769,0,0,0,0,0,0,0,0,0,-1,1987,1793,0,0
770,-769,0,0,0,0,0,0,0,0,0,-1,1994,1793,0,0
777,-769,0,0,0,0,0,0,0,0,0,-1,2001,1793,0,0
784,-769,0,0,0,0,0,0,0,0,0,-1,2008,1793,0,0
791,-769,0,0,0,0,0,0,0,0,0,-1,2015,1793,0,0
798,-769,0,0,0,0,0,0,0,0,0,-1,2022,1793,0,0
805,-769,0,0,0,0,0,0,0,0,0,-1,2029,1793,0,0
812,-769,0,0,0,0,0,0,0,0,0,-1,2036,1793,0,0
-700,-776,0,0,0,0,0,0,0,0,0,-1,524,1800,0,0
-693,-776,0,0,0,0,0,0,0,0,0,-1,531,1800,0,0
-686,-776,0,0,0,0,0,0,0,0,0,-1,538,1800,0,0
-679,-776,0,0,0,0,0,0,0,0,0,-1,545,1800,0,0
-672,-776,0,0,0,0,0,0,0,0,0,-1,552,1800,0,0
-665,-776,0,0,0,0,0,0,0,0,0,-1,559,1800,0,0
-658,-776,0,0,0,0,0,0,0,0,0,-1,566,1800,0,0
-651,-776,0,0,0,0,0,0,0,0,0,-1,573,1800,0,0
-644,-776,0,0,0,0,0,0,0,0,0,-1,580,1800,0,0
-637,-776,0,0,0,0,0,0,0,0,0,-1,587,1800,0,0
-630,-776,0,0,0,0,0,0,0,0,0,-1,594,1800,0,0
-623,-776,0,0,0,0,0,0,0,0,0,-1,601,1800,0,0
-616,-776,0,0,0,0,0,0,0,0,0,-1,608,1800,0,0
-609,-776,0,0,0,0,0,0,0,0,0,-1,615,1800,0,0
-602,-776,0,0,0,0,0,0,0,0,0,-1,622,1800,0,0
-595,-776,0,0,0,0,0,0,0,0,0,-1,629,1800,0,0
-588,-776,0,0,0,0,0,0,0,0,0,-1,636,1800,0,0
-581,-776,0,0,0,0,0,0,0,0,0,-1,643,1800,0,0
-574,-776,0,0,0,0,0,0,0,0,0,-1,650,1800,0,0
-567,-776,0,0,0,0,0,0,0,0,0,-1,657,1800,0,0
-560,-776,0,0,0,0,0,0,0,0,0,-1,664,1800,0,0
-553,-776,0,0,0,0,0,0,0,0,0,-1,671,1800,0,0
-546,-776,0,0,0,0,0,0,0,0,0,-1,678,1800,0,0
-539,-776,0,0,0,0,0,0,0,0,0,-1,685,1800,0,0
-532,-776,0,0,0,0,0,0,0,0,0,-1,692,1800,0,0
-525,-776,0,0,0,0,0,0,0,0,0,-1,699,1800,0,0
-518,-776,0,0,0,0,0,0,0,0,0,-1,706,1800,0,0
-511,-776,0,0,0,0,0,0,0,0,0,-1,713,1800,0,0
-504,-776,0,0,0,0,0,0,0,0,0,-1,720,1800,0,0
-497,-776,0,0,0,0,0,0,0,0,0,-1,727,1800,0,0
-490,-776,0,0,0,0,0,0,0,0,0,-1,734,1800,0,0
-483,-776,0,0,0,0,0,0,0,0,0,-1,741,1800,0,0
-476,-776,0,0,0,0,0,0,0,0,0,-1,748,1800,0,0
-469,-776,0,0,0,0,0,0,0,0,0,-1,755,1800,0,0
-462,-776,0,0,0,0,0,0,0,0,0,-1,762,1800,0,0
-455,-776,0,0,0,0,0,0,0,0,0,-1,769,1800,0,0
-448,-776,0,0,0,0,0,0,0,0,0,-1,776,1800,0,0
-441,-776,0,0,0,0,0,0,0,0,0,-1,783,1800,0,0
-434,-776,0,0,0,0,0,0,0,0,0,-1,790,1800,0,0
-427,-776,0,0,0,0,0,0,0,0,0,-1,797,1800,0,0
-420,-776,0,0,0,0,0,0,0,0,0,-1,804,1800,0,0
-413,-776,0,0,0,0,0,0,0,0,0,-1,811,1800,0,0
-406,-776,0,0,0,0,0,0,0,0,0,-1,818,1800,0,0
-399,-776,0,0,0,0,0,0,0,0,0,-1,825,1800,0,0
-392,-776,0,0,0,0,0,0,0,0,0,-1,832,1800,0,0
-385,-776,0,0,0,0,0,0,0,0,0,-1,839,1800,0,0
-378,-776,0,0,0,0,0,0,0,0,0,-1,846,1800,0,0
-371,-776,0,0,0,0,0,0,0,0,0,-1,853,1800,0,0
-364,-776,0,0,0,0,0,0,0,0,0,-1,860,1800,0,0
-357,-776,0,0,0,0,0,0,0,0,0,-1,867,1800,0,0
-350,-776,0,0,0,0,0,0,0,0,0,-1,874,1800,0,0
-343,-776,0,0,0,0,0,0,0,0,0,-1,881,1800,0,0
-336,-776,0,0,0,0,0,0,0,0,0,-1,888,1800,0,0
-329,-776,0,0,0,0,0,0,0,0,0,-1,895,1800,0,0
-322,-776,0,0,0,0,0,0,0,0,0,-1,902,1800,0,0
-315,-776,0,0,0,0,0,0,0,0,0,-1,909,1800,0,0
-308,-776,0,0,0,0,0,0,0,0,0,-1,916,1800,0,0
-301,-776,0,0,0,0,0,0,0,0,0,-1,923,1800,0,0
-294,-776,0,0,0,0,0,0,0,0,0,-1,930,1800,0,0
-287,-776,0,0,0,0,0,0,0,0,0,-1,937,1800,0,0
-280,-776,0,0,0,0,0,0,0,0,0,-1,944,1800,0,0
-273,-776,0,0,0,0,0,0,0,0,0,-1,951,1800,0,0
-266,-776,0,0,0,0,0,0,0,0,0,-1,958,1800,0,0
-259,-776,0,0,0,0,0,0,0,0,0,-1,965,1800,0,0
-252,-776,0,0,0,0,0,0,0,0,0,-1,972,1800,0,0
-245,-776,0,0,0,0,0,0,0,0,0,-1,979,1800,0,0
-238,-776,0,0,0,0,0,0,0,0,0,-1,986,1800,0,0
-231,-776,0,0,0,0,0,0,0,0,0,-1,993,1800,0,0
-224,-776,0,0,0,0,0,0,0,0,0,-1,1000,1800,0,0
-217,-776,0,0,0,0,0,0,0,0,0,-1,1007,1800,0,0
-210,-776,0,0,0,0,0,0,0,0,0,-1,1014,1800,0,0
-203,-776,0,0,0,0,0,0,0,0,0,-1,1021,1800,0,0
-196,-776,0,0,0,0,0,0,0,0,0,-1,1028,1800,0,0
-189,-776,0,0,0,0,0,0,0,0,0,-1,1035,1800,0,0
-182,-776,0,0,0,0,0,0,0,0,0,-1,1042,1800,0,0
-175,-776,0,0,0,0,0,0,0,0,0,-1,1049,1800,0,0
-168,-776,0,0,0,0,0,0,0,0,0,-1,1056,1800,0,0
-161,-776,0,0,0,0,0,0,0,0,0,-1,1063,1800,0,0
-154,-776,0,0,0,0,0,0,0,0,0,-1,1070,1800,0,0
-147,-776,0,0,0,0,0,0,0,0,0,-1,1077,1800,0,0
-140,-776,2.98499,5.20911,0,0,0,0,0,0,0,-1,1084,1800,2.98493,-5.2091
-133,-776,6.72363,9.35828,0,0,0,0,0,0,0,-1,1091,1800,6.72358,-9.35824
-126,-776,6.55029,13.7832,0,0,0,0,0,0,0,-1,1098,1800,6.55029,-13.7832
-119,-776,5.72107,13.7787,0,0,0,0,0,0,0,-1,1105,1800,5.72106,-13.7787
-112,-776,6.84998,20.4421,0,0,0,0,0,0,0,-1,1112,1800,6.84993,-20.4421
-105,-776,4.46863,24.6742,0,0,0,0,0,0,0,-1,1119,1800,4.46868,-24.6742
-98,-776,4.31616,19.7659,0,0,0,0,0,0,0,-1,1126,1800,4.31619,-19.7659
-91,-776,3.30225,18.134,0,0,0,0,0,0,0,-1,1133,1800,3.30222,-18.134
-84,-776,2.67932,14.3162,0,0,0,0,0,0,0,-1,1140,1800,2.67926,-14.3161
-77,-776,0.580078,11.1272,0,0,0,0,0,0,0,-1,1147,1800,0.58002,-11.1272
-70,-776,-0.562866,12.3163,0,0,0,0,0,0,0,-1,1154,1800,-0.562897,-12.3163
-63,-776,-3.96106,9.97656,0,0,0,0,0,0,0,-1,1161,1800,-3.961,-9.97654
-56,-776,-7.35913,7.63672,0,0,0,0,0,0,0,-1,1168,1800,-7.3591,-7.63676
-49,-776,-7.62952,3.1908,0,0,0,0,0,0,0,-1,1175,1800,-7.62955,-3.19076
-42,-776,-3.41272,3.0249,0,0,0,0,0,0,0,-1,1182,1800,-3.41269,-3.02488
-35,-776,-3.71753,1.63635,0,0,0,0,0,0,0,-1,1189,1800,-3.71755,-1.63631
-28,-776,-4.03979,0.716064,0,0,0,0,0,0,0,-1,1196,1800,-4.03977,-0.716055
-21,-776,10.2985,71.9069,0,0,0,0,0,0,0,-1,1203,1800,10.2985,-71.9069
-14,-776,10.959,72.7595,0,0,0,0,0,0,0,-1,1210,1800,10.959,-72.7595
-7,-776,9.91724,73.2205,0,0,0,0,0,0,0,-1,1217,1800,9.91727,-73.2205
0,-776,9.45874,73.1713,0,0,0,0,0,0,0,-1,1224,1800,9.45879,-73.1712
7,-776,9.70581,72.7484,0.0122425,0.0436154,0.00619983,0.0447962,0.0110617,1.3826,0.0269447,0.0464183,1231,1800,9.70585,-72.7485
14,-776,10.0938,72.7277,0.00502129,0.0513488,0.00428121,0.0517411,0.00462898,1.47942,0.0330593,0.0428604,1238,1800,10.0937,-72.7276
21,-776,10.3027,72.9753,-0.00279479,0.0562439,0.00288423,0.0563845,-0.00293536,1.5221,0.0386053,0.0401401,1245,1800,10.3027,-72.9753
28,-776,9.94604,73.5581,-0.0105638,0.0618502,0.00308412,0.0619813,-0.0106949,1.52831,0.0453086,0.0440334,1252,1800,9.94609,-73.5581
35,-776,9.76721,73.5728,-0.0178117,0.0686793,0.00492312,0.0689586,-0.018091,1.51412,0.0530413,0.0440512,1259,1800,9.76727,-73.5728
42,-776,9.58435,73.5366,-0.0237236,0.0750382,0.00841712,0.0757504,-0.0244359,1.48638,0.0603187,0.0444122,1266,1800,9.58431,-73.5367
49,-776,9.33252,73.743,-0.0289642,0.0816133,0.0120919,0.0829202,-0.030271,1.46314,0.0676664,0.0474106,1273,1800,9.33253,-73.743
56,-776,8.81177,74.0549,0,0,0,0,0,0,0,-1,1280,1800,8.81177,-74.0549
63,-776,8.09424,73.5428,0,0,0,0,0,0,0,-1,1287,1800,8.09424,-73.5429
70,-776,8.1123,73.2368,0,0,0,0,0,0,0,-1,1294,1800,8.11236,-73.2368
77,-776,8.39844,73.3773,0,0,0,0,0,0,0,-1,1301,1800,8.39841,-73.3773
84,-776,8.43933,73.4708,0,0,0,0,0,0,0,-1,1308,1800,8.43935,-73.4708
91,-776,7.61292,73.057,-0.0287506,0.103857,0.0237357,0.107978,-0.032871,1.39891,0.0850857,0.042314,1315,1800,7.61293,-73.057
98,-776,7.19409,73.1343,-0.023522,0.103003,0.0197878,0.106026,-0.0265445,1.41922,0.080995,0.0404911,1322,1800,7.19408,-73.1343
105,-776,7.17798,72.7053,-0.0180592,0.104376,0.0142343,0.10601,-0.0196923,1.45657,0.0780694,0.0427024,1329,1800,7.17802,-72.7054
112,-776,6.95703,71.7745,-0.0118839,0.105837,0.00726013,0.106283,-0.01233,1.50943,0.0753027,0.0471049,1336,1800,6.957,-71.7746
119,-776,6.73572,70.6929,-0.00539849,0.0978904,-0.000984884,0.0978998,-0.00540787,-1.56126,0.0671418,0.0428244,1343,1800,6.73572,-70.6929
126,-776,6.67261,69.7085,0.001047,0.101892,-0.0107291,0.103021,-8.18484e-05,-1.46597,0.0687077,0.0439027,1350,1800,6.67265,-69.7085
133,-776,6.84216,68.8302,0.00712717,0.106666,-0.0205727,0.11075,0.00304281,-1.37481,0.0728405,0.0483832,1357,1800,6.8422,-68.8302
140,-776,7.00085,67.9828,0.0120333,0.111625,-0.0288425,0.119375,0.00428338,-1.3083,0.0781945,0.0489993,1364,1800,7.00085,-67.9828
147,-776,7.06836,67.1541,0,0,0,0,0,0,0,-1,1371,1800,7.06835,-67.1541
154,-776,38.4338,21.854,0,0,0,0,0,0,0,-1,1378,1800,38.4339,-21.854
161,-776,6.50293,1.1731,0,0,0,0,0,0,0,-1,1385,1800,6.5029,-1.17313
168,-776,8.44971,1.22913,0,0,0,0,0,0,0,-1,1392,1800,8.44974,-1.22915
175,-776,8.61523,2.87061,0,0,0,0,0,0,0,-1,1399,1800,8.6152,-2.87063
182,-776,8.54065,4.60645,0,0,0,0,0,0,0,-1,1406,1800,8.5407,-4.60643
189,-776,8.35303,6.28223,0,0,0,0,0,0,0,-1,1413,1800,8.35297,-6.28225
196,-776,8.0387,8.21704,0,0,0,0,0,0,0,-1,1420,1800,8.03865,-8.217
203,-776,7.91736,9.79919,0,0,0,0,0,0,0,-1,1427,1800,7.91735,-9.79922
210,-776,20.2479,7.85718,0,0,0,0,0,0,0,-1,1434,1800,20.248,-7.85719
217,-776,21.5171,9.3418,0,0,0,0,0,0,0,-1,1441,1800,21.5171,-9.34182
224,-776,3.09253,14.9313,0,0,0,0,0,0,0,-1,1448,1800,3.09254,-14.9313
231,-776,20.8671,9.21057,0,0,0,0,0,0,0,-1,1455,1800,20.867,-9.21054
238,-776,20.7511,9.05847,0,0,0,0,0,0,0,-1,1462,1800,20.7511,-9.05848
245,-776,3.80823,15.4108,0,0,0,0,0,0,0,-1,1469,1800,3.80826,-15.4108
252,-776,8.57837,20.2009,0,0,0,0,0,0,0,-1,1476,1800,8.57841,-20.2009
259,-776,14.1882,7.69055,0,0,0,0,0,0,0,-1,1483,1800,14.1882,-7.69061
266,-776,0,0,0,0,0,0,0,0,0,-1,1490,1800,0,0
273,-776,0,0,0,0,0,0,0,0,0,-1,1497,1800,0,0
280,-776,0,0,0,0,0,0,0,0,0,-1,1504,1800,0,0
287,-776,0,0,0,0,0,0,0,0,0,-1,1511,1800,0,0
294,-776,0,0,0,0,0,0,0,0,0,-1,1518,1800,0,0
301,-776,0,0,0,0,0,0,0,0,0,-1,1525,1800,0,0
308,-776,0,0,0,0,0,0,0,0,0,-1,1532,1800,0,0
315,-776,0,0,0,0,0,0,0,0,0,-1,1539,1800,0,0
322,-776,0,0,0,0,0,0,0,0,0,-1,1546,1800,0,0
329,-776,0,0,0,0,0,0,0,0,0,-1,1553,1800,0,0
336,-776,0,0,0,0,0,0,0,0,0,-1,1560,1800,0,0
343,-776,0,0,0,0,0,0,0,0,0,-1,1567,1800,0,0
350,-776,0,0,0,0,0,0,0,0,0,-1,1574,1800,0,0
357,-776,0,0,0,0,0,0,0,0,0,-1,1581,1800,0,0
364,-776,0,0,0,0,0,0,0,0,0,-1,1588,1800,0,0
371,-776,0,0,0,0,0,0,0,0,0,-1,1595,1800,0,0
378,-776,0,0,0,0,0,0,0,0,0,-1,1602,1800,0,0
385,-776,0,0,0,0,0,0,0,0,0,-1,1609,1800,0,0
392,-776,0,0,0,0,0,0,0,0,0,-1,1616,1800,0,0
399,-776,0,0,0,0,0,0,0,0,0,-1,1623,1800,0,0
406,-776,0,0,0,0,0,0,0,0,0,-1,1630,1800,0,0
413,-776,0,0,0,0,0,0,0,0,0,-1,1637,1800,0,0
420,-776,0,0,0,0,0,0,0,0,0,-1,1644,1800,0,0
427,-776,0,0,0,0,0,0,0,0,0,-1,1651,1800,0,0
434,-776,0,0,0,0,0,0,0,0,0,-1,1658,1800,0,0
441,-776,0,0,0,0,0,0,0,0,0,-1,1665,1800,0,0
448,-776,0,0,0,0,0,0,0,0,0,-1,1672,1800,0,0
455,-776,0,0,0,0,0,0,0,0,0,-1,1679,1800,0,0
462,-776,0,0,0,0,0,0,0,0,0,-1,1686,1800,0,0
469,-776,0,0,0,0,0,0,0,0,0,-1,1693,1800,0,0
476,-776,0,0,0,0,0,0,0,0,0,-1,1700,1800,0,0
483,-776,0,0,0,0,0,0,0,0,0,-1,1707,1800,0,0
490,-776,0,0,0,0,0,0,0,0,0,-1,1714,1800,0,0
497,-776,0,0,0,0,0,0,0,0,0,-1,1721,1800,0,0
504,-776,0,0,0,0,0,0,0,0,0,-1,1728,1800,0,0
511,-776,0,0,0,0,0,0,0,0,0,-1,1735,1800,0,0
518,-776,0,0,0,0,0,0,0,0,0,-1,1742,1800,0,0
525,-776,0,0,0,0,0,0,0,0,0,-1,1749,1800,0,0
532,-776,0,0,0,0,0,0,0,0,0,-1,1756,1800,0,0
539,-776,0,0,0,0,0,0,0,0,0,-1,1763,1800,0,0
546,-776,0,0,0,0,0,0,0,0,0,-1,1770,1800,0,0
553,-776,0,0,0,0,0,0,0,0,0,-1,1777,1800,0,0
560,-776,0,0,0,0,0,0,0,0,0,-1,1784,1800,0,0
567,-776,0,0,0,0,0,0,0,0,0,-1,1791,1800,0,0
574,-776,0,0,0,0,0,0,0,0,0,-1,1798,1800,0,0
581,-776,0,0,0,0,0,0,0,0,0,-1,1805,1800,0,0
588,-776,0,0,0,0,0,0,0,0,0,-1,1812,1800,0,0
595,-776,0,0,0,0,0,0,0,0,0,-1,1819,1800,0,0
602,-776,0,0,0,0,0,0,0,0,0,-1,1826,1800,0,0
609,-776,0,0,0,0,0,0,0,0,0,-1,1833,1800,0,0
616,-776,0,0,0,0,0,0,0,0,0,-1,1840,1800,0,0
623,-776,0,0,0,0,0,0,0,0,0,-1,1847,1800,0,0
630,-776,0,0,0,0,0,0,0,0,0,-1,1854,1800,0,0
637,-776,0,0,0,0,0,0,0,0,0,-1,1861,1800,0,0
644,-776,0,0,0,0,0,0,0,0,0,-1,1868,1800,0,0
651,-776,0,0,0,0,0,0,0,0,0,-1,1875,1800,0,0
658,-776,0,0,0,0,0,0,0,0,0,-1,1882,1800,0,0
665,-776,0,0,0,0,0,0,0,0,0,-1,1889,1800,0,0
672,-776,0,0,0,0,0,0,0,0,0,-1,1896,1800,0,0
679,-776,0,0,0,0,0,0,0,0,0,-1,1903,1800,0,0
686,-776,0,0,0,0,0,0,0,0,0,-1,1910,1800,0,0
693,-776,0,0,0,0,0,0,0,0,0,-1,1917,1800,0,0
700,-776,0,0,0,0,0,0,0,0,0,-1,1924,1800,0,0
707,-776,0,0,0,0,0,0,0,0,0,-1,1931,1800,0,0
714,-776,0,0,0,0,0,0,0,0,0,-1,1938,1800,0,0
721,-776,0,0,0,0,0,0,0,0,0,-1,1945,1800,0,0
728,-776,0,0,0,0,0,0,0,0,0,-1,1952,1800,0,0
735,-776,0,0,0,0,0,0,0,0,0,-1,1959,1800,0,0
742,-776,0,0,0,0,0,0,0,0,0,-1,1966,1800,0,0
749,-776,0,0,0,0,0,0,0,0,0,-1,1973,1800,0,0
756,-776,0,0,0,0,0,0,0,0,0,-1,1980,1800,0,0
763,-776,0,0,0,0,0,0,0,0,0,-1,1987,1800,0,0
770,-776,0,0,0,0,0,0,0,0,0,-1,1994,1800,0,0
777,-776,0,0,0,0,0,0,0,0,0,-1,2001,1800,0,0
784,-776,0,0,0,0,0,0,0,0,0,-1,2008,1800,0,0
791,-776,0,0,0,0,0,0,0,0,0,-1,2015,1800,0,0
798,-776,0,0,0,0,0,0,0,0,0,-1,2022,1800,0,0
805,-776,0,0,0,0,0,0,0,0,0,-1,2029,1800,0,0
812,-776,0,0,0,0,0,0,0,0,0,-1,2036,1800,0,0
-700,-783,0,0,0,0,0,0,0,0,0,-1,524,1807,0,0
-693,-783,0,0,0,0,0,0,0,0,0,-1,531,1807,0,0
-686,-783,0,0,0,0,0,0,0,0,0,-1,538,1807,0,0
-679,-783,0,0,0,0,0,0,0,0,0,-1,545,1807,0,0
-672,-783,0,0,0,0,0,0,0,0,0,-1,552,1807,0,0
-665,-783,0,0,0,0,0,0,0,0,0,-1,559,1807,0,0
-658,-783,0,0,0,0,0,0,0,0,0,-1,566,1807,0,0
-651,-783,0,0,0,0,0,0,0,0,0,-1,573,1807,0,0
-644,-783,0,0,0,0,0,0,0,0,0,-1,580,1807,0,0
-637,-783,0,0,0,0,0,0,0,0,0,-1,587,1807,0,0
-630,-783,0,0,0,0,0,0,0,0,0,-1,594,1807,0,0
-623,-783,0,0,0,0,0,0,0,0,0,-1,601,1807,0,0
-616,-783,0,0,0,0,0,0,0,0,0,-1,608,1807,0,0
-609,-783,0,0,0,0,0,0,0,0,0,-1,615,1807,0,0
-602,-783,0,0,0,0,0,0,0,0,0,-1,622,1807,0,0
-595,-783,0,0,0,0,0,0,0,0,0,-1,629,1807,0,0
-588,-783,0,0,0,0,0,0,0,0,0,-1,636,1807,0,0
-581,-783,0,0,0,0,0,0,0,0,0,-1,643,1807,0,0
-574,-783,0,0,0,0,0,0,0,0,0,-1,650,1807,0,0
-567,-783,0,0,0,0,0,0,0,0,0,-1,657,1807,0,0
-560,-783,0,0,0,0,0,0,0,0,0,-1,664,1807,0,0
-553,-783,0,0,0,0,0,0,0,0,0,-1,671,1807,0,0
-546,-783,0,0,0,0,0,0,0,0,0,-1,678,1807,0,0
-539,-783,0,0,0,0,0,0,0,0,0,-1,685,1807,0,0
-532,-783,0,0,0,0,0,0,0,0,0,-1,692,1807,0,0
-525,-783,0,0,0,0,0,0,0,0,0,-1,699,1807,0,0
-518,-783,0,0,0,0,0,0,0,0,0,-1,706,1807,0,0
-511,-783,0,0,0,0,0,0,0,0,0,-1,713,1807,0,0
-504,-783,0,0,0,0,0,0,0,0,0,-1,720,1807,0,0
-497,-783,0,0,0,0,0,0,0,0,0,-1,727,1807,0,0
-490,-783,0,0,0,0,0,0,0,0,0,-1,734,1807,0,0
-483,-783,0,0,0,0,0,0,0,0,0,-1,741,1807,0,0
-476,-783,0,0,0,0,0,0,0,0,0,-1,748,1807,0,0
-469,-783,0,0,0,0,0,0,0,0,0,-1,755,1807,0,0
-462,-783,0,0,0,0,0,0,0,0,0,-1,762,1807,0,0
-455,-783,0,0,0,0,0,0,0,0,0,-1,769,1807,0,0
-448,-783,0,0,0,0,0,0,0,0,0,-1,776,1807,0,0
-441,-783,0,0,0,0,0,0,0,0,0,-1,783,1807,0,0
-434,-783,0,0,0,0,0,0,0,0,0,-1,790,1807,0,0
-427,-783,0,0,0,0,0,0,0,0,0,-1,797,1807,0,0
-420,-783,0,0,0,0,0,0,0,0,0,-1,804,1807,0,0
-413,-783,0,0,0,0,0,0,0,0,0,-1,811,1807,0,0
-406,-783,0,0,0,0,0,0,0,0,0,-1,818,1807,0,0
-399,-783,0,0,0,0,0,0,0,0,0,-1,825,1807,0,0
-392,-783,0,0,0,0,0,0,0,0,0,-1,832,1807,0,0
-385,-783,0,0,0,0,0,0,0,0,0,-1,839,1807,0,0
-378,-783,0,0,0,0,0,0,0,0,0,-1,846,1807,0,0
-371,-783,0,0,0,0,0,0,0,0,0,-1,853,1807,0,0
-364,-783,0,0,0,0,0,0,0,0,0,-1,860,1807,0,0
-357,-783,0,0,0,0,0,0,0,0,0,-1,867,1807,0,0
-350,-783,0,0,0,0,0,0,0,0,0,-1,874,1807,0,0
-343,-783,0,0,0,0,0,0,0,0,0,-1,881,1807,0,0
-336,-783,0,0,0,0,0,0,0,0,0,-1,888,1807,0,0
-329,-783,0,0,0,0,0,0,0,0,0,-1,895,1807,0,0
-322,-783,0,0,0,0,0,0,0,0,0,-1,902,1807,0,0
-315,-783,0,0,0,0,0,0,0,0,0,-1,909,1807,0,0
-308,-783,0,0,0,0,0,0,0,0,0,-1,916,1807,0,0
-301,-783,0,0,0,0,0,0,0,0,0,-1,923,1807,0,0
-294,-783,0,0,0,0,0,0,0,0,0,-1,930,1807,0,0
-287,-783,0,0,0,0,0,0,0,0,0,-1,937,1807,0,0
-280,-783,0,0,0,0,0,0,0,0,0,-1,944,1807,0,0
-273,-783,0,0,0,0,0,0,0,0,0,-1,951,1807,0,0
-266,-783,0,0,0,0,0,0,0,0,0,-1,958,1807,0,0
-259,-783,0,0,0,0,0,0,0,0,0,-1,965,1807,0,0
-252,-783,0,0,0,0,0,0,0,0,0,-1,972,1807,0,0
-245,-783,0,0,0,0,0,0,0,0,0,-1,979,1807,0,0
-238,-783,0,0,0,0,0,0,0,0,0,-1,986,1807,0,0
-231,-783,0,0,0,0,0,0,0,0,0,-1,993,1807,0,0
-224,-783,0,0,0,0,0,0,0,0,0,-1,1000,1807,0,0
-217,-783,0,0,0,0,0,0,0,0,0,-1,1007,1807,0,0
-210,-783,0,0,0,0,0,0,0,0,0,-1,1014,1807,0,0
-203,-783,0,0,0,0,0,0,0,0,0,-1,1021,1807,0,0
-196,-783,0,0,0,0,0,0,0,0,0,-1,1028,1807,0,0
-189,-783,0,0,0,0,0,0,0,0,0,-1,1035,1807,0,0
-182,-783,0,0,0,0,0,0,0,0,0,-1,1042,1807,0,0
-175,-783,0,0,0,0,0,0,0,0,0,-1,1049,1807,0,0
-168,-783,0,0,0,0,0,0,0,0,0,-1,1056,1807,0,0
-161,-783,0,0,0,0,0,0,0,0,0,-1,1063,1807,0,0
-154,-783,0,0,0,0,0,0,0,0,0,-1,1070,1807,0,0
-147,-783,0,0,0,0,0,0,0,0,0,-1,1077,1807,0,0
-140,-783,0,0,0,0,0,0,0,0,0,-1,1084,1807,0,0
-133,-783,0,0,0,0,0,0,0,0,0,-1,1091,1807,0,0
-126,-783,0,0,0,0,0,0,0,0,0,-1,1098,1807,0,0
-119,-783,0,0,0,0,0,0,0,0,0,-1,1105,1807,0,0
-112,-783,5.33936,14.7699,0,0,0,0,0,0,0,-1,1112,1807,5.33931,-14.7699
-105,-783,6.44263,21.2224,0,0,0,0,0,0,0,-1,1119,1807,6.44263,-21.2224
-98,-783,5.54773,20.5695,0,0,0,0,0,0,0,-1,1126,1807,5.54772,-20.5695
-91,-783,2.6106,20.2491,0,0,0,0,0,0,0,-1,1133,1807,2.61056,-20.2492
-84,-783,-0.0491943,14.5743,0,0,0,0,0,0,0,-1,1140,1807,-0.0491562,-14.5743
-77,-783,0.332764,12.7788,0,0,0,0,0,0,0,-1,1147,1807,0.332743,-12.7788
-70,-783,-1.93176,5.12817,0,0,0,0,0,0,0,-1,1154,1807,-1.93171,-5.12813
-63,-783,-5.31702,10.54,0,0,0,0,0,0,0,-1,1161,1807,-5.31703,-10.54
-56,-783,-6.26135,6.9679,0,0,0,0,0,0,0,-1,1168,1807,-6.26136,-6.96785
-49,-783,-3.17688,4.59705,0,0,0,0,0,0,0,-1,1175,1807,-3.17685,-4.5971
-42,-783,-3.72876,3.1405,0,0,0,0,0,0,0,-1,1182,1807,-3.72874,-3.14055
-35,-783,-3.97046,1.59399,0,0,0,0,0,0,0,-1,1189,1807,-3.97041,-1.59401
-28,-783,-4.12195,0.270386,0,0,0,0,0,0,0,-1,1196,1807,-4.12197,-0.270408
-21,-783,10.4185,71.0951,0,0,0,0,0,0,0,-1,1203,1807,10.4185,-71.0951
-14,-783,10.6904,72.0156,0,0,0,0,0,0,0,-1,1210,1807,10.6905,-72.0156
-7,-783,9.15723,72.6886,0,0,0,0,0,0,0,-1,1217,1807,9.15721,-72.6885
0,-783,9.42236,72.519,0.0269178,0.0519325,0.00864563,0.0546298,0.0242205,1.26838,0.0316079,0.0460909,1224,1807,9.42235,-72.519
7,-783,9.8219,72.412,0.018243,0.0514701,0.00697775,0.0528759,0.0168371,1.37198,0.0311917,0.0461376,1231,1807,9.8219,-72.412
14,-783,10.2476,72.1042,0,0,0,0,0,0,0,-1,1238,1807,10.2476,-72.1042
21,-783,10.1946,72.3297,-0.00227737,0.0664731,0.00256262,0.0665685,-0.00237275,1.53359,0.0451907,0.0462035,1245,1807,10.1946,-72.3297
28,-783,10.3013,72.6493,-0.012644,0.0740519,0.00266734,0.0741339,-0.012726,1.54007,0.0541652,0.0453673,1252,1807,10.3013,-72.6493
35,-783,9.90173,73.2855,-0.0219888,0.0831845,0.00502818,0.0834244,-0.0222287,1.52313,0.0643192,0.0453607,1259,1807,9.90175,-73.2855
42,-783,9.75195,73.1805,0,0,0,0,0,0,0,-1,1266,1807,9.75193,-73.1805
49,-783,9.81946,73.6826,0,0,0,0,0,0,0,-1,1273,1807,9.81945,-73.6826
56,-783,9.32434,74.0341,0,0,0,0,0,0,0,-1,1280,1807,9.32429,-74.0341
63,-783,9.00952,74.4893,0,0,0,0,0,0,0,-1,1287,1807,9.00958,-74.4892
70,-783,7.84277,71.6564,0,0,0,0,0,0,0,-1,1294,1807,7.84272,-71.6564
77,-783,7.26404,71.9283,-0.0445625,0.125229,0.0295709,0.130232,-0.0495652,1.40321,0.107232,0.0498954,1301,1807,7.26409,-71.9284
84,-783,6.87732,72.2142,-0.0412526,0.126566,0.0309402,0.132089,-0.0467752,1.39416,0.107111,0.0447187,1308,1807,6.87737,-72.2142
91,-783,6.4126,72.5405,-0.0357181,0.129072,0.0317303,0.134971,-0.0416166,1.387,0.106596,0.0422173,1315,1807,6.41263,-72.5405
98,-783,5.9646,72.5413,-0.02927,0.12738,0.0269761,0.131895,-0.0337853,1.40495,0.101091,0.0430056,1322,1807,5.96465,-72.5412
105,-783,6.15784,71.8141,-0.0225633,0.128697,0.0200417,0.131307,-0.0251737,1.44128,0.0970241,0.0471539,1329,1807,6.15784,-71.8141
112,-783,6.61768,70.7125,-0.0149495,0.130066,0.0112548,0.130935,-0.0158178,1.4938,0.0930118,0.0475882,1336,1807,6.61766,-70.7126
119,-783,6.74597,70.1334,-0.0068956,0.118604,0.000415762,0.118606,-0.00689698,1.56748,0.0814669,0.0429363,1343,1807,6.74598,-70.1334
126,-783,6.33545,69.5134,0.00111153,0.123278,-0.0128862,0.124623,-0.000232909,-1.46684,0.0831597,0.0466416,1350,1807,6.33548,-69.5134
133,-783,5.99121,68.8654,0,0,0,0,0,0,0,-1,1357,1807,5.99124,-68.8654
140,-783,6.0918,67.2393,0,0,0,0,0,0,0,-1,1364,1807,6.09181,-67.2393
147,-783,6.09448,66.3209,0,0,0,0,0,0,0,-1,1371,1807,6.09444,-66.3209
154,-783,38.2109,17.545,0,0,0,0,0,0,0,-1,1378,1807,38.2109,-17.545
161,-783,39.5087,17.5449,0,0,0,0,0,0,0,-1,1385,1807,39.5087,-17.545
168,-783,8.62561,1.79944,0,0,0,0,0,0,0,-1,1392,1807,8.62561,-1.79946
175,-783,8.78699,3.40857,0,0,0,0,0,0,0,-1,1399,1807,8.78697,-3.40854
182,-783,8.70984,5.14661,0,0,0,0,0,0,0,-1,1406,1807,8.70989,-5.14666
189,-783,8.55762,6.79871,0,0,0,0,0,0,0,-1,1413,1807,8.55766,-6.79872
196,-783,8.25488,8.66626,0,0,0,0,0,0,0,-1,1420,1807,8.25492,-8.66628
203,-783,7.86755,10.5735,0,0,0,0,0,0,0,-1,1427,1807,7.8676,-10.5734
210,-783,5.6969,8.99231,0,0,0,0,0,0,0,-1,1434,1807,5.69693,-8.99234
217,-783,5.28503,3.80872,0,0,0,0,0,0,0,-1,1441,1807,5.285,-3.80868
224,-783,3.22571,6.62903,0,0,0,0,0,0,0,-1,1448,1807,3.2257,-6.62907
231,-783,4.27942,4.56262,0,0,0,0,0,0,0,-1,1455,1807,4.27948,-4.56267
238,-783,0,0,0,0,0,0,0,0,0,-1,1462,1807,0,0
245,-783,0,0,0,0,0,0,0,0,0,-1,1469,1807,0,0
252,-783,0,0,0,0,0,0,0,0,0,-1,1476,1807,0,0
259,-783,0,0,0,0,0,0,0,0,0,-1,1483,1807,0,0
266,-783,0,0,0,0,0,0,0,0,0,-1,1490,1807,0,0
273,-783,0,0,0,0,0,0,0,0,0,-1,1497,1807,0,0
280,-783,0,0,0,0,0,0,0,0,0,-1,1504,1807,0,0
287,-783,0,0,0,0,0,0,0,0,0,-1,1511,1807,0,0
294,-783,0,0,0,0,0,0,0,0,0,-1,1518,1807,0,0
301,-783,0,0,0,0,0,0,0,0,0,-1,1525,1807,0,0
308,-783,0,0,0,0,0,0,0,0,0,-1,1532,1807,0,0
315,-783,0,0,0,0,0,0,0,0,0,-1,1539,1807,0,0
322,-783,0,0,0,0,0,0,0,0,0,-1,1546,1807,0,0
329,-783,0,0,0,0,0,0,0,0,0,-1,1553,1807,0,0
336,-783,0,0,0,0,0,0,0,0,0,-1,1560,1807,0,0
343,-783,0,0,0,0,0,0,0,0,0,-1,1567,1807,0,0
350,-783,0,0,0,0,0,0,0,0,0,-1,1574,1807,0,0
357,-783,0,0,0,0,0,0,0,0,0,-1,1581,1807,0,0
364,-783,0,0,0,0,0,0,0,0,0,-1,1588,1807,0,0
371,-783,0,0,0,0,0,0,0,0,0,-1,1595,1807,0,0
378,-783,0,0,0,0,0,0,0,0,0,-1,1602,1807,0,0
385,-783,0,0,0,0,0,0,0,0,0,-1,1609,1807,0,0
392,-783,0,0,0,0,0,0,0,0,0,-1,1616,1807,0,0
399,-783,0,0,0,0,0,0,0,0,0,-1,1623,1807,0,0
406,-783,0,0,0,0,0,0,0,0,0,-1,1630,1807,0,0
413,-783,0,0,0,0,0,0,0,0,0,-1,1637,1807,0,0
420,-783,0,0,0,0,0,0,0,0,0,-1,1644,1807,0,0
427,-783,0,0,0,0,0,0,0,0,0,-1,1651,1807,0,0
434,-783,0,0,0,0,0,0,0,0,0,-1,1658,1807,0,0
441,-783,0,0,0,0,0,0,0,0,0,-1,1665,1807,0,0
448,-783,0,0,0,0,0,0,0,0,0,-1,1672,1807,0,0
455,-783,0,0,0,0,0,0,0,0,0,-1,1679,1807,0,0
462,-783,0,0,0,0,0,0,0,0,0,-1,1686,1807,0,0
469,-783,0,0,0,0,0,0,0,0,0,-1,1693,1807,0,0
476,-783,0,0,0,0,0,0,0,0,0,-1,1700,1807,0,0
483,-783,0,0,0,0,0,0,0,0,0,-1,1707,1807,0,0
490,-783,0,0,0,0,0,0,0,0,0,-1,1714,1807,0,0
497,-783,0,0,0,0,0,0,0,0,0,-1,1721,1807,0,0
504,-783,0,0,0,0,0,0,0,0,0,-1,1728,1807,0,0
511,-783,0,0,0,0,0,0,0,0,0,-1,1735,1807,0,0
518,-783,0,0,0,0,0,0,0,0,0,-1,1742,1807,0,0
525,-783,0,0,0,0,0,0,0,0,0,-1,1749,1807,0,0
532,-783,0,0,0,0,0,0,0,0,0,-1,1756,1807,0,0
539,-783,0,0,0,0,0,0,0,0,0,-1,1763,1807,0,0
546,-783,0,0,0,0,0,0,0,0,0,-1,1770,1807,0,0
553,-783,0,0,0,0,0,0,0,0,0,-1,1777,1807,0,0
560,-783,0,0,0,0,0,0,0,0,0,-1,1784,1807,0,0
567,-783,0,0,0,0,0,0,0,0,0,-1,1791,1807,0,0
574,-783,0,0,0,0,0,0,0,0,0,-1,1798,1807,0,0
581,-783,0,0,0,0,0,0,0,0,0,-1,1805,1807,0,0
588,-783,0,0,0,0,0,0,0,0,0,-1,1812,1807,0,0
595,-783,0,0,0,0,0,0,0,0,0,-1,1819,1807,0,0
602,-783,0,0,0,0,0,0,0,0,0,-1,1826,1807,0,0
609,-783,0,0,0,0,0,0,0,0,0,-1,1833,1807,0,0
616,-783,0,0,0,0,0,0,0,0,0,-1,1840,1807,0,0
623,-783,0,0,0,0,0,0,0,0,0,-1,1847,1807,0,0
630,-783,0,0,0,0,0,0,0,0,0,-1,1854,1807,0,0
637,-783,0,0,0,0,0,0,0,0,0,-1,1861,1807,0,0
644,-783,0,0,0,0,0,0,0,0,0,-1,1868,1807,0,0
651,-783,0,0,0,0,0,0,0,0,0,-1,1875,1807,0,0
658,-783,0,0,0,0,0,0,0,0,0,-1,1882,1807,0,0
665,-783,0,0,0,0,0,0,0,0,0,-1,1889,1807,0,0
672,-783,0,0,0,0,0,0,0,0,0,-1,1896,1807,0,0
679,-783,0,0,0,0,0,0,0,0,0,-1,1903,1807,0,0
686,-783,0,0,0,0,0,0,0,0,0,-1,1910,1807,0,0
693,-783,0,0,0,0,0,0,0,0,0,-1,1917,1807,0,0
700,-783,0,0,0,0,0,0,0,0,0,-1,1924,1807,0,0
707,-783,0,0,0,0,0,0,0,0,0,-1,1931,1807,0,0
714,-783,0,0,0,0,0,0,0,0,0,-1,1938,1807,0,0
721,-783,0,0,0,0,0,0,0,0,0,-1,1945,1807,0,0
728,-783,0,0,0,0,0,0,0,0,0,-1,1952,1807,0,0
735,-783,0,0,0,0,0,0,0,0,0,-1,1959,1807,0,0
742,-783,0,0,0,0,0,0,0,0,0,-1,1966,1807,0,0
749,-783,0,0,0,0,0,0,0,0,0,-1,1973,1807,0,0
756,-783,0,0,0,0,0,0,0,0,0,-1,1980,1807,0,0
763,-783,0,0,0,0,0,0,0,0,0,-1,1987,1807,0,0
770,-783,0,0,0,0,0,0,0,0,0,-1,1994,1807,0,0
777,-783,0,0,0,0,0,0,0,0,0,-1,2001,1807,0,0
784,-783,0,0,0,0,0,0,0,0,0,-1,2008,1807,0,0
791,-783,0,0,0,0,0,0,0,0,0,-1,2015,1807,0,0
798,-783,0,0,0,0,0,0,0,0,0,-1,2022,1807,0,0
805,-783,0,0,0,0,0,0,0,0,0,-1,2029,1807,0,0
812,-783,0,0,0,0,0,0,0,0,0,-1,2036,1807,0,0
-700,-790,0,0,0,0,0,0,0,0,0,-1,524,1814,0,0
-693,-790,0,0,0,0,0,0,0,0,0,-1,531,1814,0,0
-686,-790,0,0,0,0,0,0,0,0,0,-1,538,1814,0,0
-679,-790,0,0,0,0,0,0,0,0,0,-1,545,1814,0,0
-672,-790,0,0,0,0,0,0,0,0,0,-1,552,1814,0,0
-665,-790,0,0,0,0,0,0,0,0,0,-1,559,1814,0,0
-658,-790,0,0,0,0,0,0,0,0,0,-1,566,1814,0,0
-651,-790,0,0,0,0,0,0,0,0,0,-1,573,1814,0,0
-644,-790,0,0,0,0,0,0,0,0,0,-1,580,1814,0,0
-637,-790,0,0,0,0,0,0,0,0,0,-1,587,1814,0,0
-630,-790,0,0,0,0,0,0,0,0,0,-1,594,1814,0,0
-623,-790,0,0,0,0,0,0,0,0,0,-1,601,1814,0,0
-616,-790,0,0,0,0,0,0,0,0,0,-1,608,1814,0,0
-609,-790,0,0,0,0,0,0,0,0,0,-1,615,1814,0,0
-602,-790,0,0,0,0,0,0,0,0,0,-1,622,1814,0,0
-595,-790,0,0,0,0,0,0,0,0,0,-1,629,1814,0,0
-588,-790,0,0,0,0,0,0,0,0,0,-1,636,1814,0,0
-581,-790,0,0,0,0,0,0,0,0,0,-1,643,1814,0,0
-574,-790,0,0,0,0,0,0,0,0,0,-1,650,1814,0,0
-567,-790,0,0,0,0,0,0,0,0,0,-1,657,1814,0,0
-560,-790,0,0,0,0,0,0,0,0,0,-1,664,1814,0,0
-553,-790,0,0,0,0,0,0,0,0,0,-1,671,1814,0,0
-546,-790,0,0,0,0,0,0,0,0,0,-1,678,1814,0,0
-539,-790,0,0,0,0,0,0,0,0,0,-1,685,1814,0,0
-532,-790,0,0,0,0,0,0,0,0,0,-1,692,1814,0,0
-525,-790,0,0,0,0,0,0,0,0,0,-1,699,1814,0,0
-518,-790,0,0,0,0,0,0,0,0,0,-1,706,1814,0,0
-511,-790,0,0,0,0,0,0,0,0,0,-1,713,1814,0,0
-504,-790,0,0,0,0,0,0,0,0,0,-1,720,1814,0,0
-497,-790,0,0,0,0,0,0,0,0,0,-1,727,1814,0,0
-490,-790,0,0,0,0,0,0,0,0,0,-1,734,1814,0,0
-483,-790,0,0,0,0,0,0,0,0,0,-1,741,1814,0,0
-476,-790,0,0,0,0,0,0,0,0,0,-1,748,1814,0,0
-469,-790,0,0,0,0,0,0,0,0,0,-1,755,1814,0,0
-462,-790,0,0,0,0,0,0,0,0,0,-1,762,1814,0,0
-455,-790,0,0,0,0,0,0,0,0,0,-1,769,1814,0,0
-448,-790,0,0,0,0,0,0,0,0,0,-1,776,1814,0,0
-441,-790,0,0,0,0,0,0,0,0,0,-1,783,1814,0,0
-434,-790,0,0,0,0,0,0,0,0,0,-1,790,1814,0,0
-427,-790,0,0,0,0,0,0,0,0,0,-1,797,1814,0,0
-420,-790,0,0,0,0,0,0,0,0,0,-1,804,1814,0,0
-413,-790,0,0,0,0,0,0,0,0,0,-1,811,1814,0,0
-406,-790,0,0,0,0,0,0,0,0,0,-1,818,1814,0,0
-399,-790,0,0,0,0,0,0,0,0,0,-1,825,1814,0,0
-392,-790,0,0,0,0,0,0,0,0,0,-1,832,1814,0,0
-385,-790,0,0,0,0,0,0,0,0,0,-1,839,1814,0,0
-378,-790,0,0,0,0,0,0,0,0,0,-1,846,1814,0,0
-371,-790,0,0,0,0,0,0,0,0,0,-1,853,1814,0,0
-364,-790,0,0,0,0,0,0,0,0,0,-1,860,1814,0,0
-357,-790,0,0,0,0,0,0,0,0,0,-1,867,1814,0,0
-350,-790,0,0,0,0,0,0,0,0,0,-1,874,1814,0,0
-343,-790,0,0,0,0,0,0,0,0,0,-1,881,1814,0,0
-336,-790,0,0,0,0,0,0,0,0,0,-1,888,1814,0,0
-329,-790,0,0,0,0,0,0,0,0,0,-1,895,1814,0,0
-322,-790,0,0,0,0,0,0,0,0,0,-1,902,1814,0,0
-315,-790,0,0,0,0,0,0,0,0,0,-1,909,1814,0,0
-308,-790,0,0,0,0,0,0,0,0,0,-1,916,1814,0,0
-301,-790,0,0,0,0,0,0,0,0,0,-1,923,1814,0,0
-294,-790,0,0,0,0,0,0,0,0,0,-1,930,1814,0,0
-287,-790,0,0,0,0,0,0,0,0,0,-1,937,1814,0,0
-280,-790,0,0,0,0,0,0,0,0,0,-1,944,1814,0,0
-273,-790,0,0,0,0,0,0,0,0,0,-1,951,1814,0,0
-266,-790,0,0,0,0,0,0,0,0,0,-1,958,1814,0,0
-259,-790,0,0,0,0,0,0,0,0,0,-1,965,1814,0,0
-252,-790,0,0,0,0,0,0,0,0,0,-1,972,1814,0,0
-245,-790,0,0,0,0,0,0,0,0,0,-1,979,1814,0,0
-238,-790,0,0,0,0,0,0,0,0,0,-1,986,1814,0,0
-231,-790,0,0,0,0,0,0,0,0,0,-1,993,1814,0,0
-224,-790,0,0,0,0,0,0,0,0,0,-1,1000,1814,0,0
-217,-790,0,0,0,0,0,0,0,0,0,-1,1007,1814,0,0
-210,-790,0,0,0,0,0,0,0,0,0,-1,1014,1814,0,0
-203,-790,0,0,0,0,0,0,0,0,0,-1,1021,1814,0,0
-196,-790,0,0,0,0,0,0,0,0,0,-1,1028,1814,0,0
-189,-790,0,0,0,0,0,0,0,0,0,-1,1035,1814,0,0
-182,-790,0,0,0,0,0,0,0,0,0,-1,1042,1814,0,0
-175,-790,0,0,0,0,0,0,0,0,0,-1,1049,1814,0,0
-168,-790,0,0,0,0,0,0,0,0,0,-1,1056,1814,0,0
-161,-790,0,0,0,0,0,0,0,0,0,-1,1063,1814,0,0
-154,-790,0,0,0,0,0,0,0,0,0,-1,1070,1814,0,0
-147,-790,0,0,0,0,0,0,0,0,0,-1,1077,1814,0,0
-140,-790,0,0,0,0,0,0,0,0,0,-1,1084,1814,0,0
-133,-790,0,0,0,0,0,0,0,0,0,-1,1091,1814,0,0
-126,-790,0,0,0,0,0,0,0,0,0,-1,1098,1814,0,0
-119,-790,0,0,0,0,0,0,0,0,0,-1,1105,1814,0,0
-112,-790,0,0,0,0,0,0,0,0,0,-1,1112,1814,0,0
-105,-790,0,0,0,0,0,0,0,0,0,-1,1119,1814,0,0
-98,-790,0,0,0,0,0,0,0,0,0,-1,1126,1814,0,0
-91,-790,0,0,0,0,0,0,0,0,0,-1,1133,1814,0,0
-84,-790,0,0,0,0,0,0,0,0,0,-1,1140,1814,0,0
-77,-790,-0.969238,5.30847,0,0,0,0,0,0,0,-1,1147,1814,-0.969277,-5.3085
-70,-790,-1.23169,4.98914,0,0,0,0,0,0,0,-1,1154,1814,-1.23163,-4.98916
-63,-790,-1.69128,4.32263,0,0,0,0,0,0,0,-1,1161,1814,-1.69128,-4.32258
-56,-790,-2.24756,3.75305,0,0,0,0,0,0,0,-1,1168,1814,-2.24758,-3.75302
-49,-790,-3.11011,3.35779,0,0,0,0,0,0,0,-1,1175,1814,-3.11006,-3.35781
-42,-790,0.593262,1.19165,0,0,0,0,0,0,0,-1,1182,1814,0.593225,-1.19165
-35,-790,0.307129,-0.20105,0,0,0,0,0,0,0,-1,1189,1814,0.307178,0.201006
-28,-790,-2.78467,0.785156,0,0,0,0,0,0,0,-1,1196,1814,-2.78471,-0.785183
-21,-790,10.4314,70.5967,0,0,0,0,0,0,0,-1,1203,1814,10.4314,-70.5967
-14,-790,10.5758,71.3949,0,0,0,0,0,0,0,-1,1210,1814,10.5758,-71.3949
-7,-790,8.81226,72.267,0,0,0,0,0,0,0,-1,1217,1814,8.8123,-72.267
0,-790,9.26794,72.201,0.0377016,0.0593762,0.00984488,0.0631803,0.0338975,1.20207,0.0365096,0.0469456,1224,1814,9.26795,-72.201
7,-790,9.87659,72.2926,0.0255476,0.059196,0.00758513,0.0608269,0.0239168,1.35902,0.0353845,0.0458621,1231,1814,9.87656,-72.2926
14,-790,10.1169,72.1605,0.012173,0.0672976,0.00426644,0.0676258,0.0118448,1.49401,0.0417002,0.0465019,1238,1814,10.1169,-72.1606
21,-790,9.94312,71.8102,-0.00175819,0.0758029,0.00182662,0.0758459,-0.00180119,1.54726,0.0511749,0.0460306,1245,1814,9.9431,-71.8102
28,-790,9.86169,72.2559,-0.0152376,0.0857592,0.00170049,0.0857878,-0.0152663,1.55397,0.0629012,0.0441003,1252,1814,9.86174,-72.2558
35,-790,10.1353,72.9415,0,0,0,0,0,0,0,-1,1259,1814,10.1352,-72.9415
42,-790,10.7556,73.1982,0,0,0,0,0,0,0,-1,1266,1814,10.7556,-73.1983
49,-790,10.2827,73.7172,-0.0437565,0.11978,0.0159011,0.121312,-0.0452882,1.47476,0.0994686,0.048505,1273,1814,10.2827,-73.7171
56,-790,9.83521,74.3079,-0.0499216,0.131215,0.0223029,0.133921,-0.0526273,1.45007,0.11106,0.0453485,1280,1814,9.83516,-74.3079
63,-790,9.2738,74.7587,-0.0535308,0.141854,0.0292088,0.146127,-0.0578039,1.42553,0.121365,0.0420596,1287,1814,9.27384,-74.7587
70,-790,6.75183,71.0684,-0.0547512,0.148427,0.0338509,0.153919,-0.0602426,1.40997,0.127528,0.0410542,1294,1814,6.75178,-71.0684
77,-790,5.85889,71.2833,-0.0538893,0.152587,0.0370849,0.159046,-0.060348,1.39837,0.13087,0.042062,1301,1814,5.85885,-71.2833
84,-790,5.63025,71.8121,-0.0500314,0.154614,0.0395979,0.162009,-0.0574262,1.38618,0.131399,0.0427055,1308,1814,5.63023,-71.8121
91,-790,5.22156,72.1442,-0.0435901,0.156639,0.0415964,0.164937,-0.0518876,1.3739,0.130732,0.0429475,1315,1814,5.22158,-72.1441
98,-790,4.91638,71.8525,-0.0358281,0.153819,0.0360576,0.160443,-0.0424524,1.38911,0.123568,0.0459367,1322,1814,4.91637,-71.8526
105,-790,5.26331,70.866,0,0,0,0,0,0,0,-1,1329,1814,5.26333,-70.866
112,-790,6.99988,70.0426,0,0,0,0,0,0,0,-1,1336,1814,6.99994,-70.0426
119,-790,6.6062,69.4705,-0.00925261,0.139816,0.00296511,0.139875,-0.00931156,1.55092,0.0965036,0.0458852,1343,1814,6.60626,-69.4704
126,-790,6.19189,68.9,0.000219118,0.144768,-0.0148646,0.14628,-0.00129364,-1.46938,0.0979543,0.0490346,1350,1814,6.19195,-68.9
133,-790,5.81494,68.3275,0,0,0,0,0,0,0,-1,1357,1814,5.81495,-68.3275
140,-790,5.38013,66.6008,0,0,0,0,0,0,0,-1,1364,1814,5.38018,-66.6008
147,-790,5.57434,65.4255,0,0,0,0,0,0,0,-1,1371,1814,5.57431,-65.4255
154,-790,40.215,13.2396,0,0,0,0,0,0,0,-1,1378,1814,40.2149,-13.2396
161,-790,39.3429,13.0336,0,0,0,0,0,0,0,-1,1385,1814,39.3429,-13.0336
168,-790,7.04077,2.23279,0,0,0,0,0,0,0,-1,1392,1814,7.04082,-2.23275
175,-790,9.03918,3.98535,0,0,0,0,0,0,0,-1,1399,1814,9.0392,-3.98535
182,-790,8.96997,5.67896,0,0,0,0,0,0,0,-1,1406,1814,8.97001,-5.6789
189,-790,8.59729,6.86975,0,0,0,0,0,0,0,-1,1413,1814,8.59728,-6.86972
196,-790,8.21924,9.29053,0,0,0,0,0,0,0,-1,1420,1814,8.21924,-9.29048
203,-790,0,0,0,0,0,0,0,0,0,-1,1427,1814,0,0
210,-790,0,0,0,0,0,0,0,0,0,-1,1434,1814,0,0
217,-790,0,0,0,0,0,0,0,0,0,-1,1441,1814,0,0
224,-790,0,0,0,0,0,0,0,0,0,-1,1448,1814,0,0
231,-790,0,0,0,0,0,0,0,0,0,-1,1455,1814,0,0
238,-790,0,0,0,0,0,0,0,0,0,-1,1462,1814,0,0
245,-790,0,0,0,0,0,0,0,0,0,-1,1469,1814,0,0
252,-790,0,0,0,0,0,0,0,0,0,-1,1476,1814,0,0
259,-790,0,0,0,0,0,0,0,0,0,-1,1483,1814,0,0
266,-790,0,0,0,0,0,0,0,0,0,-1,1490,1814,0,0
273,-790,0,0,0,0,0,0,0,0,0,-1,1497,1814,0,0
280,-790,0,0,0,0,0,0,0,0,0,-1,1504,1814,0,0
287,-790,0,0,0,0,0,0,0,0,0,-1,1511,1814,0,0
294,-790,0,0,0,0,0,0,0,0,0,-1,1518,1814,0,0
301,-790,0,0,0,0,0,0,0,0,0,-1,1525,1814,0,0
308,-790,0,0,0,0,0,0,0,0,0,-1,1532,1814,0,0
315,-790,0,0,0,0,0,0,0,0,0,-1,1539,1814,0,0
322,-790,0,0,0,0,0,0,0,0,0,-1,1546,1814,0,0
329,-790,0,0,0,0,0,0,0,0,0,-1,1553,1814,0,0
336,-790,0,0,0,0,0,0,0,0,0,-1,1560,1814,0,0
343,-790,0,0,0,0,0,0,0,0,0,-1,1567,1814,0,0
350,-790,0,0,0,0,0,0,0,0,0,-1,1574,1814,0,0
357,-790,0,0,0,0,0,0,0,0,0,-1,1581,1814,0,0
364,-790,0,0,0,0,0,0,0,0,0,-1,1588,1814,0,0
371,-790,0,0,0,0,0,0,0,0,0,-1,1595,1814,0,0
378,-790,0,0,0,0,0,0,0,0,0,-1,1602,1814,0,0
385,-790,0,0,0,0,0,0,0,0,0,-1,1609,1814,0,0
392,-790,0,0,0,0,0,0,0,0,0,-1,1616,1814,0,0
399,-790,0,0,0,0,0,0,0,0,0,-1,1623,1814,0,0
406,-790,0,0,0,0,0,0,0,0,0,-1,1630,1814,0,0
413,-790,0,0,0,0,0,0,0,0,0,-1,1637,1814,0,0
420,-790,0,0,0,0,0,0,0,0,0,-1,1644,1814,0,0
427,-790,0,0,0,0,0,0,0,0,0,-1,1651,1814,0,0
434,-790,0,0,0,0,0,0,0,0,0,-1,1658,1814,0,0
441,-790,0,0,0,0,0,0,0,0,0,-1,1665,1814,0,0
448,-790,0,0,0,0,0,0,0,0,0,-1,1672,1814,0,0
455,-790,0,0,0,0,0,0,0,0,0,-1,1679,1814,0,0
462,-790,0,0,0,0,0,0,0,0,0,-1,1686,1814,0,0
469,-790,0,0,0,0,0,0,0,0,0,-1,1693,1814,0,0
476,-790,0,0,0,0,0,0,0,0,0,-1,1700,1814,0,0
483,-790,0,0,0,0,0,0,0,0,0,-1,1707,1814,0,0
490,-790,0,0,0,0,0,0,0,0,0,-1,1714,1814,0,0
497,-790,0,0,0,0,0,0,0,0,0,-1,1721,1814,0,0
504,-790,0,0,0,0,0,0,0,0,0,-1,1728,1814,0,0
511,-790,0,0,0,0,0,0,0,0,0,-1,1735,1814,0,0
518,-790,0,0,0,0,0,0,0,0,0,-1,1742,1814,0,0
525,-790,0,0,0,0,0,0,0,0,0,-1,1749,1814,0,0
532,-790,0,0,0,0,0,0,0,0,0,-1,1756,1814,0,0
539,-790,0,0,0,0,0,0,0,0,0,-1,1763,1814,0,0
546,-790,0,0,0,0,0,0,0,0,0,-1,1770,1814,0,0
553,-790,0,0,0,0,0,0,0,0,0,-1,1777,1814,0,0
560,-790,0,0,0,0,0,0,0,0,0,-1,1784,1814,0,0
567,-790,0,0,0,0,0,0,0,0,0,-1,1791,1814,0,0
574,-790,0,0,0,0,0,0,0,0,0,-1,1798,1814,0,0
581,-790,0,0,0,0,0,0,0,0,0,-1,1805,1814,0,0
588,-790,0,0,0,0,0,0,0,0,0,-1,1812,1814,0,0
595,-790,0,0,0,0,0,0,0,0,0,-1,1819,1814,0,0
602,-790,0,0,0,0,0,0,0,0,0,-1,1826,1814,0,0
609,-790,0,0,0,0,0,0,0,0,0,-1,1833,1814,0,0
616,-790,0,0,0,0,0,0,0,0,0,-1,1840,1814,0,0
623,-790,0,0,0,0,0,0,0,0,0,-1,1847,1814,0,0
630,-790,0,0,0,0,0,0,0,0,0,-1,1854,1814,0,0
637,-790,0,0,0,0,0,0,0,0,0,-1,1861,1814,0,0
644,-790,0,0,0,0,0,0,0,0,0,-1,1868,1814,0,0
651,-790,0,0,0,0,0,0,0,0,0,-1,1875,1814,0,0
658,-790,0,0,0,0,0,0,0,0,0,-1,1882,1814,0,0
665,-790,0,0,0,0,0,0,0,0,0,-1,1889,1814,0,0
672,-790,0,0,0,0,0,0,0,0,0,-1,1896,1814,0,0
679,-790,0,0,0,0,0,0,0,0,0,-1,1903,1814,0,0
686,-790,0,0,0,0,0,0,0,0,0,-1,1910,1814,0,0
693,-790,0,0,0,0,0,0,0,0,0,-1,1917,1814,0,0
700,-790,0,0,0,0,0,0,0,0,0,-1,1924,1814,0,0
707,-790,0,0,0,0,0,0,0,0,0,-1,1931,1814,0,0
714,-790,0,0,0,0,0,0,0,0,0,-1,1938,1814,0,0
721,-790,0,0,0,0,0,0,0,0,0,-1,1945,1814,0,0
728,-790,0,0,0,0,0,0,0,0,0,-1,1952,1814,0,0
735,-790,0,0,0,0,0,0,0,0,0,-1,1959,1814,0,0
742,-790,0,0,0,0,0,0,0,0,0,-1,1966,1814,0,0
749,-790,0,0,0,0,0,0,0,0,0,-1,1973,1814,0,0
756,-790,0,0,0,0,0,0,0,0,0,-1,1980,1814,0,0
763,-790,0,0,0,0,0,0,0,0,0,-1,1987,1814,0,0
770,-790,0,0,0,0,0,0,0,0,0,-1,1994,1814,0,0
777,-790,0,0,0,0,0,0,0,0,0,-1,2001,1814,0,0
784,-790,0,0,0,0,0,0,0,0,0,-1,2008,1814,0,0
791,-790,0,0,0,0,0,0,0,0,0,-1,2015,1814,0,0
798,-790,0,0,0,0,0,0,0,0,0,-1,2022,1814,0,0
805,-790,0,0,0,0,0,0,0,0,0,-1,2029,1814,0,0
812,-790,0,0,0,0,0,0,0,0,0,-1,2036,1814,0,0
-700,-797,0,0,0,0,0,0,0,0,0,-1,524,1821,0,0
-693,-797,0,0,0,0,0,0,0,0,0,-1,531,1821,0,0
-686,-797,0,0,0,0,0,0,0,0,0,-1,538,1821,0,0
-679,-797,0,0,0,0,0,0,0,0,0,-1,545,1821,0,0
-672,-797,0,0,0,0,0,0,0,0,0,-1,552,1821,0,0
-665,-797,0,0,0,0,0,0,0,0,0,-1,559,1821,0,0
-658,-797,0,0,0,0,0,0,0,0,0,-1,566,1821,0,0
-651,-797,0,0,0,0,0,0,0,0,0,-1,573,1821,0,0
-644,-797,0,0,0,0,0,0,0,0,0,-1,580,1821,0,0
-637,-797,0,0,0,0,0,0,0,0,0,-1,587,1821,0,0
-630,-797,0,0,0,0,0,0,0,0,0,-1,594,1821,0,0
-623,-797,0,0,0,0,0,0,0,0,0,-1,601,1821,0,0
-616,-797,0,0,0,0,0,0,0,0,0,-1,608,1821,0,0
-609,-797,0,0,0,0,0,0,0,0,0,-1,615,1821,0,0
-602,-797,0,0,0,0,0,0,0,0,0,-1,622,1821,0,0
-595,-797,0,0,0,0,0,0,0,0,0,-1,629,1821,0,0
-588,-797,0,0,0,0,0,0,0,0,0,-1,636,1821,0,0
-581,-797,0,0,0,0,0,0,0,0,0,-1,643,1821,0,0
-574,-797,0,0,0,0,0,0,0,0,0,-1,650,1821,0,0
-567,-797,0,0,0,0,0,0,0,0,0,-1,657,1821,0,0
-560,-797,0,0,0,0,0,0,0,0,0,-1,664,1821,0,0
-553,-797,0,0,0,0,0,0,0,0,0,-1,671,1821,0,0
-546,-797,0,0,0,0,0,0,0,0,0,-1,678,1821,0,0
-539,-797,0,0,0,0,0,0,0,0,0,-1,685,1821,0,0
-532,-797,0,0,0,0,0,0,0,0,0,-1,692,1821,0,0
-525,-797,0,0,0,0,0,0,0,0,0,-1,699,1821,0,0
-518,-797,0,0,0,0,0,0,0,0,0,-1,706,1821,0,0
-511,-797,0,0,0,0,0,0,0,0,0,-1,713,1821,0,0
-504,-797,0,0,0,0,0,0,0,0,0,-1,720,1821,0,0
-497,-797,0,0,0,0,0,0,0,0,0,-1,727,1821,0,0
-490,-797,0,0,0,0,0,0,0,0,0,-1,734,1821,0,0
-483,-797,0,0,0,0,0,0,0,0,0,-1,741,1821,0,0
-476,-797,0,0,0,0,0,0,0,0,0,-1,748,1821,0,0
-469,-797,0,0,0,0,0,0,0,0,0,-1,755,1821,0,0
-462,-797,0,0,0,0,0,0,0,0,0,-1,762,1821,0,0
-455,-797,0,0,0,0,0,0,0,0,0,-1,769,1821,0,0
-448,-797,0,0,0,0,0,0,0,0,0,-1,776,1821,0,0
-441,-797,0,0,0,0,0,0,0,0,0,-1,783,1821,0,0
-434,-797,0,0,0,0,0,0,0,0,0,-1,790,1821,0,0
-427,-797,0,0,0,0,0,0,0,0,0,-1,797,1821,0,0
-420,-797,0,0,0,0,0,0,0,0,0,-1,804,1821,0,0
-413,-797,0,0,0,0,0,0,0,0,0,-1,811,1821,0,0
-406,-797,0,0,0,0,0,0,0,0,0,-1,818,1821,0,0
-399,-797,0,0,0,0,0,0,0,0,0,-1,825,1821,0,0
-392,-797,0,0,0,0,0,0,0,0,0,-1,832,1821,0,0
-385,-797,0,0,0,0,0,0,0,0,0,-1,839,1821,0,0
-378,-797,0,0,0,0,0,0,0,0,0,-1,846,1821,0,0
-371,-797,0,0,0,0,0,0,0,0,0,-1,853,1821,0,0
-364,-797,0,0,0,0,0,0,0,0,0,-1,860,1821,0,0
-357,-797,0,0,0,0,0,0,0,0,0,-1,867,1821,0,0
-350,-797,0,0,0,0,0,0,0,0,0,-1,874,1821,0,0
-343,-797,0,0,0,0,0,0,0,0,0,-1,881,1821,0,0
-336,-797,0,0,0,0,0,0,0,0,0,-1,888,1821,0,0
-329,-797,0,0,0,0,0,0,0,0,0,-1,895,1821,0,0
-322,-797,0,0,0,0,0,0,0,0,0,-1,902,1821,0,0
-315,-797,0,0,0,0,0,0,0,0,0,-1,909,1821,0,0
-308,-797,0,0,0,0,0,0,0,0,0,-1,916,1821,0,0
-301,-797,0,0,0,0,0,0,0,0,0,-1,923,1821,0,0
-294,-797,0,0,0,0,0,0,0,0,0,-1,930,1821,0,0
-287,-797,0,0,0,0,0,0,0,0,0,-1,937,1821,0,0
-280,-797,0,0,0,0,0,0,0,0,0,-1,944,1821,0,0
-273,-797,0,0,0,0,0,0,0,0,0,-1,951,1821,0,0
-266,-797,0,0,0,0,0,0,0,0,0,-1,958,1821,0,0
-259,-797,0,0,0,0,0,0,0,0,0,-1,965,1821,0,0
-252,-797,0,0,0,0,0,0,0,0,0,-1,972,1821,0,0
-245,-797,0,0,0,0,0,0,0,0,0,-1,979,1821,0,0
-238,-797,0,0,0,0,0,0,0,0,0,-1,986,1821,0,0
-231,-797,0,0,0,0,0,0,0,0,0,-1,993,1821,0,0
-224,-797,0,0,0,0,0,0,0,0,0,-1,1000,1821,0,0
-217,-797,0,0,0,0,0,0,0,0,0,-1,1007,1821,0,0
-210,-797,0,0,0,0,0,0,0,0,0,-1,1014,1821,0,0
-203,-797,0,0,0,0,0,0,0,0,0,-1,1021,1821,0,0
-196,-797,0,0,0,0,0,0,0,0,0,-1,1028,1821,0,0
-189,-797,0,0,0,0,0,0,0,0,0,-1,1035,1821,0,0
-182,-797,0,0,0,0,0,0,0,0,0,-1,1042,1821,0,0
-175,-797,0,0,0,0,0,0,0,0,0,-1,1049,1821,0,0
-168,-797,0,0,0,0,0,0,0,0,0,-1,1056,1821,0,0
-161,-797,0,0,0,0,0,0,0,0,0,-1,1063,1821,0,0
-154,-797,0,0,0,0,0,0,0,0,0,-1,1070,1821,0,0
-147,-797,0,0,0,0,0,0,0,0,0,-1,1077,1821,0,0
-140,-797,0,0,0,0,0,0,0,0,0,-1,1084,1821,0,0
-133,-797,0,0,0,0,0,0,0,0,0,-1,1091,1821,0,0
-126,-797,0,0,0,0,0,0,0,0,0,-1,1098,1821,0,0
-119,-797,0,0,0,0,0,0,0,0,0,-1,1105,1821,0,0
-112,-797,0,0,0,0,0,0,0,0,0,-1,1112,1821,0,0
-105,-797,0,0,0,0,0,0,0,0,0,-1,1119,1821,0,0
-98,-797,0,0,0,0,0,0,0,0,0,-1,1126,1821,0,0
-91,-797,0,0,0,0,0,0,0,0,0,-1,1133,1821,0,0
-84,-797,0,0,0,0,0,0,0,0,0,-1,1140,1821,0,0
-77,-797,0,0,0,0,0,0,0,0,0,-1,1147,1821,0,0
-70,-797,0,0,0,0,0,0,0,0,0,-1,1154,1821,0,0
-63,-797,0,0,0,0,0,0,0,0,0,-1,1161,1821,0,0
-56,-797,0,0,0,0,0,0,0,0,0,-1,1168,1821,0,0
-49,-797,0,0,0,0,0,0,0,0,0,-1,1175,1821,0,0
-42,-797,0.579834,0.692871,0,0,0,0,0,0,0,-1,1182,1821,0.579856,-0.692816
-35,-797,-0.185425,5.55396,0,0,0,0,0,0,0,-1,1189,1821,-0.18542,-5.55396
-28,-797,-0.310181,4.71509,0,0,0,0,0,0,0,-1,1196,1821,-0.310228,-4.71503
-21,-797,10.1837,69.9631,0,0,0,0,0,0,0,-1,1203,1821,10.1838,-69.9631
-14,-797,10.6216,71.1005,0,0,0,0,0,0,0,-1,1210,1821,10.6215,-71.1005
-7,-797,10.7529,72.0222,0,0,0,0,0,0,0,-1,1217,1821,10.7529,-72.0222
0,-797,9.40955,71.8318,0,0,0,0,0,0,0,-1,1224,1821,9.40955,-71.8318
7,-797,10.0125,72.1216,0,0,0,0,0,0,0,-1,1231,1821,10.0125,-72.1215
14,-797,9.44434,71.5846,0.0162582,0.0721226,0.00353429,0.0723453,0.0160355,1.50787,0.043873,0.0460051,1238,1821,9.44437,-71.5846
21,-797,9.77332,71.6416,-0.0015993,0.0828348,0.000426195,0.0828369,-0.00160145,1.56575,0.0557661,0.0450047,1245,1821,9.77333,-71.6416
28,-797,9.85156,71.9283,-0.0187072,0.0955718,-0.000132906,0.095572,-0.0187074,-1.56963,0.0707794,0.0430066,1252,1821,9.85153,-71.9284
35,-797,9.77197,71.3558,-0.0329222,0.110338,0.00318419,0.110409,-0.032993,1.54858,0.0867215,0.0438635,1259,1821,9.77192,-71.3559
42,-797,11.2646,72.4113,0,0,0,0,0,0,0,-1,1266,1821,11.2646,-72.4112
49,-797,10.6077,73.8674,-0.0530143,0.138767,0.0168318,0.140233,-0.0544803,1.48392,0.115995,0.0470403,1273,1821,10.6076,-73.8675
56,-797,10.0886,74.637,-0.0603948,0.153446,0.0250842,0.156349,-0.0632979,1.45558,0.130551,0.0461526,1280,1821,10.0886,-74.6369
63,-797,6.28894,69.6433,-0.064392,0.167233,0.0343041,0.172207,-0.0693657,1.42681,0.143623,0.0410188,1287,1821,6.28893,-69.6433
70,-797,5.52234,70.1833,-0.0655449,0.176105,0.0409013,0.18284,-0.07228,1.40759,0.151834,0.0406377,1294,1821,5.52229,-70.1833
77,-797,4.57251,70.3651,-0.0642356,0.181701,0.0458937,0.189986,-0.0725206,1.39219,0.156534,0.041546,1301,1821,4.57247,-70.3651
84,-797,3.4563,70.557,-0.0597519,0.184637,0.0500625,0.194494,-0.0696094,1.37638,0.158061,0.0472913,1308,1821,3.45628,-70.557
91,-797,3.92139,71.6826,-0.0524027,0.185758,0.053839,0.197363,-0.0640082,1.35849,0.157314,0.0444139,1315,1821,3.92137,-71.6826
98,-797,3.82251,71.203,0,0,0,0,0,0,0,-1,1322,1821,3.82248,-71.203
105,-797,6.94763,70.0138,0,0,0,0,0,0,0,-1,1329,1821,6.94764,-70.0138
112,-797,6.15613,69.7672,0,0,0,0,0,0,0,-1,1336,1821,6.15613,-69.7673
119,-797,6.5155,68.8458,0,0,0,0,0,0,0,-1,1343,1821,6.51548,-68.8459
126,-797,6.10767,68.2756,0,0,0,0,0,0,0,-1,1350,1821,6.10768,-68.2756
133,-797,4.20654,67.4541,0,0,0,0,0,0,0,-1,1357,1821,4.20654,-67.454
140,-797,4.52832,66.1852,0,0,0,0,0,0,0,-1,1364,1821,4.5283,-66.1852
147,-797,4.84546,64.9066,0,0,0,0,0,0,0,-1,1371,1821,4.84551,-64.9067
154,-797,40.2623,8.88733,0,0,0,0,0,0,0,-1,1378,1821,40.2623,-8.88731
161,-797,42.2798,8.17371,0,0,0,0,0,0,0,-1,1385,1821,42.2798,-8.17367
168,-797,0,0,0,0,0,0,0,0,0,-1,1392,1821,0,0
175,-797,0,0,0,0,0,0,0,0,0,-1,1399,1821,0,0
182,-797,0,0,0,0,0,0,0,0,0,-1,1406,1821,0,0
189,-797,0,0,0,0,0,0,0,0,0,-1,1413,1821,0,0
196,-797,0,0,0,0,0,0,0,0,0,-1,1420,1821,0,0
203,-797,0,0,0,0,0,0,0,0,0,-1,1427,1821,0,0
210,-797,0,0,0,0,0,0,0,0,0,-1,1434,1821,0,0
217,-797,0,0,0,0,0,0,0,0,0,-1,1441,1821,0,0
224,-797,0,0,0,0,0,0,0,0,0,-1,1448,1821,0,0
231,-797,0,0,0,0,0,0,0,0,0,-1,1455,1821,0,0
238,-797,0,0,0,0,0,0,0,0,0,-1,1462,1821,0,0
245,-797,0,0,0,0,0,0,0,0,0,-1,1469,1821,0,0
252,-797,0,0,0,0,0,0,0,0,0,-1,1476,1821,0,0
259,-797,0,0,0,0,0,0,0,0,0,-1,1483,1821,0,0
266,-797,0,0,0,0,0,0,0,0,0,-1,1490,1821,0,0
273,-797,0,0,0,0,0,0,0,0,0,-1,1497,1821,0,0
280,-797,0,0,0,0,0,0,0,0,0,-1,1504,1821,0,0
287,-797,0,0,0,0,0,0,0,0,0,-1,1511,1821,0,0
294,-797,0,0,0,0,0,0,0,0,0,-1,1518,1821,0,0
301,-797,0,0,0,0,0,0,0,0,0,-1,1525,1821,0,0
308,-797,0,0,0,0,0,0,0,0,0,-1,1532,1821,0,0
315,-797,0,0,0,0,0,0,0,0,0,-1,1539,1821,0,0
322,-797,0,0,0,0,0,0,0,0,0,-1,1546,1821,0,0
329,-797,0,0,0,0,0,0,0,0,0,-1,1553,1821,0,0
336,-797,0,0,0,0,0,0,0,0,0,-1,1560,1821,0,0
343,-797,0,0,0,0,0,0,0,0,0,-1,1567,1821,0,0
350,-797,0,0,0,0,0,0,0,0,0,-1,1574,1821,0,0
357,-797,0,0,0,0,0,0,0,0,0,-1,1581,1821,0,0
364,-797,0,0,0,0,0,0,0,0,0,-1,1588,1821,0,0
371,-797,0,0,0,0,0,0,0,0,0,-1,1595,1821,0,0
378,-797,0,0,0,0,0,0,0,0,0,-1,1602,1821,0,0
385,-797,0,0,0,0,0,0,0,0,0,-1,1609,1821,0,0
392,-797,0,0,0,0,0,0,0,0,0,-1,1616,1821,0,0
399,-797,0,0,0,0,0,0,0,0,0,-1,1623,1821,0,0
406,-797,0,0,0,0,0,0,0,0,0,-1,1630,1821,0,0
413,-797,0,0,0,0,0,0,0,0,0,-1,1637,1821,0,0
420,-797,0,0,0,0,0,0,0,0,0,-1,1644,1821,0,0
427,-797,0,0,0,0,0,0,0,0,0,-1,1651,1821,0,0
434,-797,0,0,0,0,0,0,0,0,0,-1,1658,1821,0,0
441,-797,0,0,0,0,0,0,0,0,0,-1,1665,1821,0,0
448,-797,0,0,0,0,0,0,0,0,0,-1,1672,1821,0,0
455,-797,0,0,0,0,0,0,0,0,0,-1,1679,1821,0,0
462,-797,0,0,0,0,0,0,0,0,0,-1,1686,1821,0,0
469,-797,0,0,0,0,0,0,0,0,0,-1,1693,1821,0,0
476,-797,0,0,0,0,0,0,0,0,0,-1,1700,1821,0,0
483,-797,0,0,0,0,0,0,0,0,0,-1,1707,1821,0,0
490,-797,0,0,0,0,0,0,0,0,0,-1,1714,1821,0,0
497,-797,0,0,0,0,0,0,0,0,0,-1,1721,1821,0,0
504,-797,0,0,0,0,0,0,0,0,0,-1,1728,1821,0,0
511,-797,0,0,0,0,0,0,0,0,0,-1,1735,1821,0,0
518,-797,0,0,0,0,0,0,0,0,0,-1,1742,1821,0,0
525,-797,0,0,0,0,0,0,0,0,0,-1,1749,1821,0,0
532,-797,0,0,0,0,0,0,0,0,0,-1,1756,1821,0,0
539,-797,0,0,0,0,0,0,0,0,0,-1,1763,1821,0,0
546,-797,0,0,0,0,0,0,0,0,0,-1,1770,1821,0,0
553,-797,0,0,0,0,0,0,0,0,0,-1,1777,1821,0,0
560,-797,0,0,0,0,0,0,0,0,0,-1,1784,1821,0,0
567,-797,0,0,0,0,0,0,0,0,0,-1,1791,1821,0,0
574,-797,0,0,0,0,0,0,0,0,0,-1,1798,1821,0,0
581,-797,0,0,0,0,0,0,0,0,0,-1,1805,1821,0,0
588,-797,0,0,0,0,0,0,0,0,0,-1,1812,1821,0,0
595,-797,0,0,0,0,0,0,0,0,0,-1,1819,1821,0,0
602,-797,0,0,0,0,0,0,0,0,0,-1,1826,1821,0,0
609,-797,0,0,0,0,0,0,0,0,0,-1,1833,1821,0,0
616,-797,0,0,0,0,0,0,0,0,0,-1,1840,1821,0,0
623,-797,0,0,0,0,0,0,0,0,0,-1,1847,1821,0,0
630,-797,0,0,0,0,0,0,0,0,0,-1,1854,1821,0,0
637,-797,0,0,0,0,0,0,0,0,0,-1,1861,1821,0,0
644,-797,0,0,0,0,0,0,0,0,0,-1,1868,1821,0,0
651,-797,0,0,0,0,0,0,0,0,0,-1,1875,1821,0,0
658,-797,0,0,0,0,0,0,0,0,0,-1,1882,1821,0,0
665,-797,0,0,0,0,0,0,0,0,0,-1,1889,1821,0,0
672,-797,0,0,0,0,0,0,0,0,0,-1,1896,1821,0,0
679,-797,0,0,0,0,0,0,0,0,0,-1,1903,1821,0,0
686,-797,0,0,0,0,0,0,0,0,0,-1,1910,1821,0,0
693,-797,0,0,0,0,0,0,0,0,0,-1,1917,1821,0,0
700,-797,0,0,0,0,0,0,0,0,0,-1,1924,1821,0,0
707,-797,0,0,0,0,0,0,0,0,0,-1,1931,1821,0,0
714,-797,0,0,0,0,0,0,0,0,0,-1,1938,1821,0,0
721,-797,0,0,0,0,0,0,0,0,0,-1,1945,1821,0,0
728,-797,0,0,0,0,0,0,0,0,0,-1,1952,1821,0,0
735,-797,0,0,0,0,0,0,0,0,0,-1,1959,1821,0,0
742,-797,0,0,0,0,0,0,0,0,0,-1,1966,1821,0,0
749,-797,0,0,0,0,0,0,0,0,0,-1,1973,1821,0,0
756,-797,0,0,0,0,0,0,0,0,0,-1,1980,1821,0,0
763,-797,0,0,0,0,0,0,0,0,0,-1,1987,1821,0,0
770,-797,0,0,0,0,0,0,0,0,0,-1,1994,1821,0,0
777,-797,0,0,0,0,0,0,0,0,0,-1,2001,1821,0,0
784,-797,0,0,0,0,0,0,0,0,0,-1,2008,1821,0,0
791,-797,0,0,0,0,0,0,0,0,0,-1,2015,1821,0,0
798,-797,0,0,0,0,0,0,0,0,0,-1,2022,1821,0,0
805,-797,0,0,0,0,0,0,0,0,0,-1,2029,1821,0,0
812,-797,0,0,0,0,0,0,0,0,0,-1,2036,1821,0,0
-700,-804,0,0,0,0,0,0,0,0,0,-1,524,1828,0,0
-693,-804,0,0,0,0,0,0,0,0,0,-1,531,1828,0,0
-686,-804,0,0,0,0,0,0,0,0,0,-1,538,1828,0,0
-679,-804,0,0,0,0,0,0,0,0,0,-1,545,1828,0,0
-672,-804,0,0,0,0,0,0,0,0,0,-1,552,1828,0,0
-665,-804,0,0,0,0,0,0,0,0,0,-1,559,1828,0,0
-658,-804,0,0,0,0,0,0,0,0,0,-1,566,1828,0,0
-651,-804,0,0,0,0,0,0,0,0,0,-1,573,1828,0,0
-644,-804,0,0,0,0,0,0,0,0,0,-1,580,1828,0,0
-637,-804,0,0,0,0,0,0,0,0,0,-1,587,1828,0,0
-630,-804,0,0,0,0,0,0,0,0,0,-1,594,1828,0,0
-623,-804,0,0,0,0,0,0,0,0,0,-1,601,1828,0,0
-616,-804,0,0,0,0,0,0,0,0,0,-1,608,1828,0,0
-609,-804,0,0,0,0,0,0,0,0,0,-1,615,1828,0,0
-602,-804,0,0,0,0,0,0,0,0,0,-1,622,1828,0,0
-595,-804,0,0,0,0,0,0,0,0,0,-1,629,1828,0,0
-588,-804,0,0,0,0,0,0,0,0,0,-1,636,1828,0,0
-581,-804,0,0,0,0,0,0,0,0,0,-1,643,1828,0,0
-574,-804,0,0,0,0,0,0,0,0,0,-1,650,1828,0,0
-567,-804,0,0,0,0,0,0,0,0,0,-1,657,1828,0,0
-560,-804,0,0,0,0,0,0,0,0,0,-1,664,1828,0,0
-553,-804,0,0,0,0,0,0,0,0,0,-1,671,1828,0,0
-546,-804,0,0,0,0,0,0,0,0,0,-1,678,1828,0,0
-539,-804,0,0,0,0,0,0,0,0,0,-1,685,1828,0,0
-532,-804,0,0,0,0,0,0,0,0,0,-1,692,1828,0,0
-525,-804,0,0,0,0,0,0,0,0,0,-1,699,1828,0,0
-518,-804,0,0,0,0,0,0,0,0,0,-1,706,1828,0,0
-511,-804,0,0,0,0,0,0,0,0,0,-1,713,1828,0,0
-504,-804,0,0,0,0,0,0,0,0,0,-1,720,1828,0,0
-497,-804,0,0,0,0,0,0,0,0,0,-1,727,1828,0,0
-490,-804,0,0,0,0,0,0,0,0,0,-1,734,1828,0,0
-483,-804,0,0,0,0,0,0,0,0,0,-1,741,1828,0,0
-476,-804,0,0,0,0,0,0,0,0,0,-1,748,1828,0,0
-469,-804,0,0,0,0,0,0,0,0,0,-1,755,1828,0,0
-462,-804,0,0,0,0,0,0,0,0,0,-1,762,1828,0,0
-455,-804,0,0,0,0,0,0,0,0,0,-1,769,1828,0,0
-448,-804,0,0,0,0,0,0,0,0,0,-1,776,1828,0,0
-441,-804,0,0,0,0,0,0,0,0,0,-1,783,1828,0,0
-434,-804,0,0,0,0,0,0,0,0,0,-1,790,1828,0,0
-427,-804,0,0,0,0,0,0,0,0,0,-1,797,1828,0,0
-420,-804,0,0,0,0,0,0,0,0,0,-1,804,1828,0,0
-413,-804,0,0,0,0,0,0,0,0,0,-1,811,1828,0,0
-406,-804,0,0,0,0,0,0,0,0,0,-1,818,1828,0,0
-399,-804,0,0,0,0,0,0,0,0,0,-1,825,1828,0,0
-392,-804,0,0,0,0,0,0,0,0,0,-1,832,1828,0,0
-385,-804,0,0,0,0,0,0,0,0,0,-1,839,1828,0,0
-378,-804,0,0,0,0,0,0,0,0,0,-1,846,1828,0,0
-371,-804,0,0,0,0,0,0,0,0,0,-1,853,1828,0,0
-364,-804,0,0,0,0,0,0,0,0,0,-1,860,1828,0,0
-357,-804,0,0,0,0,0,0,0,0,0,-1,867,1828,0,0
-350,-804,0,0,0,0,0,0,0,0,0,-1,874,1828,0,0
-343,-804,0,0,0,0,0,0,0,0,0,-1,881,1828,0,0
-336,-804,0,0,0,0,0,0,0,0,0,-1,888,1828,0,0
-329,-804,0,0,0,0,0,0,0,0,0,-1,895,1828,0,0
-322,-804,0,0,0,0,0,0,0,0,0,-1,902,1828,0,0
-315,-804,0,0,0,0,0,0,0,0,0,-1,909,1828,0,0
-308,-804,0,0,0,0,0,0,0,0,0,-1,916,1828,0,0
-301,-804,0,0,0,0,0,0,0,0,0,-1,923,1828,0,0
-294,-804,0,0,0,0,0,0,0,0,0,-1,930,1828,0,0
-287,-804,0,0,0,0,0,0,0,0,0,-1,937,1828,0,0
-280,-804,0,0,0,0,0,0,0,0,0,-1,944,1828,0,0
-273,-804,0,0,0,0,0,0,0,0,0,-1,951,1828,0,0
-266,-804,0,0,0,0,0,0,0,0,0,-1,958,1828,0,0
-259,-804,0,0,0,0,0,0,0,0,0,-1,965,1828,0,0
-252,-804,0,0,0,0,0,0,0,0,0,-1,972,1828,0,0
-245,-804,0,0,0,0,0,0,0,0,0,-1,979,1828,0,0
-238,-804,0,0,0,0,0,0,0,0,0,-1,986,1828,0,0
-231,-804,0,0,0,0,0,0,0,0,0,-1,993,1828,0,0
-224,-804,0,0,0,0,0,0,0,0,0,-1,1000,1828,0,0
-217,-804,0,0,0,0,0,0,0,0,0,-1,1007,1828,0,0
-210,-804,0,0,0,0,0,0,0,0,0,-1,1014,1828,0,0
-203,-804,0,0,0,0,0,0,0,0,0,-1,1021,1828,0,0
-196,-804,0,0,0,0,0,0,0,0,0,-1,1028,1828,0,0
-189,-804,0,0,0,0,0,0,0,0,0,-1,1035,1828,0,0
-182,-804,0,0,0,0,0,0,0,0,0,-1,1042,1828,0,0
-175,-804,0,0,0,0,0,0,0,0,0,-1,1049,1828,0,0
-168,-804,0,0,0,0,0,0,0,0,0,-1,1056,1828,0,0
-161,-804,0,0,0,0,0,0,0,0,0,-1,1063,1828,0,0
-154,-804,0,0,0,0,0,0,0,0,0,-1,1070,1828,0,0
-147,-804,0,0,0,0,0,0,0,0,0,-1,1077,1828,0,0
-140,-804,0,0,0,0,0,0,0,0,0,-1,1084,1828,0,0
-133,-804,0,0,0,0,0,0,0,0,0,-1,1091,1828,0,0
-126,-804,0,0,0,0,0,0,0,0,0,-1,1098,1828,0,0
-119,-804,0,0,0,0,0,0,0,0,0,-1,1105,1828,0,0
-112,-804,0,0,0,0,0,0,0,0,0,-1,1112,1828,0,0
-105,-804,0,0,0,0,0,0,0,0,0,-1,1119,1828,0,0
-98,-804,0,0,0,0,0,0,0,0,0,-1,1126,1828,0,0
-91,-804,0,0,0,0,0,0,0,0,0,-1,1133,1828,0,0
-84,-804,0,0,0,0,0,0,0,0,0,-1,1140,1828,0,0
-77,-804,0,0,0,0,0,0,0,0,0,-1,1147,1828,0,0
-70,-804,0,0,0,0,0,0,0,0,0,-1,1154,1828,0,0
-63,-804,0,0,0,0,0,0,0,0,0,-1,1161,1828,0,0
-56,-804,0,0,0,0,0,0,0,0,0,-1,1168,1828,0,0
-49,-804,0,0,0,0,0,0,0,0,0,-1,1175,1828,0,0
-42,-804,0,0,0,0,0,0,0,0,0,-1,1182,1828,0,0
-35,-804,0,0,0,0,0,0,0,0,0,-1,1189,1828,0,0
-28,-804,0,0,0,0,0,0,0,0,0,-1,1196,1828,0,0
-21,-804,0,0,0,0,0,0,0,0,0,-1,1203,1828,0,0
-14,-804,0,0,0,0,0,0,0,0,0,-1,1210,1828,0,0
-7,-804,0,0,0,0,0,0,0,0,0,-1,1217,1828,0,0
0,-804,0,0,0,0,0,0,0,0,0,-1,1224,1828,0,0
7,-804,0,0,0,0,0,0,0,0,0,-1,1231,1828,0,0
14,-804,0,0,0,0,0,0,0,0,0,-1,1238,1828,0,0
21,-804,0,0,0,0,0,0,0,0,0,-1,1245,1828,0,0
28,-804,0,0,0,0,0,0,0,0,0,-1,1252,1828,0,0
35,-804,12.6675,71.0337,-0.0405056,0.118641,0.000173043,0.118641,-0.0405058,1.56971,0.0955035,0.0445349,1259,1828,12.6675,-71.0337
42,-804,11.6476,72.6892,0,0,0,0,0,0,0,-1,1266,1828,11.6476,-72.6892
49,-804,10.8235,74.1901,-0.0640926,0.154619,0.0161344,0.155803,-0.0652765,1.49755,0.131158,0.045283,1273,1828,10.8235,-74.19
56,-804,10.1296,75.6263,-0.072788,0.173428,0.0268056,0.176313,-0.0756726,1.4636,0.149302,0.0464899,1280,1828,10.1297,-75.6264
63,-804,9.44739,77.095,0,0,0,0,0,0,0,-1,1287,1828,9.44741,-77.095
70,-804,4.2749,69.2042,0,0,0,0,0,0,0,-1,1294,1828,4.27496,-69.2042
77,-804,3.19324,69.3818,0,0,0,0,0,0,0,-1,1301,1828,3.19318,-69.3818
84,-804,2.25085,69.3234,0,0,0,0,0,0,0,-1,1308,1828,2.25087,-69.3234
91,-804,0,0,0,0,0,0,0,0,0,-1,1315,1828,0,0
98,-804,0,0,0,0,0,0,0,0,0,-1,1322,1828,0,0
105,-804,0,0,0,0,0,0,0,0,0,-1,1329,1828,0,0
112,-804,0,0,0,0,0,0,0,0,0,-1,1336,1828,0,0
119,-804,0,0,0,0,0,0,0,0,0,-1,1343,1828,0,0
126,-804,0,0,0,0,0,0,0,0,0,-1,1350,1828,0,0
133,-804,0,0,0,0,0,0,0,0,0,-1,1357,1828,0,0
140,-804,0,0,0,0,0,0,0,0,0,-1,1364,1828,0,0
147,-804,0,0,0,0,0,0,0,0,0,-1,1371,1828,0,0
154,-804,0,0,0,0,0,0,0,0,0,-1,1378,1828,0,0
161,-804,0,0,0,0,0,0,0,0,0,-1,1385,1828,0,0
168,-804,0,0,0,0,0,0,0,0,0,-1,1392,1828,0,0
175,-804,0,0,0,0,0,0,0,0,0,-1,1399,1828,0,0
182,-804,0,0,0,0,0,0,0,0,0,-1,1406,1828,0,0
189,-804,0,0,0,0,0,0,0,0,0,-1,1413,1828,0,0
196,-804,0,0,0,0,0,0,0,0,0,-1,1420,1828,0,0
203,-804,0,0,0,0,0,0,0,0,0,-1,1427,1828,0,0
210,-804,0,0,0,0,0,0,0,0,0,-1,1434,1828,0,0
217,-804,0,0,0,0,0,0,0,0,0,-1,1441,1828,0,0
224,-804,0,0,0,0,0,0,0,0,0,-1,1448,1828,0,0
231,-804,0,0,0,0,0,0,0,0,0,-1,1455,1828,0,0
238,-804,0,0,0,0,0,0,0,0,0,-1,1462,1828,0,0
245,-804,0,0,0,0,0,0,0,0,0,-1,1469,1828,0,0
252,-804,0,0,0,0,0,0,0,0,0,-1,1476,1828,0,0
259,-804,0,0,0,0,0,0,0,0,0,-1,1483,1828,0,0
266,-804,0,0,0,0,0,0,0,0,0,-1,1490,1828,0,0
273,-804,0,0,0,0,0,0,0,0,0,-1,1497,1828,0,0
280,-804,0,0,0,0,0,0,0,0,0,-1,1504,1828,0,0
287,-804,0,0,0,0,0,0,0,0,0,-1,1511,1828,0,0
294,-804,0,0,0,0,0,0,0,0,0,-1,1518,1828,0,0
301,-804,0,0,0,0,0,0,0,0,0,-1,1525,1828,0,0
308,-804,0,0,0,0,0,0,0,0,0,-1,1532,1828,0,0
315,-804,0,0,0,0,0,0,0,0,0,-1,1539,1828,0,0
322,-804,0,0,0,0,0,0,0,0,0,-1,1546,1828,0,0
329,-804,0,0,0,0,0,0,0,0,0,-1,1553,1828,0,0
336,-804,0,0,0,0,0,0,0,0,0,-1,1560,1828,0,0
343,-804,0,0,0,0,0,0,0,0,0,-1,1567,1828,0,0
350,-804,0,0,0,0,0,0,0,0,0,-1,1574,1828,0,0
357,-804,0,0,0,0,0,0,0,0,0,-1,1581,1828,0,0
364,-804,0,0,0,0,0,0,0,0,0,-1,1588,1828,0,0
371,-804,0,0,0,0,0,0,0,0,0,-1,1595,1828,0,0
378,-804,0,0,0,0,0,0,0,0,0,-1,1602,1828,0,0
385,-804,0,0,0,0,0,0,0,0,0,-1,1609,1828,0,0
392,-804,0,0,0,0,0,0,0,0,0,-1,1616,1828,0,0
399,-804,0,0,0,0,0,0,0,0,0,-1,1623,1828,0,0
406,-804,0,0,0,0,0,0,0,0,0,-1,1630,1828,0,0
413,-804,0,0,0,0,0,0,0,0,0,-1,1637,1828,0,0
420,-804,0,0,0,0,0,0,0,0,0,-1,1644,1828,0,0
427,-804,0,0,0,0,0,0,0,0,0,-1,1651,1828,0,0
434,-804,0,0,0,0,0,0,0,0,0,-1,1658,1828,0,0
441,-804,0,0,0,0,0,0,0,0,0,-1,1665,1828,0,0
448,-804,0,0,0,0,0,0,0,0,0,-1,1672,1828,0,0
455,-804,0,0,0,0,0,0,0,0,0,-1,1679,1828,0,0
462,-804,0,0,0,0,0,0,0,0,0,-1,1686,1828,0,0
469,-804,0,0,0,0,0,0,0,0,0,-1,1693,1828,0,0
476,-804,0,0,0,0,0,0,0,0,0,-1,1700,1828,0,0
483,-804,0,0,0,0,0,0,0,0,0,-1,1707,1828,0,0
490,-804,0,0,0,0,0,0,0,0,0,-1,1714,1828,0,0
497,-804,0,0,0,0,0,0,0,0,0,-1,1721,1828,0,0
504,-804,0,0,0,0,0,0,0,0,0,-1,1728,1828,0,0
511,-804,0,0,0,0,0,0,0,0,0,-1,1735,1828,0,0
518,-804,0,0,0,0,0,0,0,0,0,-1,1742,1828,0,0
525,-804,0,0,0,0,0,0,0,0,0,-1,1749,1828,0,0
532,-804,0,0,0,0,0,0,0,0,0,-1,1756,1828,0,0
539,-804,0,0,0,0,0,0,0,0,0,-1,1763,1828,0,0
546,-804,0,0,0,0,0,0,0,0,0,-1,1770,1828,0,0
553,-804,0,0,0,0,0,0,0,0,0,-1,1777,1828,0,0
560,-804,0,0,0,0,0,0,0,0,0,-1,1784,1828,0,0
567,-804,0,0,0,0,0,0,0,0,0,-1,1791,1828,0,0
574,-804,0,0,0,0,0,0,0,0,0,-1,1798,1828,0,0
581,-804,0,0,0,0,0,0,0,0,0,-1,1805,1828,0,0
588,-804,0,0,0,0,0,0,0,0,0,-1,1812,1828,0,0
595,-804,0,0,0,0,0,0,0,0,0,-1,1819,1828,0,0
602,-804,0,0,0,0,0,0,0,0,0,-1,1826,1828,0,0
609,-804,0,0,0,0,0,0,0,0,0,-1,1833,1828,0,0
616,-804,0,0,0,0,0,0,0,0,0,-1,1840,1828,0,0
623,-804,0,0,0,0,0,0,0,0,0,-1,1847,1828,0,0
630,-804,0,0,0,0,0,0,0,0,0,-1,1854,1828,0,0
637,-804,0,0,0,0,0,0,0,0,0,-1,1861,1828,0,0
644,-804,0,0,0,0,0,0,0,0,0,-1,1868,1828,0,0
651,-804,0,0,0,0,0,0,0,0,0,-1,1875,1828,0,0
658,-804,0,0,0,0,0,0,0,0,0,-1,1882,1828,0,0
665,-804,0,0,0,0,0,0,0,0,0,-1,1889,1828,0,0
672,-804,0,0,0,0,0,0,0,0,0,-1,1896,1828,0,0
679,-804,0,0,0,0,0,0,0,0,0,-1,1903,1828,0,0
686,-804,0,0,0,0,0,0,0,0,0,-1,1910,1828,0,0
693,-804,0,0,0,0,0,0,0,0,0,-1,1917,1828,0,0
700,-804,0,0,0,0,0,0,0,0,0,-1,1924,1828,0,0
707,-804,0,0,0,0,0,0,0,0,0,-1,1931,1828,0,0
714,-804,0,0,0,0,0,0,0,0,0,-1,1938,1828,0,0
721,-804,0,0,0,0,0,0,0,0,0,-1,1945,1828,0,0
728,-804,0,0,0,0,0,0,0,0,0,-1,1952,1828,0,0
735,-804,0,0,0,0,0,0,0,0,0,-1,1959,1828,0,0
742,-804,0,0,0,0,0,0,0,0,0,-1,1966,1828,0,0
749,-804,0,0,0,0,0,0,0,0,0,-1,1973,1828,0,0
756,-804,0,0,0,0,0,0,0,0,0,-1,1980,1828,0,0
763,-804,0,0,0,0,0,0,0,0,0,-1,1987,1828,0,0
770,-804,0,0,0,0,0,0,0,0,0,-1,1994,1828,0,0
777,-804,0,0,0,0,0,0,0,0,0,-1,2001,1828,0,0
784,-804,0,0,0,0,0,0,0,0,0,-1,2008,1828,0,0
791,-804,0,0,0,0,0,0,0,0,0,-1,2015,1828,0,0
798,-804,0,0,0,0,0,0,0,0,0,-1,2022,1828,0,0
805,-804,0,0,0,0,0,0,0,0,0,-1,2029,1828,0,0
812,-804,0,0,0,0,0,0,0,0,0,-1,2036,1828,0,0

